
     Program PWSCF v.7.3.1 starts on  6Oct2026 at 11:25: 2 

     This program is part of the open-source Quantum ESPRESSO suite
     for quantum simulation of materials; please cite
         "P. Giannozzi et al., J. Phys.:Condens. Matter 21 395502 (2009);
         "P. Giannozzi et al., J. Phys.:Condens. Matter 29 465901 (2017);
         "P. Giannozzi et al., J. Chem. Phys. 152 154105 (2020);
          URL http://www.quantum-espresso.org", 
     in publications or presentations arising from this work. More details at
     http://www.quantum-espresso.org/quote

     Parallel version (MPI), running on     1 processors

     MPI processes distributed on     1 nodes
     1977 MiB available memory on the printing compute node when the environment starts

     Waiting for input...
     Reading input from standard input

     Current dimensions of program PWSCF are:
     Max number of different atomic species (ntypx) = 10
     Max number of k-points (npk) =  40000
     Max angular momentum in pseudopotentials (lmaxx) =  4

     Subspace diagonalization in iterative solution of the eigenvalue problem:
     a serial algorithm will be used


     G-vector sticks info
     --------------------
     sticks:   dense  smooth     PW     G-vecs:    dense   smooth      PW
     Sum         163     163     61                 1459     1459     339

     Using Slab Decomposition



     bravais-lattice index     =            2
     lattice parameter (alat)  =      10.2000  a.u.
     unit-cell volume          =     265.3020 (a.u.)^3
     number of atoms/cell      =            2
     number of atomic types    =            1
     number of electrons       =         8.00
     number of Kohn-Sham states=            4
     kinetic-energy cutoff     =      12.0000  Ry
     charge density cutoff     =      48.0000  Ry
     scf convergence threshold =      1.0E-06
     mixing beta               =       0.7000
     number of iterations used =            8  plain     mixing
     Exchange-correlation=  SLA  PZ   NOGX NOGC
                           (   1   1   0   0   0   0   0)

     celldm(1)=  10.200000  celldm(2)=   0.000000  celldm(3)=   0.000000
     celldm(4)=   0.000000  celldm(5)=   0.000000  celldm(6)=   0.000000

     crystal axes: (cart. coord. in units of alat)
               a(1) = (  -0.500000   0.000000   0.500000 )  
               a(2) = (   0.000000   0.500000   0.500000 )  
               a(3) = (  -0.500000   0.500000   0.000000 )  

     reciprocal axes: (cart. coord. in units 2 pi/alat)
               b(1) = ( -1.000000 -1.000000  1.000000 )  
               b(2) = (  1.000000  1.000000  1.000000 )  
               b(3) = ( -1.000000  1.000000 -1.000000 )  


     PseudoPot. # 1 for Si read from file:
     /home/manuel/pseudo/Si.pz-vbc.UPF
     MD5 check sum: 6dfa03ddd5817404712e03e4d12deb78
     Pseudo is Norm-conserving, Zval =  4.0
     Generated by new atomic code, or converted to UPF format
     Using radial grid of  431 points,  2 beta functions with: 
                l(1) =   0
                l(2) =   1

     atomic species   valence    mass     pseudopotential
     Si                4.00    28.08600     Si( 1.00)

     48 Sym. Ops., with inversion, found (24 have fractional translation)



   Cartesian axes

     site n.     atom                  positions (alat units)
         1        Si     tau(   1) = (   0.0000000   0.0000000   0.0000000  )
         2        Si     tau(   2) = (   0.2500000   0.2500000   0.2500000  )

     number of k points=    28
                       cart. coord. in units 2pi/alat
        k(    1) = (  -0.0833333   0.0833333   0.0833333), wk =   0.0185185
        k(    2) = (  -0.2500000   0.2500000  -0.0833333), wk =   0.0555556
        k(    3) = (  -0.4166667   0.4166667  -0.2500000), wk =   0.0555556
        k(    4) = (   0.4166667  -0.4166667   0.5833333), wk =   0.0555556
        k(    5) = (   0.2500000  -0.2500000   0.4166667), wk =   0.0555556
        k(    6) = (   0.0833333  -0.0833333   0.2500000), wk =   0.0555556
        k(    7) = (  -0.0833333   0.4166667   0.0833333), wk =   0.0555556
        k(    8) = (  -0.2500000   0.5833333  -0.0833333), wk =   0.1111111
        k(    9) = (   0.5833333  -0.2500000   0.7500000), wk =   0.1111111
        k(   10) = (   0.4166667  -0.0833333   0.5833333), wk =   0.1111111
        k(   11) = (   0.2500000   0.0833333   0.4166667), wk =   0.1111111
        k(   12) = (  -0.0833333   0.7500000   0.0833333), wk =   0.0555556
        k(   13) = (   0.7500000  -0.0833333   0.9166667), wk =   0.1111111
        k(   14) = (   0.5833333   0.0833333   0.7500000), wk =   0.1111111
        k(   15) = (   0.4166667   0.2500000   0.5833333), wk =   0.1111111
        k(   16) = (  -0.0833333  -0.9166667   0.0833333), wk =   0.0555556
        k(   17) = (  -0.2500000  -0.7500000  -0.0833333), wk =   0.1111111
        k(   18) = (  -0.0833333  -0.5833333   0.0833333), wk =   0.0555556
        k(   19) = (  -0.2500000   0.2500000   0.2500000), wk =   0.0185185
        k(   20) = (  -0.4166667   0.4166667   0.0833333), wk =   0.0555556
        k(   21) = (   0.4166667  -0.4166667   0.9166667), wk =   0.0555556
        k(   22) = (   0.2500000  -0.2500000   0.7500000), wk =   0.0555556
        k(   23) = (  -0.2500000   0.5833333   0.2500000), wk =   0.0555556
        k(   24) = (   0.5833333  -0.2500000   1.0833333), wk =   0.1111111
        k(   25) = (   0.4166667  -0.0833333   0.9166667), wk =   0.1111111
        k(   26) = (  -0.2500000  -1.0833333   0.2500000), wk =   0.0555556
        k(   27) = (  -0.4166667   0.4166667   0.4166667), wk =   0.0185185
        k(   28) = (   0.4166667  -0.4166667   1.2500000), wk =   0.0555556

     Dense  grid:     1459 G-vectors     FFT dimensions: (  16,  16,  16)

     Estimated max dynamical RAM per process >       1.34 MB

     Initial potential from superposition of free atoms

     starting charge       7.9990, renormalised to       8.0000
     Starting wfcs are    8 randomized atomic wfcs

     total cpu time spent up to now is        0.1 secs

     Self-consistent Calculation

     iteration #  1     ecut=    12.00 Ry     beta= 0.70
     Davidson diagonalization with overlap
     ethr =  1.00E-02,  avg # of iterations =  2.0

     Threshold (ethr) on eigenvalues was too large:
     Diagonalizing with lowered threshold

     Davidson diagonalization with overlap
     ethr =  6.77E-04,  avg # of iterations =  1.0

     total cpu time spent up to now is        0.1 secs

     total energy              =     -15.80410067 Ry
     estimated scf accuracy    <       0.05883210 Ry

     iteration #  2     ecut=    12.00 Ry     beta= 0.70
     Davidson diagonalization with overlap
     ethr =  7.35E-04,  avg # of iterations =  1.0

     total cpu time spent up to now is        0.1 secs

     total energy              =     -15.80708633 Ry
     estimated scf accuracy    <       0.00213550 Ry

     iteration #  3     ecut=    12.00 Ry     beta= 0.70
     Davidson diagonalization with overlap
     ethr =  2.67E-05,  avg # of iterations =  2.4

     total cpu time spent up to now is        0.2 secs

     total energy              =     -15.80754688 Ry
     estimated scf accuracy    <       0.00006300 Ry

     iteration #  4     ecut=    12.00 Ry     beta= 0.70
     Davidson diagonalization with overlap
     ethr =  7.87E-07,  avg # of iterations =  2.9

     total cpu time spent up to now is        0.2 secs

     total energy              =     -15.80756996 Ry
     estimated scf accuracy    <       0.00000103 Ry

     iteration #  5     ecut=    12.00 Ry     beta= 0.70
     Davidson diagonalization with overlap
     ethr =  1.29E-08,  avg # of iterations =  4.2

     total cpu time spent up to now is        0.2 secs

     End of self-consistent calculation

          k =-0.0833 0.0833 0.0833 (   172 PWs)   bands (ev):

    -5.6098   5.4491   6.1481   6.1481

          k =-0.2500 0.2500-0.0833 (   178 PWs)   bands (ev):

    -5.1356   3.3636   4.8658   5.9262

          k =-0.4167 0.4167-0.2500 (   187 PWs)   bands (ev):

    -4.0161   0.5266   4.3933   5.2607

          k = 0.4167-0.4167 0.5833 (   182 PWs)   bands (ev):

    -3.2701  -0.6608   4.4697   4.8627

          k = 0.2500-0.2500 0.4167 (   186 PWs)   bands (ev):

    -4.4445   1.3986   4.9246   4.9844

          k = 0.0833-0.0833 0.2500 (   174 PWs)   bands (ev):

    -5.3709   4.3936   5.4677   5.6852

          k =-0.0833 0.4167 0.0833 (   180 PWs)   bands (ev):

    -4.8918   3.2179   4.7061   4.7164

          k =-0.2500 0.5833-0.0833 (   188 PWs)   bands (ev):

    -3.9688   1.3385   3.3378   4.3096

          k = 0.5833-0.2500 0.7500 (   187 PWs)   bands (ev):

    -2.7993  -0.4815   2.7373   4.0665

          k = 0.4167-0.0833 0.5833 (   187 PWs)   bands (ev):

    -3.5552   0.6189   2.6758   4.5783

          k = 0.2500 0.0833 0.4167 (   185 PWs)   bands (ev):

    -4.6652   2.3302   4.0613   5.2810

          k =-0.0833 0.7500 0.0833 (   190 PWs)   bands (ev):

    -3.2447   0.5372   3.2853   3.6419

          k = 0.7500-0.0833 0.9167 (   191 PWs)   bands (ev):

    -2.0216  -0.8180   2.4034   3.2146

          k = 0.5833 0.0833 0.7500 (   186 PWs)   bands (ev):

    -2.3707  -0.5123   1.9136   3.7833

          k = 0.4167 0.2500 0.5833 (   184 PWs)   bands (ev):

    -3.4247  -0.1229   3.6740   4.6790

          k =-0.0833-0.9167 0.0833 (   192 PWs)   bands (ev):

    -2.1215  -0.8371   3.0043   3.4197

          k =-0.2500-0.7500-0.0833 (   190 PWs)   bands (ev):

    -3.0719   0.3035   2.7503   3.5661

          k =-0.0833-0.5833 0.0833 (   186 PWs)   bands (ev):

    -4.1775   1.9169   3.8590   4.0769

          k =-0.2500 0.2500 0.2500 (   180 PWs)   bands (ev):

    -4.8957   2.3521   5.5059   5.5059

          k =-0.4167 0.4167 0.0833 (   186 PWs)   bands (ev):

    -4.2084   1.4243   3.3070   5.3278

          k = 0.4167-0.4167 0.9167 (   186 PWs)   bands (ev):

    -2.9882  -0.0207   2.1526   4.5099

          k = 0.2500-0.2500 0.7500 (   186 PWs)   bands (ev):

    -2.9446  -0.0932   2.6569   4.0086

          k =-0.2500 0.5833 0.2500 (   185 PWs)   bands (ev):

    -3.7712   0.5950   3.8108   4.3934

          k = 0.5833-0.2500 1.0833 (   190 PWs)   bands (ev):

    -2.7530  -0.1104   2.2500   3.5619

          k = 0.4167-0.0833 0.9167 (   190 PWs)   bands (ev):

    -1.8999  -0.8304   2.0616   2.8646

          k =-0.2500-1.0833 0.2500 (   184 PWs)   bands (ev):

    -2.0951  -0.7462   1.9318   3.8080

          k =-0.4167 0.4167 0.4167 (   183 PWs)   bands (ev):

    -3.6510  -0.2509   5.1008   5.1008

          k = 0.4167-0.4167 1.2500 (   183 PWs)   bands (ev):

    -3.0375  -0.5371   3.2354   4.6409

     highest occupied level (ev):     6.1481

!    total energy              =     -15.80757094 Ry
     estimated scf accuracy    <       0.00000009 Ry

     The total energy is the sum of the following terms:
     one-electron contribution =       4.83149505 Ry
     hartree contribution      =       1.06604385 Ry
     xc contribution           =      -4.80535126 Ry
     ewald contribution        =     -16.89975858 Ry

     convergence has been achieved in   5 iterations

     Writing all to output data dir ../tmp/silicon.save/ :
     XML data file, charge density, pseudopotentials, collected wavefunctions

     init_run     :      0.06s CPU      0.06s WALL (       1 calls)
     electrons    :      0.12s CPU      0.13s WALL (       1 calls)

     Called by init_run:
     wfcinit      :      0.02s CPU      0.02s WALL (       1 calls)
     potinit      :      0.00s CPU      0.00s WALL (       1 calls)
     hinit0       :      0.03s CPU      0.03s WALL (       1 calls)

     Called by electrons:
     c_bands      :      0.10s CPU      0.11s WALL (       6 calls)
     sum_band     :      0.01s CPU      0.02s WALL (       6 calls)
     v_of_rho     :      0.00s CPU      0.00s WALL (       6 calls)
     mix_rho      :      0.00s CPU      0.00s WALL (       6 calls)

     Called by c_bands:
     init_us_2    :      0.01s CPU      0.01s WALL (     364 calls)
     cegterg      :      0.09s CPU      0.10s WALL (     168 calls)

     Called by *egterg:
     cdiaghg      :      0.01s CPU      0.01s WALL (     519 calls)
     h_psi        :      0.08s CPU      0.09s WALL (     575 calls)
     g_psi        :      0.00s CPU      0.00s WALL (     379 calls)

     Called by h_psi:
     h_psi:calbec :      0.01s CPU      0.01s WALL (     575 calls)
     vloc_psi     :      0.07s CPU      0.07s WALL (     575 calls)
     add_vuspsi   :      0.01s CPU      0.01s WALL (     575 calls)

     General routines
     calbec       :      0.00s CPU      0.01s WALL (     575 calls)
     fft          :      0.02s CPU      0.02s WALL (      18 calls)
     ffts         :      0.00s CPU      0.00s WALL (       6 calls)
     fftw         :      0.06s CPU      0.06s WALL (    4854 calls)

     Parallel routines

     PWSCF        :      0.20s CPU      0.23s WALL


   This run was terminated on:  11:25: 2   6Oct2026            

=------------------------------------------------------------------------------=
   JOB DONE.
=------------------------------------------------------------------------------=
