
     Program PWSCF v.7.3.1 starts on  6Oct2026 at 11:25: 9 

     This program is part of the open-source Quantum ESPRESSO suite
     for quantum simulation of materials; please cite
         "P. Giannozzi et al., J. Phys.:Condens. Matter 21 395502 (2009);
         "P. Giannozzi et al., J. Phys.:Condens. Matter 29 465901 (2017);
         "P. Giannozzi et al., J. Chem. Phys. 152 154105 (2020);
          URL http://www.quantum-espresso.org", 
     in publications or presentations arising from this work. More details at
     http://www.quantum-espresso.org/quote

     Parallel version (MPI), running on     1 processors

     MPI processes distributed on     1 nodes
     1968 MiB available memory on the printing compute node when the environment starts

     Waiting for input...
     Reading input from standard input

     Current dimensions of program PWSCF are:
     Max number of different atomic species (ntypx) = 10
     Max number of k-points (npk) =  40000
     Max angular momentum in pseudopotentials (lmaxx) =  4

     Subspace diagonalization in iterative solution of the eigenvalue problem:
     a serial algorithm will be used


     G-vector sticks info
     --------------------
     sticks:   dense  smooth     PW     G-vecs:    dense   smooth      PW
     Sum         163     163     61                 1459     1459     339

     Using Slab Decomposition



     bravais-lattice index     =            2
     lattice parameter (alat)  =      10.2000  a.u.
     unit-cell volume          =     265.3020 (a.u.)^3
     number of atoms/cell      =            2
     number of atomic types    =            1
     number of electrons       =         8.00
     number of Kohn-Sham states=            4
     kinetic-energy cutoff     =      12.0000  Ry
     charge density cutoff     =      48.0000  Ry
     scf convergence threshold =      1.0E-06
     mixing beta               =       0.7000
     number of iterations used =            8  plain     mixing
     Exchange-correlation=  SLA  PZ   NOGX NOGC
                           (   1   1   0   0   0   0   0)

     celldm(1)=  10.200000  celldm(2)=   0.000000  celldm(3)=   0.000000
     celldm(4)=   0.000000  celldm(5)=   0.000000  celldm(6)=   0.000000

     crystal axes: (cart. coord. in units of alat)
               a(1) = (  -0.500000   0.000000   0.500000 )  
               a(2) = (   0.000000   0.500000   0.500000 )  
               a(3) = (  -0.500000   0.500000   0.000000 )  

     reciprocal axes: (cart. coord. in units 2 pi/alat)
               b(1) = ( -1.000000 -1.000000  1.000000 )  
               b(2) = (  1.000000  1.000000  1.000000 )  
               b(3) = ( -1.000000  1.000000 -1.000000 )  


     PseudoPot. # 1 for Si read from file:
     /home/manuel/pseudo/Si.pz-vbc.UPF
     MD5 check sum: 6dfa03ddd5817404712e03e4d12deb78
     Pseudo is Norm-conserving, Zval =  4.0
     Generated by new atomic code, or converted to UPF format
     Using radial grid of  431 points,  2 beta functions with: 
                l(1) =   0
                l(2) =   1

     atomic species   valence    mass     pseudopotential
     Si                4.00    28.08600     Si( 1.00)

     48 Sym. Ops., with inversion, found (24 have fractional translation)



   Cartesian axes

     site n.     atom                  positions (alat units)
         1        Si     tau(   1) = (   0.0000000   0.0000000   0.0000000  )
         2        Si     tau(   2) = (   0.2500000   0.2500000   0.2500000  )

     number of k points=    60
                       cart. coord. in units 2pi/alat
        k(    1) = (  -0.0625000   0.0625000   0.0625000), wk =   0.0078125
        k(    2) = (  -0.1875000   0.1875000  -0.0625000), wk =   0.0234375
        k(    3) = (  -0.3125000   0.3125000  -0.1875000), wk =   0.0234375
        k(    4) = (  -0.4375000   0.4375000  -0.3125000), wk =   0.0234375
        k(    5) = (   0.4375000  -0.4375000   0.5625000), wk =   0.0234375
        k(    6) = (   0.3125000  -0.3125000   0.4375000), wk =   0.0234375
        k(    7) = (   0.1875000  -0.1875000   0.3125000), wk =   0.0234375
        k(    8) = (   0.0625000  -0.0625000   0.1875000), wk =   0.0234375
        k(    9) = (  -0.0625000   0.3125000   0.0625000), wk =   0.0234375
        k(   10) = (  -0.1875000   0.4375000  -0.0625000), wk =   0.0468750
        k(   11) = (  -0.3125000   0.5625000  -0.1875000), wk =   0.0468750
        k(   12) = (   0.5625000  -0.3125000   0.6875000), wk =   0.0468750
        k(   13) = (   0.4375000  -0.1875000   0.5625000), wk =   0.0468750
        k(   14) = (   0.3125000  -0.0625000   0.4375000), wk =   0.0468750
        k(   15) = (   0.1875000   0.0625000   0.3125000), wk =   0.0468750
        k(   16) = (  -0.0625000   0.5625000   0.0625000), wk =   0.0234375
        k(   17) = (  -0.1875000   0.6875000  -0.0625000), wk =   0.0468750
        k(   18) = (   0.6875000  -0.1875000   0.8125000), wk =   0.0468750
        k(   19) = (   0.5625000  -0.0625000   0.6875000), wk =   0.0468750
        k(   20) = (   0.4375000   0.0625000   0.5625000), wk =   0.0468750
        k(   21) = (   0.3125000   0.1875000   0.4375000), wk =   0.0468750
        k(   22) = (  -0.0625000   0.8125000   0.0625000), wk =   0.0234375
        k(   23) = (   0.8125000  -0.0625000   0.9375000), wk =   0.0468750
        k(   24) = (   0.6875000   0.0625000   0.8125000), wk =   0.0468750
        k(   25) = (   0.5625000   0.1875000   0.6875000), wk =   0.0468750
        k(   26) = (   0.4375000   0.3125000   0.5625000), wk =   0.0468750
        k(   27) = (  -0.0625000  -0.9375000   0.0625000), wk =   0.0234375
        k(   28) = (  -0.1875000  -0.8125000  -0.0625000), wk =   0.0468750
        k(   29) = (  -0.3125000  -0.6875000  -0.1875000), wk =   0.0468750
        k(   30) = (  -0.0625000  -0.6875000   0.0625000), wk =   0.0234375
        k(   31) = (  -0.1875000  -0.5625000  -0.0625000), wk =   0.0468750
        k(   32) = (  -0.0625000  -0.4375000   0.0625000), wk =   0.0234375
        k(   33) = (  -0.1875000   0.1875000   0.1875000), wk =   0.0078125
        k(   34) = (  -0.3125000   0.3125000   0.0625000), wk =   0.0234375
        k(   35) = (  -0.4375000   0.4375000  -0.0625000), wk =   0.0234375
        k(   36) = (   0.4375000  -0.4375000   0.8125000), wk =   0.0234375
        k(   37) = (   0.3125000  -0.3125000   0.6875000), wk =   0.0234375
        k(   38) = (   0.1875000  -0.1875000   0.5625000), wk =   0.0234375
        k(   39) = (  -0.1875000   0.4375000   0.1875000), wk =   0.0234375
        k(   40) = (  -0.3125000   0.5625000   0.0625000), wk =   0.0468750
        k(   41) = (   0.5625000  -0.3125000   0.9375000), wk =   0.0468750
        k(   42) = (   0.4375000  -0.1875000   0.8125000), wk =   0.0468750
        k(   43) = (   0.3125000  -0.0625000   0.6875000), wk =   0.0468750
        k(   44) = (  -0.1875000   0.6875000   0.1875000), wk =   0.0234375
        k(   45) = (   0.6875000  -0.1875000   1.0625000), wk =   0.0468750
        k(   46) = (   0.5625000  -0.0625000   0.9375000), wk =   0.0468750
        k(   47) = (   0.4375000   0.0625000   0.8125000), wk =   0.0468750
        k(   48) = (  -0.1875000  -1.0625000   0.1875000), wk =   0.0234375
        k(   49) = (  -0.3125000  -0.9375000   0.0625000), wk =   0.0468750
        k(   50) = (  -0.1875000  -0.8125000   0.1875000), wk =   0.0234375
        k(   51) = (  -0.3125000   0.3125000   0.3125000), wk =   0.0078125
        k(   52) = (  -0.4375000   0.4375000   0.1875000), wk =   0.0234375
        k(   53) = (   0.4375000  -0.4375000   1.0625000), wk =   0.0234375
        k(   54) = (   0.3125000  -0.3125000   0.9375000), wk =   0.0234375
        k(   55) = (  -0.3125000   0.5625000   0.3125000), wk =   0.0234375
        k(   56) = (   0.5625000  -0.3125000   1.1875000), wk =   0.0468750
        k(   57) = (   0.4375000  -0.1875000   1.0625000), wk =   0.0468750
        k(   58) = (  -0.3125000  -1.1875000   0.3125000), wk =   0.0234375
        k(   59) = (  -0.4375000   0.4375000   0.4375000), wk =   0.0078125
        k(   60) = (   0.4375000  -0.4375000   1.3125000), wk =   0.0234375

     Dense  grid:     1459 G-vectors     FFT dimensions: (  16,  16,  16)

     Estimated max dynamical RAM per process >       1.70 MB

     Initial potential from superposition of free atoms

     starting charge       7.9990, renormalised to       8.0000
     Starting wfcs are    8 randomized atomic wfcs

     total cpu time spent up to now is        0.1 secs

     Self-consistent Calculation

     iteration #  1     ecut=    12.00 Ry     beta= 0.70
     Davidson diagonalization with overlap
     ethr =  1.00E-02,  avg # of iterations =  2.0

     Threshold (ethr) on eigenvalues was too large:
     Diagonalizing with lowered threshold

     Davidson diagonalization with overlap
     ethr =  6.78E-04,  avg # of iterations =  1.0

     total cpu time spent up to now is        0.2 secs

     total energy              =     -15.80424353 Ry
     estimated scf accuracy    <       0.05885639 Ry

     iteration #  2     ecut=    12.00 Ry     beta= 0.70
     Davidson diagonalization with overlap
     ethr =  7.36E-04,  avg # of iterations =  1.0

     total cpu time spent up to now is        0.2 secs

     total energy              =     -15.80723691 Ry
     estimated scf accuracy    <       0.00213502 Ry

     iteration #  3     ecut=    12.00 Ry     beta= 0.70
     Davidson diagonalization with overlap
     ethr =  2.67E-05,  avg # of iterations =  2.4

     total cpu time spent up to now is        0.3 secs

     total energy              =     -15.80770013 Ry
     estimated scf accuracy    <       0.00006290 Ry

     iteration #  4     ecut=    12.00 Ry     beta= 0.70
     Davidson diagonalization with overlap
     ethr =  7.86E-07,  avg # of iterations =  3.2

     total cpu time spent up to now is        0.3 secs

     End of self-consistent calculation

          k =-0.0625 0.0625 0.0625 (   172 PWs)   bands (ev):

    -5.6522   5.7731   6.2074   6.2074

          k =-0.1875 0.1875-0.0625 (   174 PWs)   bands (ev):

    -5.3830   4.2718   5.3578   6.0818

          k =-0.3125 0.3125-0.1875 (   186 PWs)   bands (ev):

    -4.7290   1.9818   4.8537   5.5943

          k =-0.4375 0.4375-0.3125 (   186 PWs)   bands (ev):

    -3.7788   0.0292   4.6349   5.1680

          k = 0.4375-0.4375 0.5625 (   179 PWs)   bands (ev):

    -3.2708  -0.7143   4.6925   4.9395

          k = 0.3125-0.3125 0.4375 (   184 PWs)   bands (ev):

    -4.1052   0.6138   4.9578   4.9908

          k = 0.1875-0.1875 0.3125 (   184 PWs)   bands (ev):

    -4.9899   2.7332   5.2441   5.4745

          k = 0.0625-0.0625 0.1875 (   174 PWs)   bands (ev):

    -5.5201   5.0344   5.7506   5.9380

          k =-0.0625 0.3125 0.0625 (   176 PWs)   bands (ev):

    -5.2477   4.1656   5.1629   5.2787

          k =-0.1875 0.4375-0.0625 (   186 PWs)   bands (ev):

    -4.7182   2.6294   4.1565   4.9966

          k =-0.3125 0.5625-0.1875 (   187 PWs)   bands (ev):

    -3.8423   0.6970   3.6691   4.5546

          k = 0.5625-0.3125 0.6875 (   185 PWs)   bands (ev):

    -3.0224  -0.5771   3.3804   4.4520

          k = 0.4375-0.1875 0.5625 (   186 PWs)   bands (ev):

    -3.5187   0.1516   3.2922   4.7553

          k = 0.3125-0.0625 0.4375 (   186 PWs)   bands (ev):

    -4.4602   1.9541   3.5786   5.2934

          k = 0.1875 0.0625 0.3125 (   180 PWs)   bands (ev):

    -5.1208   3.4540   4.7525   5.6924

          k =-0.0625 0.5625 0.0625 (   187 PWs)   bands (ev):

    -4.3070   2.1674   4.0025   4.1253

          k =-0.1875 0.6875-0.0625 (   188 PWs)   bands (ev):

    -3.5350   0.9054   3.1785   3.7607

          k = 0.6875-0.1875 0.8125 (   185 PWs)   bands (ev):

    -2.5822  -0.3458   2.3044   3.7292

          k = 0.5625-0.0625 0.6875 (   184 PWs)   bands (ev):

    -2.6449  -0.2580   1.9277   4.0927

          k = 0.4375 0.0625 0.5625 (   187 PWs)   bands (ev):

    -3.5922   0.6955   2.5734   4.7088

          k = 0.3125 0.1875 0.4375 (   187 PWs)   bands (ev):

    -4.3424   1.2970   4.2951   5.1903

          k =-0.0625 0.8125 0.0625 (   193 PWs)   bands (ev):

    -2.8670   0.0201   3.2769   3.5084

          k = 0.8125-0.0625 0.9375 (   190 PWs)   bands (ev):

    -1.9193  -0.9842   2.6842   3.2501

          k = 0.6875 0.0625 0.8125 (   186 PWs)   bands (ev):

    -1.9894  -0.8254   1.9127   3.5801

          k = 0.5625 0.1875 0.6875 (   184 PWs)   bands (ev):

    -2.7567  -0.4942   2.5478   4.2105

          k = 0.4375 0.3125 0.5625 (   185 PWs)   bands (ev):

    -3.3933  -0.3882   4.1282   4.8315

          k =-0.0625-0.9375 0.0625 (   190 PWs)   bands (ev):

    -1.9770  -1.0098   3.1336   3.3833

          k =-0.1875-0.8125-0.0625 (   190 PWs)   bands (ev):

    -2.7698  -0.0374   2.8530   3.4155

          k =-0.3125-0.6875-0.1875 (   189 PWs)   bands (ev):

    -3.2460   0.1592   2.9578   4.0423

          k =-0.0625-0.6875 0.0625 (   188 PWs)   bands (ev):

    -3.6421   1.0990   3.5671   3.7569

          k =-0.1875-0.5625-0.0625 (   186 PWs)   bands (ev):

    -4.1847   1.7935   3.6234   4.3030

          k =-0.0625-0.4375 0.0625 (   182 PWs)   bands (ev):

    -4.8450   3.2101   4.5835   4.6012

          k =-0.1875 0.1875 0.1875 (   172 PWs)   bands (ev):

    -5.2410   3.5251   5.7405   5.7405

          k =-0.3125 0.3125 0.0625 (   182 PWs)   bands (ev):

    -4.8524   2.6911   4.1570   5.7613

          k =-0.4375 0.4375-0.0625 (   186 PWs)   bands (ev):

    -4.0790   1.2990   3.0293   5.2286

          k = 0.4375-0.4375 0.8125 (   183 PWs)   bands (ev):

    -3.1285  -0.2635   2.8978   4.6694

          k = 0.3125-0.3125 0.6875 (   186 PWs)   bands (ev):

    -3.1225  -0.2887   3.2145   4.3351

          k = 0.1875-0.1875 0.5625 (   189 PWs)   bands (ev):

    -4.0700   1.2924   3.8447   4.3055

          k =-0.1875 0.4375 0.1875 (   184 PWs)   bands (ev):

    -4.5867   1.9960   4.7179   4.7449

          k =-0.3125 0.5625 0.0625 (   186 PWs)   bands (ev):

    -3.9429   1.2529   3.0846   4.5465

          k = 0.5625-0.3125 0.9375 (   189 PWs)   bands (ev):

    -3.0158   0.1366   2.2503   3.9411

          k = 0.4375-0.1875 0.8125 (   187 PWs)   bands (ev):

    -2.4962  -0.5085   2.2701   3.6059

          k = 0.3125-0.0625 0.6875 (   189 PWs)   bands (ev):

    -3.3227   0.5546   2.6974   3.7988

          k =-0.1875 0.6875 0.1875 (   189 PWs)   bands (ev):

    -3.4351   0.5969   3.0579   3.9625

          k = 0.6875-0.1875 1.0625 (   191 PWs)   bands (ev):

    -2.6057  -0.1844   2.4300   3.2285

          k = 0.5625-0.0625 0.9375 (   191 PWs)   bands (ev):

    -1.7623  -0.9473   2.0818   2.6965

          k = 0.4375 0.0625 0.8125 (   192 PWs)   bands (ev):

    -2.3843  -0.4096   2.0869   3.1991

          k =-0.1875-1.0625 0.1875 (   188 PWs)   bands (ev):

    -1.9293  -0.9336   2.1932   3.6056

          k =-0.3125-0.9375 0.0625 (   194 PWs)   bands (ev):

    -1.8417  -0.9638   2.2914   2.9305

          k =-0.1875-0.8125 0.1875 (   190 PWs)   bands (ev):

    -2.7036  -0.1575   2.4850   3.7247

          k =-0.3125 0.3125 0.3125 (   183 PWs)   bands (ev):

    -4.4682   1.2537   5.3058   5.3058

          k =-0.4375 0.4375 0.1875 (   187 PWs)   bands (ev):

    -3.9762   0.6699   3.7963   5.2145

          k = 0.4375-0.4375 1.0625 (   184 PWs)   bands (ev):

    -3.1432   0.1872   2.1712   4.6025

          k = 0.3125-0.3125 0.9375 (   186 PWs)   bands (ev):

    -2.2868  -0.5920   1.7952   4.0289

          k =-0.3125 0.5625 0.3125 (   185 PWs)   bands (ev):

    -3.6423   0.0903   4.1639   4.6174

          k = 0.5625-0.3125 1.1875 (   188 PWs)   bands (ev):

    -3.0009  -0.2462   2.7848   4.1120

          k = 0.4375-0.1875 1.0625 (   191 PWs)   bands (ev):

    -2.1642  -0.6437   1.8887   3.3601

          k =-0.3125-1.1875 0.3125 (   184 PWs)   bands (ev):

    -2.6135  -0.5133   2.3553   4.1322

          k =-0.4375 0.4375 0.4375 (   183 PWs)   bands (ev):

    -3.5133  -0.4686   5.0757   5.0757

          k = 0.4375-0.4375 1.3125 (   182 PWs)   bands (ev):

    -3.1527  -0.6355   3.8304   4.7907

     highest occupied level (ev):     6.2074

!    total energy              =     -15.80772454 Ry
     estimated scf accuracy    <       0.00000091 Ry

     The total energy is the sum of the following terms:
     one-electron contribution =       4.83089747 Ry
     hartree contribution      =       1.06677332 Ry
     xc contribution           =      -4.80563675 Ry
     ewald contribution        =     -16.89975858 Ry

     convergence has been achieved in   4 iterations

     Writing all to output data dir ../tmp/silicon.save/ :
     XML data file, charge density, pseudopotentials, collected wavefunctions

     init_run     :      0.07s CPU      0.08s WALL (       1 calls)
     electrons    :      0.20s CPU      0.22s WALL (       1 calls)

     Called by init_run:
     wfcinit      :      0.03s CPU      0.04s WALL (       1 calls)
     potinit      :      0.00s CPU      0.00s WALL (       1 calls)
     hinit0       :      0.03s CPU      0.03s WALL (       1 calls)

     Called by electrons:
     c_bands      :      0.17s CPU      0.19s WALL (       5 calls)
     sum_band     :      0.03s CPU      0.03s WALL (       5 calls)
     v_of_rho     :      0.00s CPU      0.00s WALL (       5 calls)
     mix_rho      :      0.00s CPU      0.00s WALL (       5 calls)

     Called by c_bands:
     init_us_2    :      0.01s CPU      0.01s WALL (     660 calls)
     cegterg      :      0.16s CPU      0.17s WALL (     300 calls)

     Called by *egterg:
     cdiaghg      :      0.01s CPU      0.02s WALL (     813 calls)
     h_psi        :      0.14s CPU      0.15s WALL (     933 calls)
     g_psi        :      0.00s CPU      0.00s WALL (     573 calls)

     Called by h_psi:
     h_psi:calbec :      0.01s CPU      0.01s WALL (     933 calls)
     vloc_psi     :      0.11s CPU      0.12s WALL (     933 calls)
     add_vuspsi   :      0.01s CPU      0.01s WALL (     933 calls)

     General routines
     calbec       :      0.01s CPU      0.01s WALL (     933 calls)
     fft          :      0.02s CPU      0.02s WALL (      15 calls)
     ffts         :      0.00s CPU      0.00s WALL (       5 calls)
     fftw         :      0.10s CPU      0.10s WALL (    8412 calls)

     Parallel routines

     PWSCF        :      0.31s CPU      0.34s WALL


   This run was terminated on:  11:25: 9   6Oct2026            

=------------------------------------------------------------------------------=
   JOB DONE.
=------------------------------------------------------------------------------=
