
     Program PWSCF v.5.3.0 (svn rev. 11974) starts on 27May2016 at  0:14:35 

     This program is part of the open-source Quantum ESPRESSO suite
     for quantum simulation of materials; please cite
         "P. Giannozzi et al., J. Phys.:Condens. Matter 21 395502 (2009);
          URL http://www.quantum-espresso.org", 
     in publications or presentations arising from this work. More details at
     http://www.quantum-espresso.org/quote

     Parallel version (MPI), running on     1 processors
     Waiting for input...
     Reading input from standard input
     Message from routine read_cards :
     DEPRECATED: no units specified in CELL_PARAMETERS card

     Current dimensions of program PWSCF are:
     Max number of different atomic species (ntypx) = 10
     Max number of k-points (npk) =  40000
     Max angular momentum in pseudopotentials (lmaxx) =  3
               file Ni.pbe-nd-rrkjus.UPF: wavefunction(s)  4S renormalized

     -------------------------------------
     Parameters for Dispersion Correction:
     -------------------------------------
       atom      VdW radius       C_6     

        Ni1        3.014        159.927

     Subspace diagonalization in iterative solution of the eigenvalue problem:
     a serial algorithm will be used


     G-vector sticks info
     --------------------
     sticks:   dense  smooth     PW     G-vecs:    dense   smooth      PW
     Sum        1413     349    121                39847     4945     949

     Generating pointlists ...
     new r_m :   0.4125 (alat units)  0.7795 (a.u.) for type    1

     Title: 
     Ni-ferro-mag                                                               


     bravais-lattice index     =            0
     lattice parameter (alat)  =       1.8897  a.u.
     unit-cell volume          =     295.0010 (a.u.)^3
     number of atoms/cell      =            4
     number of atomic types    =            1
     number of electrons       =        40.00
     number of Kohn-Sham states=           52
     kinetic-energy cutoff     =      25.0000  Ry
     charge density cutoff     =     400.0000  Ry
     convergence threshold     =      1.0E-08
     mixing beta               =       0.2000
     number of iterations used =            8  plain     mixing
     Exchange-correlation      =  SLA  PW   PBE  PBE ( 1  4  3  4 0 0)
     nstep                     =           50


     celldm(1)=   1.889726  celldm(2)=   0.000000  celldm(3)=   0.000000
     celldm(4)=   0.000000  celldm(5)=   0.000000  celldm(6)=   0.000000

     crystal axes: (cart. coord. in units of alat)
               a(1) = (   3.522700   0.000000   0.000000 )  
               a(2) = (   0.000000   3.522700   0.000000 )  
               a(3) = (   0.000000   0.000000   3.522700 )  

     reciprocal axes: (cart. coord. in units 2 pi/alat)
               b(1) = (  0.283873  0.000000  0.000000 )  
               b(2) = (  0.000000  0.283873  0.000000 )  
               b(3) = (  0.000000  0.000000  0.283873 )  


     PseudoPot. # 1 for Ni read from file:
     /home/eliot/pseudo/Ni.pbe-nd-rrkjus.UPF
     MD5 check sum: 8081f0a005c9a5470caab1a58e82ecb2
     Pseudo is Ultrasoft + core correction, Zval = 10.0
     Generated by new atomic code, or converted to UPF format
     Using radial grid of 1203 points,  6 beta functions with: 
                l(1) =   0
                l(2) =   0
                l(3) =   1
                l(4) =   1
                l(5) =   2
                l(6) =   2
     Q(r) pseudized with 0 coefficients 


     atomic species   valence    mass     pseudopotential
        Ni1           10.00    58.69340     Ni( 1.00)

     Starting magnetic structure 
     atomic species   magnetization
        Ni1          0.500

      6 Sym. Ops. (no inversion) found



   Cartesian axes

     site n.     atom                  positions (alat units)
         1           Ni1 tau(   1) = (   1.7691699   1.7691699   0.0000000  )
         2           Ni1 tau(   2) = (   0.0000000   0.0000000   0.0000000  )
         3           Ni1 tau(   3) = (   1.7691699   0.0000000   1.7691699  )
         4           Ni1 tau(   4) = (   0.0000000   1.7691699   1.7691699  )

     number of k points=    32  Methfessel-Paxton smearing, width (Ry)=  0.0500
                       cart. coord. in units 2pi/alat
        k(    1) = (   0.0000000   0.0000000   0.0000000), wk =   0.0046296
        k(    2) = (   0.0000000   0.0000000   0.0473122), wk =   0.0277778
        k(    3) = (   0.0000000   0.0000000   0.0946244), wk =   0.0277778
        k(    4) = (   0.0000000   0.0000000  -0.1419366), wk =   0.0138889
        k(    5) = (   0.0000000   0.0473122   0.0473122), wk =   0.0277778
        k(    6) = (   0.0000000   0.0473122   0.0946244), wk =   0.0555556
        k(    7) = (   0.0000000   0.0473122  -0.1419366), wk =   0.0555556
        k(    8) = (   0.0000000   0.0946244   0.0946244), wk =   0.0277778
        k(    9) = (   0.0000000   0.0946244  -0.1419366), wk =   0.0555556
        k(   10) = (   0.0000000  -0.1419366  -0.1419366), wk =   0.0138889
        k(   11) = (   0.0473122   0.0473122   0.0473122), wk =   0.0092593
        k(   12) = (   0.0473122   0.0473122   0.0946244), wk =   0.0277778
        k(   13) = (   0.0473122   0.0473122  -0.1419366), wk =   0.0277778
        k(   14) = (   0.0473122   0.0946244   0.0946244), wk =   0.0277778
        k(   15) = (   0.0473122   0.0946244  -0.1419366), wk =   0.0555556
        k(   16) = (   0.0473122  -0.1419366  -0.1419366), wk =   0.0277778
        k(   17) = (   0.0946244   0.0946244   0.0946244), wk =   0.0092593
        k(   18) = (   0.0946244   0.0946244  -0.1419366), wk =   0.0277778
        k(   19) = (   0.0946244  -0.1419366  -0.1419366), wk =   0.0277778
        k(   20) = (  -0.1419366  -0.1419366  -0.1419366), wk =   0.0046296
        k(   21) = (  -0.0473122   0.0000000   0.0473122), wk =   0.0277778
        k(   22) = (  -0.0473122   0.0000000   0.0946244), wk =   0.0555556
        k(   23) = (  -0.0946244   0.0000000   0.0946244), wk =   0.0277778
        k(   24) = (   0.0473122  -0.0473122   0.0473122), wk =   0.0277778
        k(   25) = (   0.0473122  -0.0473122   0.0946244), wk =   0.0555556
        k(   26) = (  -0.0946244   0.0473122   0.0473122), wk =   0.0277778
        k(   27) = (   0.0473122  -0.0473122  -0.1419366), wk =   0.0277778
        k(   28) = (   0.0946244  -0.0473122   0.0946244), wk =   0.0277778
        k(   29) = (  -0.0946244   0.0473122   0.0946244), wk =   0.0555556
        k(   30) = (   0.0946244  -0.0473122  -0.1419366), wk =   0.0555556
        k(   31) = (   0.0946244  -0.0946244   0.0946244), wk =   0.0277778
        k(   32) = (   0.0946244  -0.0946244  -0.1419366), wk =   0.0277778

     Dense  grid:    39847 G-vectors     FFT dimensions: (  45,  45,  45)

     Smooth grid:     4945 G-vectors     FFT dimensions: (  24,  24,  24)

     Largest allocated arrays     est. size (Mb)     dimensions
        Kohn-Sham Wavefunctions         0.50 Mb     (     635,   52)
        NL pseudopotentials             0.70 Mb     (     635,   72)
        Each V/rho on FFT grid          2.78 Mb     (   91125,   2)
        Each G-vector array             0.30 Mb     (   39847)
        G-vector shells                 0.30 Mb     (   39847)
     Largest temporary arrays     est. size (Mb)     dimensions
        Auxiliary wavefunctions         2.02 Mb     (     635,  208)
        Each subspace H/S matrix        0.66 Mb     (     208,  208)
        Each <psi_i|beta_j> matrix      0.06 Mb     (      72,   52)
        Arrays for rho mixing          11.12 Mb     (   91125,    8)

     Check: negative/imaginary core charge=   -0.000005    0.000000

     Initial potential from superposition of free atoms

     starting charge   39.99816, renormalised to   40.00000
     Starting wfc are   24 randomized atomic wfcs +   28 random wfc

     total cpu time spent up to now is        8.9 secs

     Self-consistent Calculation

     iteration #  1     ecut=    25.00 Ry     beta=0.20
     Davidson diagonalization with overlap
     ethr =  1.00E-02,  avg # of iterations =  5.7

     total cpu time spent up to now is       42.8 secs

     total energy              =    -342.90034804 Ry
     Harris-Foulkes estimate   =    -343.18294060 Ry
     estimated scf accuracy    <       2.43220026 Ry

     total magnetization       =     6.92 Bohr mag/cell
     absolute magnetization    =     6.92 Bohr mag/cell

     iteration #  2     ecut=    25.00 Ry     beta=0.20
     Davidson diagonalization with overlap
     ethr =  6.08E-03,  avg # of iterations =  1.0

     total cpu time spent up to now is       55.1 secs

     total energy              =    -343.20446146 Ry
     Harris-Foulkes estimate   =    -343.03907237 Ry
     estimated scf accuracy    <       0.77103182 Ry

     total magnetization       =     5.77 Bohr mag/cell
     absolute magnetization    =     5.87 Bohr mag/cell

     iteration #  3     ecut=    25.00 Ry     beta=0.20
     Davidson diagonalization with overlap
     ethr =  1.93E-03,  avg # of iterations =  1.4

     negative rho (up, down):  0.000E+00 1.566E-03

     total cpu time spent up to now is       67.9 secs

     total energy              =    -343.50986156 Ry
     Harris-Foulkes estimate   =    -343.27646891 Ry
     estimated scf accuracy    <       0.36014677 Ry

     total magnetization       =     4.53 Bohr mag/cell
     absolute magnetization    =     4.85 Bohr mag/cell

     iteration #  4     ecut=    25.00 Ry     beta=0.20
     Davidson diagonalization with overlap
     ethr =  9.00E-04,  avg # of iterations =  1.5

     negative rho (up, down):  0.000E+00 1.001E-03

     total cpu time spent up to now is       80.9 secs

     total energy              =    -343.60435169 Ry
     Harris-Foulkes estimate   =    -343.62496587 Ry
     estimated scf accuracy    <       0.12104808 Ry

     total magnetization       =     2.55 Bohr mag/cell
     absolute magnetization    =     3.18 Bohr mag/cell

     iteration #  5     ecut=    25.00 Ry     beta=0.20
     Davidson diagonalization with overlap
     ethr =  3.03E-04,  avg # of iterations =  1.0

     negative rho (up, down):  0.000E+00 5.222E-04

     total cpu time spent up to now is       93.3 secs

     total energy              =    -343.61175680 Ry
     Harris-Foulkes estimate   =    -343.61221681 Ry
     estimated scf accuracy    <       0.02066378 Ry

     total magnetization       =     2.62 Bohr mag/cell
     absolute magnetization    =     3.24 Bohr mag/cell

     iteration #  6     ecut=    25.00 Ry     beta=0.20
     Davidson diagonalization with overlap
     ethr =  5.17E-05,  avg # of iterations =  2.9

     negative rho (up, down):  0.000E+00 1.676E-04

     total cpu time spent up to now is      107.6 secs

     total energy              =    -343.62076500 Ry
     Harris-Foulkes estimate   =    -343.61685709 Ry
     estimated scf accuracy    <       0.00185107 Ry

     total magnetization       =     2.72 Bohr mag/cell
     absolute magnetization    =     3.31 Bohr mag/cell

     iteration #  7     ecut=    25.00 Ry     beta=0.20
     Davidson diagonalization with overlap
     ethr =  4.63E-06,  avg # of iterations =  4.9

     negative rho (up, down):  0.000E+00 1.245E-04

     total cpu time spent up to now is      124.1 secs

     total energy              =    -343.62402523 Ry
     Harris-Foulkes estimate   =    -343.62251866 Ry
     estimated scf accuracy    <       0.00168073 Ry

     total magnetization       =     3.03 Bohr mag/cell
     absolute magnetization    =     3.52 Bohr mag/cell

     iteration #  8     ecut=    25.00 Ry     beta=0.20
     Davidson diagonalization with overlap
     ethr =  4.20E-06,  avg # of iterations =  1.0

     negative rho (up, down):  0.000E+00 3.998E-05

     total cpu time spent up to now is      136.5 secs

     total energy              =    -343.62540052 Ry
     Harris-Foulkes estimate   =    -343.62437253 Ry
     estimated scf accuracy    <       0.00007450 Ry

     total magnetization       =     2.91 Bohr mag/cell
     absolute magnetization    =     3.37 Bohr mag/cell

     iteration #  9     ecut=    25.00 Ry     beta=0.20
     Davidson diagonalization with overlap
     ethr =  1.86E-07,  avg # of iterations =  1.7

     negative rho (up, down):  0.000E+00 4.437E-06

     total cpu time spent up to now is      149.4 secs

     total energy              =    -343.62631830 Ry
     Harris-Foulkes estimate   =    -343.62542775 Ry
     estimated scf accuracy    <       0.00004853 Ry

     total magnetization       =     2.88 Bohr mag/cell
     absolute magnetization    =     3.33 Bohr mag/cell

     iteration # 10     ecut=    25.00 Ry     beta=0.20
     Davidson diagonalization with overlap
     ethr =  1.21E-07,  avg # of iterations =  1.0

     total cpu time spent up to now is      161.7 secs

     total energy              =    -343.62679538 Ry
     Harris-Foulkes estimate   =    -343.62633351 Ry
     estimated scf accuracy    <       0.00001961 Ry

     total magnetization       =     2.89 Bohr mag/cell
     absolute magnetization    =     3.34 Bohr mag/cell

     iteration # 11     ecut=    25.00 Ry     beta=0.20
     Davidson diagonalization with overlap
     ethr =  4.90E-08,  avg # of iterations =  1.0

     total cpu time spent up to now is      174.0 secs

     total energy              =    -343.62712864 Ry
     Harris-Foulkes estimate   =    -343.62680351 Ry
     estimated scf accuracy    <       0.00000215 Ry

     total magnetization       =     2.88 Bohr mag/cell
     absolute magnetization    =     3.31 Bohr mag/cell

     iteration # 12     ecut=    25.00 Ry     beta=0.20
     Davidson diagonalization with overlap
     ethr =  5.37E-09,  avg # of iterations =  1.0

     total cpu time spent up to now is      186.3 secs

     total energy              =    -343.62735356 Ry
     Harris-Foulkes estimate   =    -343.62712966 Ry
     estimated scf accuracy    <       0.00000037 Ry

     total magnetization       =     2.87 Bohr mag/cell
     absolute magnetization    =     3.30 Bohr mag/cell

     iteration # 13     ecut=    25.00 Ry     beta=0.20
     Davidson diagonalization with overlap
     ethr =  9.22E-10,  avg # of iterations =  1.5

     total cpu time spent up to now is      199.1 secs

     total energy              =    -343.62749826 Ry
     Harris-Foulkes estimate   =    -343.62735385 Ry
     estimated scf accuracy    <       0.00000014 Ry

     total magnetization       =     2.87 Bohr mag/cell
     absolute magnetization    =     3.30 Bohr mag/cell

     iteration # 14     ecut=    25.00 Ry     beta=0.20
     Davidson diagonalization with overlap
     ethr =  3.55E-10,  avg # of iterations =  1.2

     total cpu time spent up to now is      211.6 secs

     total energy              =    -343.62759548 Ry
     Harris-Foulkes estimate   =    -343.62749832 Ry
     estimated scf accuracy    <       0.00000001 Ry

     total magnetization       =     2.87 Bohr mag/cell
     absolute magnetization    =     3.30 Bohr mag/cell

     iteration # 15     ecut=    25.00 Ry     beta=0.20
     Davidson diagonalization with overlap
     ethr =  2.99E-11,  avg # of iterations =  2.0

     total cpu time spent up to now is      226.8 secs

     total energy              =    -343.62765313 Ry
     Harris-Foulkes estimate   =    -343.62759560 Ry
     estimated scf accuracy    <       0.00000007 Ry

     total magnetization       =     2.87 Bohr mag/cell
     absolute magnetization    =     3.30 Bohr mag/cell

     iteration # 16     ecut=    25.00 Ry     beta=0.20
     Davidson diagonalization with overlap
     ethr =  2.99E-11,  avg # of iterations =  2.0

     Magnetic moment per site:
     atom:    1    charge:    3.0546    magn:    0.3442    constr:    0.0000
     atom:    2    charge:    3.0529    magn:    0.3440    constr:    0.0000
     atom:    3    charge:    3.0546    magn:    0.3442    constr:    0.0000
     atom:    4    charge:    3.0546    magn:    0.3442    constr:    0.0000

     total cpu time spent up to now is      241.6 secs

     End of self-consistent calculation

 ------ SPIN UP ------------


          k = 0.0000 0.0000 0.0000 (   619 PWs)   bands (ev):

     5.2281   9.4950   9.4950   9.4950   9.9355   9.9361   9.9361  11.6687
    11.6687  11.6687  12.8183  12.8183  13.5186  13.5186  13.5186  13.6045
    13.6045  13.6045  13.6048  13.6048  13.6048  16.7418  16.7421  16.7421
    23.3419  23.3419  23.3419  29.0906  29.0907  29.0907  29.0909  29.0909
    29.0909  34.1142  34.1142  34.1146  37.3521  37.3522  37.3522  38.0322
    41.8746  41.8746  41.8746  45.3943  45.3943  45.3943  47.5736  54.3413
    54.3413  54.3413  57.5203  58.5694

          k = 0.0000 0.0000 0.0473 (   635 PWs)   bands (ev):

     5.5898   9.5138   9.6754   9.6754  10.0433  10.0586  10.0590  11.5436
    11.7686  11.7686  12.7033  12.8633  12.9713  12.9715  13.3688  13.3688
    13.4339  13.4339  13.4704  13.6050  13.6050  15.1462  17.6784  17.6786
    23.4409  23.4409  25.5853  27.3505  27.3507  27.9634  27.9634  29.6423
    29.6423  34.2298  36.2729  36.2731  37.3796  37.4803  39.2989  39.2990
    39.6514  39.6514  40.3592  46.8206  47.4798  47.4798  48.4073  50.8924
    55.4024  55.4024  55.9897  55.9902

          k = 0.0000 0.0000 0.0946 (   630 PWs)   bands (ev):

     6.6271   9.2774  10.1031  10.1031  10.3433  10.4317  10.4324  11.2093
    11.9410  11.9417  12.0578  12.0578  12.4243  12.9894  12.9916  12.9916
    13.0034  13.0164  13.0164  13.3398  13.6055  13.6055  19.6089  19.6091
    23.7688  23.7688  24.6006  24.6007  26.1898  26.1898  29.8682  31.1985
    31.1985  34.5998  36.2279  36.4545  36.4545  37.8362  38.0219  40.2874
    40.2878  43.3985  43.4326  43.4326  50.2477  50.4046  50.4046  50.4153
    50.4153  54.3460  55.3921  55.3921

          k = 0.0000 0.0000-0.1419 (   610 PWs)   bands (ev):

     8.1027   8.1255  10.3734  10.3734  10.7510  10.7828  11.0477  11.0480
    11.0794  11.0796  12.2303  12.2747  12.4863  12.4863  12.5102  12.5102
    12.7610  12.7610  13.1546  13.1722  13.6057  13.6057  21.9361  21.9363
    21.9924  21.9925  24.1659  24.1659  25.2233  25.2233  33.5252  33.5252
    33.5652  33.5652  34.3756  34.4579  35.2501  35.2687  39.5051  39.6358
    44.9993  44.9996  45.1129  45.1132  46.9049  46.9049  51.6236  51.6237
    53.4807  53.4807  53.5857  53.5857

          k = 0.0000 0.0473 0.0473 (   633 PWs)   bands (ev):

     5.9431   9.7082   9.7083   9.8349  10.1576  10.1581  10.1714  11.4857
    11.8124  11.8292  12.6336  12.6680  12.6903  12.7026  12.8600  13.2444
    13.3653  13.3653  13.4323  13.4326  13.4924  16.0552  16.0552  18.4339
    23.4511  24.6348  25.7764  25.7766  27.8203  27.8203  28.4467  28.4474
    30.1615  35.4801  35.6047  36.4809  36.4813  36.7755  39.4653  39.4658
    40.7145  41.9533  42.9285  44.6279  45.6919  49.0173  49.8113  52.3044
    53.0310  54.6776  54.6788  55.6226

          k = 0.0000 0.0473 0.0946 (   624 PWs)   bands (ev):

     6.9534   9.5097  10.1810  10.2290  10.4324  10.4847  10.5028  11.2127
    11.7079  11.8440  11.9558  12.0691  12.0965  12.5184  12.9295  12.9957
    13.0188  13.0359  13.1845  13.4282  13.4360  14.1040  17.6427  20.1897
    21.6680  24.1330  25.0556  26.0876  26.8881  29.1184  29.4152  29.4675
    30.4872  33.2053  33.9338  37.1325  38.0614  39.8370  40.0165  40.0896
    40.5430  43.3681  44.2813  46.3719  47.1729  47.9309  49.2395  50.6830
    52.2747  52.6065  54.1261  55.6780

          k = 0.0000 0.0473-0.1419 (   622 PWs)   bands (ev):

     8.3819   8.4032  10.5213  10.5227  10.8010  10.8317  10.9214  10.9474
    11.0625  11.0933  11.8715  11.9043  12.4867  12.5111  12.7180  12.7287
    12.7462  12.7476  13.3423  13.3425  13.4245  13.4293  19.4753  19.5040
    22.4311  22.4817  24.9268  24.9639  27.8077  27.8194  30.9808  30.9986
    31.5037  31.5164  35.2430  35.3386  38.2745  38.2823  41.4808  41.5605
    42.4936  42.5223  45.2777  45.3850  49.3105  49.4082  49.6897  49.7351
    51.9345  51.9695  52.5418  52.5724

          k = 0.0000 0.0946 0.0946 (   618 PWs)   bands (ev):

     7.8707  10.0875  10.0877  10.4499  10.6929  10.6942  10.7111  11.1455
    11.3857  11.3859  11.5366  11.8474  12.1963  12.4346  12.7194  12.8693
    12.8698  13.0052  13.0056  13.1706  13.3811  15.3285  15.3285  18.9098
    21.6951  24.6838  26.3119  26.3120  27.4179  27.4185  30.4843  31.1127
    31.1191  31.2302  33.0668  36.2886  40.9649  41.3030  41.3033  42.4470
    42.8524  43.1233  43.1234  46.4586  46.6680  47.8034  47.8043  50.9578
    51.5126  51.5361  52.5347  54.6658

          k = 0.0000 0.0946-0.1419 (   624 PWs)   bands (ev):

     9.1192   9.1368  10.5392  10.5592  10.9234  10.9425  10.9579  10.9652
    11.0822  11.1109  11.5801  11.6016  12.5208  12.5367  12.5382  12.5446
    12.6048  12.6080  13.0316  13.0463  14.0262  14.0299  16.8302  16.8527
    23.7751  23.8138  25.7350  25.7650  28.1608  28.1798  29.0408  29.0439
    32.4151  32.4223  36.1901  36.2829  39.7741  39.7932  42.4630  42.4812
    42.5860  42.5947  46.0846  46.1722  47.1977  47.2505  49.7499  49.7985
    50.9824  51.0636  52.8846  52.9061

          k = 0.0000-0.1419-0.1419 (   624 PWs)   bands (ev):

     9.9595   9.9746   9.9746   9.9892  11.0313  11.0586  11.0586  11.0857
    11.3554  11.3633  11.3633  11.3709  12.3921  12.3946  12.3946  12.3976
    12.6774  12.7000  12.7000  12.7223  15.0701  15.0807  15.0807  15.0914
    25.7195  25.7467  25.7467  25.7734  27.0779  27.0955  27.0955  27.1139
    37.2747  37.3006  37.3006  37.3277  37.9249  37.9581  37.9581  37.9868
    46.5795  46.5795  46.5806  46.5815  48.4912  48.5401  48.5401  48.5886
    51.0355  51.0389  51.0390  51.0416

          k = 0.0473 0.0473 0.0473 (   609 PWs)   bands (ev):

     6.2850   9.8659   9.8660   9.8660  10.2693  10.2701  10.2701  11.4521
    11.8483  11.8483  12.3941  12.3941  12.3942  12.7754  12.7754  13.0166
    13.0171  13.0171  13.5453  13.5453  13.5454  16.6711  16.6712  16.6712
    24.8819  24.8822  24.8822  26.1070  26.1070  26.1073  30.6696  30.6700
    30.6700  32.9643  35.6118  35.6118  35.6122  38.7585  40.5255  40.5255
    42.1577  42.1578  42.1578  45.9810  47.0257  47.0257  50.8340  50.8340
    54.5422  54.5432  54.5433  54.6256

          k = 0.0473 0.0473 0.0946 (   618 PWs)   bands (ev):

     7.2563   9.6661  10.2393  10.2396  10.5480  10.5771  10.5774  11.2486
    11.6984  11.6985  11.8844  11.9312  11.9851  12.6240  12.6918  12.7773
    12.7794  13.0094  13.4504  13.4504  13.4825  14.4612  17.9952  17.9953
    22.2758  22.2759  26.1530  26.7637  26.7639  29.8523  29.8525  30.2423
    30.4473  32.1289  36.0855  37.2638  37.2773  38.2209  38.2209  41.7515
    42.8432  43.8305  46.3431  46.3432  47.1923  48.4501  49.5428  49.5430
    50.0164  52.3638  52.3971  54.8205

          k = 0.0473 0.0473-0.1419 (   616 PWs)   bands (ev):

     8.6087   8.6277  10.6132  10.6145  10.6780  10.6783  10.8969  10.9256
    11.3151  11.3151  11.7786  11.8108  12.2458  12.2568  12.6140  12.6145
    13.1642  13.1868  13.2753  13.2802  13.3959  13.3960  19.1401  19.1402
    20.7168  20.7169  27.7406  27.7451  27.9527  27.9688  28.4086  28.4154
    34.3692  34.4029  34.8862  34.9514  37.4688  37.5369  41.6124  41.6125
    44.0592  44.0943  44.7462  44.7465  48.8184  48.8688  50.2319  50.2494
    51.4482  51.4484  53.0419  53.0536

          k = 0.0473 0.0946 0.0946 (   617 PWs)   bands (ev):

     8.0884   9.9786   9.9789  10.2620  10.8598  10.9026  10.9031  11.2929
    11.4991  11.4993  11.6300  11.8491  11.9707  12.4369  12.4374  12.4541
    12.7493  13.2892  13.3540  13.3711  13.3730  15.4609  15.4609  18.2545
    20.3738  23.4563  23.4563  27.4512  27.5795  30.6474  30.6475  31.5808
    31.5813  33.4752  34.7129  36.3630  38.7512  38.7515  39.6130  42.3654
    43.1293  44.1832  45.8171  45.8172  48.5032  48.5036  49.7573  49.9255
    50.2357  50.8736  51.6144  52.2538

          k = 0.0473 0.0946-0.1419 (   624 PWs)   bands (ev):

     9.1597   9.1716  10.1944  10.1980  11.0671  11.0682  11.1980  11.2213
    11.5021  11.5117  11.6148  11.6360  12.1124  12.1204  12.3201  12.3252
    13.0338  13.0428  13.2546  13.2639  13.9360  13.9394  16.8170  16.8355
    21.3780  21.3927  25.1942  25.2050  28.9421  28.9497  32.5213  32.5262
    32.7159  32.7228  36.3171  36.3937  39.5558  39.5731  39.8451  39.8581
    44.5655  44.5720  45.0368  45.0723  47.0364  47.0549  49.8594  49.8896
    51.1091  51.1273  53.1674  53.1951

          k = 0.0473-0.1419-0.1419 (   628 PWs)   bands (ev):

     9.7277   9.7331   9.7331   9.7377  11.4386  11.4465  11.4465  11.4535
    11.5184  11.5337  11.5337  11.5496  12.0813  12.0890  12.0890  12.0969
    13.0066  13.0207  13.0207  13.0349  14.9853  14.9969  14.9970  15.0087
    22.9938  23.0053  23.0054  23.0168  30.4689  30.4711  30.4711  30.4739
    37.5548  37.5755  37.5755  37.6016  37.7793  37.8104  37.8104  37.8334
    46.0351  46.0351  46.0393  46.0428  46.0714  46.1026  46.1026  46.1227
    54.0121  54.0301  54.0302  54.0550

          k = 0.0946 0.0946 0.0946 (   627 PWs)   bands (ev):

     8.6325   9.8171   9.8177   9.8177  11.2534  11.2540  11.2540  11.7529
    11.8046  11.8046  11.8145  11.8236  11.8236  12.0921  12.0921  12.0926
    13.1408  13.1408  13.4954  13.4954  13.4956  15.8442  15.8444  15.8444
    20.9755  20.9755  20.9756  24.6881  31.9949  31.9949  31.9953  34.6863
    34.6867  34.6867  36.7223  36.7223  36.7228  37.3247  39.3321  39.3321
    43.8173  43.8173  47.1059  47.4284  47.4284  47.4301  47.4764  47.4766
    47.4766  51.7049  51.7056  51.7056

          k = 0.0946 0.0946-0.1419 (   622 PWs)   bands (ev):

     9.2563   9.2597   9.7503   9.7507  11.3693  11.3696  11.6386  11.6563
    11.8563  11.8589  11.9705  11.9754  11.9876  12.0051  12.0918  12.0924
    13.4168  13.4186  13.4255  13.4270  13.8349  13.8363  16.1348  16.1349
    19.9456  19.9457  22.5162  22.5272  32.9234  32.9235  34.0600  34.0605
    35.8388  35.8703  36.6543  36.6726  38.3556  38.4096  38.8762  38.8763
    44.0145  44.0148  44.2737  44.3000  45.3702  45.3760  47.9022  47.9022
    48.9009  48.9124  52.2683  52.2701

          k = 0.0946-0.1419-0.1419 (   632 PWs)   bands (ev):

     9.4341   9.4348   9.4348   9.4348  11.6028  11.6077  11.6077  11.6120
    11.7871  11.7919  11.7919  11.7971  12.5215  12.5315  12.5315  12.5416
    13.3403  13.3480  13.3481  13.3558  14.6266  14.6399  14.6399  14.6531
    20.6479  20.6571  20.6571  20.6665  34.6450  34.6482  34.6482  34.6517
    37.6587  37.6727  37.6727  37.6876  38.3199  38.3358  38.3358  38.3489
    43.4476  43.4593  43.4593  43.4704  44.5275  44.5301  44.5301  44.5323
    49.7053  49.7103  49.7104  49.7167

          k =-0.1419-0.1419-0.1419 (   624 PWs)   bands (ev):

     9.3214   9.3220   9.3220   9.3220  11.6829  11.6829  11.6829  11.6831
    11.6831  11.6836  11.6836  11.6836  13.4712  13.4712  13.4712  13.4721
    13.4721  13.4722  13.4722  13.4722  14.0038  14.0046  14.0047  14.0047
    19.7754  19.7754  19.7754  19.7756  36.4973  36.4974  36.4974  36.4974
    38.9595  38.9595  38.9597  38.9597  38.9597  38.9606  38.9606  38.9606
    42.1862  42.1862  42.1865  42.1865  42.1865  42.1869  42.1869  42.1869
    48.0625  48.0625  48.0625  48.0628

          k =-0.0473 0.0000 0.0473 (   633 PWs)   bands (ev):

     5.9431   9.7083   9.7083   9.8349  10.1576  10.1581  10.1714  11.4857
    11.8124  11.8292  12.6336  12.6680  12.6903  12.7026  12.8600  13.2444
    13.3653  13.3653  13.4323  13.4326  13.4924  16.0552  16.0552  18.4339
    23.4511  24.6348  25.7763  25.7767  27.8202  27.8203  28.4467  28.4474
    30.1615  35.4801  35.6047  36.4809  36.4813  36.7755  39.4652  39.4659
    40.7145  41.9533  42.9285  44.6279  45.6919  49.0173  49.8113  52.3044
    53.0310  54.6776  54.6788  55.6226

          k =-0.0473 0.0000 0.0946 (   624 PWs)   bands (ev):

     6.9534   9.5097  10.1810  10.2290  10.4324  10.4847  10.5028  11.2127
    11.7079  11.8440  11.9558  12.0691  12.0965  12.5184  12.9295  12.9957
    13.0188  13.0359  13.1845  13.4282  13.4360  14.1040  17.6427  20.1897
    21.6680  24.1330  25.0556  26.0876  26.8881  29.1184  29.4152  29.4675
    30.4872  33.2053  33.9338  37.1325  38.0614  39.8370  40.0165  40.0896
    40.5430  43.3681  44.2813  46.3719  47.1729  47.9309  49.2395  50.6830
    52.2747  52.6065  54.1261  55.6779

          k =-0.0946 0.0000 0.0946 (   618 PWs)   bands (ev):

     7.8707  10.0875  10.0877  10.4499  10.6929  10.6943  10.7111  11.1455
    11.3857  11.3859  11.5366  11.8474  12.1963  12.4346  12.7194  12.8693
    12.8698  13.0052  13.0056  13.1706  13.3811  15.3285  15.3285  18.9098
    21.6951  24.6838  26.3119  26.3120  27.4179  27.4185  30.4843  31.1127
    31.1190  31.2302  33.0668  36.2886  40.9649  41.3030  41.3033  42.4470
    42.8524  43.1233  43.1233  46.4586  46.6680  47.8034  47.8043  50.9578
    51.5126  51.5361  52.5347  54.6780

          k = 0.0473-0.0473 0.0473 (   609 PWs)   bands (ev):

     6.2850   9.8659   9.8660   9.8660  10.2693  10.2701  10.2701  11.4521
    11.8483  11.8483  12.3941  12.3941  12.3942  12.7754  12.7754  13.0166
    13.0171  13.0171  13.5453  13.5453  13.5454  16.6711  16.6712  16.6712
    24.8820  24.8822  24.8822  26.1070  26.1070  26.1073  30.6697  30.6700
    30.6700  32.9643  35.6118  35.6118  35.6122  38.7585  40.5255  40.5255
    42.1577  42.1578  42.1578  45.9810  47.0257  47.0257  50.8340  50.8340
    54.5422  54.5432  54.5432  54.6256

          k = 0.0473-0.0473 0.0946 (   618 PWs)   bands (ev):

     7.2563   9.6661  10.2393  10.2396  10.5480  10.5771  10.5774  11.2486
    11.6984  11.6985  11.8844  11.9312  11.9851  12.6240  12.6918  12.7773
    12.7794  13.0094  13.4504  13.4504  13.4825  14.4612  17.9952  17.9953
    22.2758  22.2759  26.1530  26.7638  26.7638  29.8523  29.8525  30.2423
    30.4473  32.1289  36.0855  37.2638  37.2773  38.2209  38.2209  41.7515
    42.8432  43.8305  46.3431  46.3432  47.1923  48.4501  49.5428  49.5430
    50.0164  52.3638  52.3971  54.8205

          k =-0.0946 0.0473 0.0473 (   618 PWs)   bands (ev):

     7.2563   9.6661  10.2393  10.2396  10.5480  10.5771  10.5774  11.2486
    11.6984  11.6985  11.8844  11.9312  11.9851  12.6240  12.6918  12.7773
    12.7794  13.0094  13.4504  13.4504  13.4825  14.4612  17.9952  17.9953
    22.2758  22.2759  26.1530  26.7637  26.7639  29.8523  29.8525  30.2423
    30.4473  32.1289  36.0855  37.2638  37.2773  38.2209  38.2209  41.7515
    42.8432  43.8305  46.3431  46.3432  47.1923  48.4501  49.5428  49.5430
    50.0164  52.3638  52.3971  54.8205

          k = 0.0473-0.0473-0.1419 (   616 PWs)   bands (ev):

     8.6087   8.6277  10.6132  10.6145  10.6780  10.6782  10.8969  10.9256
    11.3151  11.3151  11.7786  11.8108  12.2458  12.2568  12.6140  12.6145
    13.1642  13.1868  13.2753  13.2802  13.3959  13.3960  19.1401  19.1402
    20.7168  20.7169  27.7407  27.7451  27.9527  27.9688  28.4086  28.4154
    34.3692  34.4029  34.8862  34.9514  37.4688  37.5369  41.6124  41.6125
    44.0592  44.0943  44.7462  44.7465  48.8184  48.8688  50.2319  50.2494
    51.4481  51.4484  53.0419  53.0536

          k = 0.0946-0.0473 0.0946 (   617 PWs)   bands (ev):

     8.0884   9.9786   9.9789  10.2620  10.8598  10.9026  10.9031  11.2929
    11.4991  11.4993  11.6300  11.8491  11.9707  12.4369  12.4374  12.4541
    12.7493  13.2892  13.3540  13.3711  13.3730  15.4609  15.4609  18.2545
    20.3738  23.4563  23.4563  27.4512  27.5795  30.6474  30.6475  31.5808
    31.5813  33.4752  34.7129  36.3630  38.7512  38.7515  39.6130  42.3654
    43.1293  44.1832  45.8171  45.8172  48.5032  48.5036  49.7573  49.9255
    50.2357  50.8736  51.6144  52.2545

          k =-0.0946 0.0473 0.0946 (   617 PWs)   bands (ev):

     8.0884   9.9786   9.9789  10.2620  10.8598  10.9026  10.9031  11.2929
    11.4991  11.4994  11.6300  11.8491  11.9707  12.4369  12.4374  12.4541
    12.7493  13.2892  13.3540  13.3711  13.3730  15.4609  15.4609  18.2545
    20.3738  23.4563  23.4563  27.4512  27.5795  30.6473  30.6475  31.5808
    31.5813  33.4752  34.7129  36.3630  38.7512  38.7515  39.6130  42.3654
    43.1293  44.1832  45.8172  45.8172  48.5032  48.5036  49.7573  49.9255
    50.2357  50.8736  51.6144  52.2541

          k = 0.0946-0.0473-0.1419 (   624 PWs)   bands (ev):

     9.1597   9.1716  10.1944  10.1980  11.0671  11.0682  11.1980  11.2213
    11.5021  11.5117  11.6148  11.6360  12.1124  12.1204  12.3201  12.3252
    13.0338  13.0428  13.2546  13.2639  13.9360  13.9394  16.8170  16.8355
    21.3780  21.3927  25.1942  25.2050  28.9421  28.9497  32.5213  32.5262
    32.7159  32.7228  36.3171  36.3937  39.5558  39.5731  39.8451  39.8581
    44.5655  44.5720  45.0368  45.0723  47.0364  47.0549  49.8594  49.8896
    51.1091  51.1273  53.1674  53.1950

          k = 0.0946-0.0946 0.0946 (   627 PWs)   bands (ev):

     8.6325   9.8171   9.8177   9.8177  11.2534  11.2540  11.2540  11.7529
    11.8046  11.8046  11.8145  11.8236  11.8236  12.0921  12.0921  12.0926
    13.1408  13.1408  13.4954  13.4954  13.4956  15.8443  15.8444  15.8444
    20.9755  20.9755  20.9756  24.6881  31.9949  31.9949  31.9953  34.6863
    34.6866  34.6867  36.7222  36.7223  36.7228  37.3247  39.3321  39.3321
    43.8173  43.8173  47.1059  47.4283  47.4284  47.4301  47.4764  47.4766
    47.4766  51.7049  51.7056  51.7056

          k = 0.0946-0.0946-0.1419 (   622 PWs)   bands (ev):

     9.2563   9.2597   9.7503   9.7507  11.3693  11.3696  11.6386  11.6563
    11.8563  11.8589  11.9705  11.9754  11.9876  12.0051  12.0918  12.0924
    13.4168  13.4186  13.4255  13.4270  13.8349  13.8363  16.1348  16.1349
    19.9456  19.9457  22.5162  22.5272  32.9233  32.9235  34.0600  34.0605
    35.8388  35.8703  36.6543  36.6726  38.3556  38.4096  38.8762  38.8763
    44.0145  44.0148  44.2737  44.3000  45.3702  45.3760  47.9022  47.9022
    48.9009  48.9124  52.2682  52.2701

 ------ SPIN DOWN ----------


          k = 0.0000 0.0000 0.0000 (   619 PWs)   bands (ev):

     5.1712   9.9659   9.9659   9.9659  10.6627  10.6635  10.6635  12.5586
    12.5586  12.5586  13.6098  13.6098  14.3445  14.3445  14.3445  14.6234
    14.6234  14.6234  14.6238  14.6238  14.6238  16.6598  16.6601  16.6601
    23.6490  23.6491  23.6491  29.0752  29.0753  29.0753  29.0756  29.0756
    29.0757  34.2746  34.2746  34.2749  37.4949  37.4951  37.4951  37.8202
    41.8464  41.8464  41.8464  45.4643  45.4643  45.4643  47.4091  54.5245
    54.5245  54.5245  58.0780  58.5976

          k = 0.0000 0.0000 0.0473 (   635 PWs)   bands (ev):

     5.5328   9.9366  10.1566  10.1566  10.7795  10.7833  10.7839  12.4203
    12.6626  12.6626  13.4851  13.6567  13.8018  13.8023  14.1816  14.1816
    14.2938  14.4358  14.4358  14.6241  14.6241  15.2169  17.7811  17.7814
    23.7327  23.7328  25.7868  27.4171  27.4175  27.9896  27.9896  29.6433
    29.6433  34.3777  36.3503  36.3505  37.2361  37.6205  39.4173  39.4174
    39.6943  39.6943  40.2892  46.8370  47.4506  47.4506  48.4837  50.8677
    55.6091  55.6091  55.9123  55.9128

          k = 0.0000 0.0000 0.0946 (   630 PWs)   bands (ev):

     6.5745   9.4861  10.6092  10.6093  11.1051  11.1508  11.1516  12.0518
    12.6795  12.6804  12.9650  12.9650  13.1716  13.3840  13.7794  13.7794
    13.7892  13.9735  13.9735  14.1566  14.6246  14.6246  19.7911  19.7914
    24.0156  24.0156  24.7392  24.7392  26.2875  26.2875  29.9628  31.2338
    31.2338  34.7098  36.1890  36.5249  36.5249  37.7436  38.1659  40.2896
    40.2900  43.5303  43.5304  43.6164  50.1982  50.3157  50.3157  50.3272
    50.3272  54.2319  55.6054  55.6054

          k = 0.0000 0.0000-0.1419 (   610 PWs)   bands (ev):

     8.0935   8.1169  10.8956  10.8956  11.5493  11.5834  11.7655  11.7662
    11.7980  11.7987  12.8876  12.9363  13.4154  13.4154  13.4402  13.4402
    13.5222  13.5222  13.9624  13.9807  14.6249  14.6249  22.1147  22.1149
    22.1722  22.1723  24.3611  24.3611  25.3820  25.3820  33.5888  33.5888
    33.6287  33.6287  34.3520  34.4367  35.2955  35.3180  39.6957  39.8287
    44.9499  44.9502  45.0663  45.0667  46.9779  46.9780  51.8016  51.8016
    53.3654  53.3654  53.4704  53.4704

          k = 0.0000 0.0473 0.0473 (   633 PWs)   bands (ev):

     5.8871  10.1439  10.1440  10.3352  10.8799  10.8907  10.8913  12.3487
    12.7118  12.7160  13.4084  13.4328  13.4483  13.4758  13.6587  14.0468
    14.1696  14.1697  14.4346  14.4347  14.5041  16.3699  16.3699  18.5959
    23.7123  24.7616  25.9646  25.9649  27.9010  27.9010  28.4866  28.4873
    30.1709  35.5803  35.5965  36.5481  36.5486  36.7933  39.5818  39.5824
    40.6292  42.0383  42.8990  44.5658  45.7498  49.1713  49.7320  52.4739
    52.9825  54.6306  54.6318  55.5589

          k = 0.0000 0.0473 0.0946 (   624 PWs)   bands (ev):

     6.9055   9.7333  10.6518  10.7713  11.1548  11.1895  11.2287  12.0442
    12.4083  12.5744  12.7576  12.8097  12.9808  13.2942  13.7062  13.7879
    13.8567  13.9421  13.9719  14.4312  14.4419  14.8212  17.9817  20.3909
    21.8649  24.3618  25.2049  26.2203  27.0138  29.2245  29.4764  29.5348
    30.5847  33.2811  33.9761  37.1712  38.0972  39.7855  39.9603  40.2071
    40.5393  43.4491  44.4868  46.4352  47.0902  47.9093  49.2190  50.6046
    52.2249  52.5105  54.3244  55.8993

          k = 0.0000 0.0473-0.1419 (   622 PWs)   bands (ev):

     8.3847   8.4070  11.0333  11.0362  11.5845  11.6148  11.6151  11.6426
    11.7833  11.8151  12.6207  12.6585  13.4184  13.4429  13.4980  13.5042
    13.5124  13.5151  14.1914  14.1925  14.4279  14.4334  19.7560  19.7852
    22.6215  22.6726  25.0963  25.1365  27.9227  27.9367  31.0932  31.1091
    31.5616  31.5727  35.2666  35.3621  38.2739  38.2796  41.6304  41.7130
    42.4830  42.5151  45.2248  45.3348  49.3739  49.4699  49.6181  49.6638
    51.8457  51.8822  52.6964  52.7265

          k = 0.0000 0.0946 0.0946 (   618 PWs)   bands (ev):

     7.8463  10.3633  10.3635  11.1225  11.2046  11.4376  11.4391  11.9490
    12.0891  12.0891  12.2580  12.6490  13.1210  13.1932  13.4848  13.6188
    13.6193  13.9753  13.9756  14.1610  14.2343  15.9396  15.9398  19.2175
    21.9117  24.8824  26.4760  26.4761  27.5181  27.5187  30.6126  31.1997
    31.2068  31.2980  33.1180  36.3222  40.8972  41.2817  41.2820  42.4831
    42.7312  43.1651  43.1651  46.5761  46.6942  47.8432  47.8441  51.0120
    51.4095  51.4637  52.7211  54.5732

          k = 0.0000 0.0946-0.1419 (   624 PWs)   bands (ev):

     9.1782   9.1973  10.9650  10.9848  11.5998  11.6014  11.6998  11.7299
    11.8118  11.8418  12.3264  12.3503  13.2830  13.2837  13.3521  13.3555
    13.4686  13.4943  14.0091  14.0250  14.8417  14.8465  17.2974  17.3194
    23.9781  24.0159  25.8848  25.9176  28.3213  28.3383  29.1294  29.1339
    32.4846  32.4939  36.2166  36.3097  39.7720  39.7890  42.4064  42.4233
    42.6036  42.6113  46.0184  46.1078  47.2745  47.3297  49.6923  49.7422
    51.0975  51.1782  52.7958  52.8161

          k = 0.0000-0.1419-0.1419 (   624 PWs)   bands (ev):

    10.1778  10.1947  10.1947  10.2113  11.7762  11.8055  11.8055  11.8342
    12.0343  12.0433  12.0434  12.0523  13.1412  13.1440  13.1440  13.1475
    13.6347  13.6584  13.6584  13.6821  15.7610  15.7701  15.7701  15.7789
    25.9132  25.9388  25.9389  25.9638  27.1987  27.2184  27.2184  27.2392
    37.3489  37.3736  37.3737  37.4005  37.8903  37.9219  37.9219  37.9482
    46.4556  46.4558  46.4559  46.4592  48.4755  48.5256  48.5256  48.5755
    51.1326  51.1386  51.1386  51.1438

          k = 0.0473 0.0473 0.0473 (   609 PWs)   bands (ev):

     6.2318  10.3289  10.3290  10.3290  10.9788  10.9798  10.9798  12.2951
    12.7360  12.7360  13.1142  13.1142  13.1143  13.5733  13.5733  13.8587
    13.8593  13.8593  14.5037  14.5037  14.5041  17.0125  17.0128  17.0128
    25.0112  25.0114  25.0114  26.2802  26.2802  26.2805  30.6899  30.6904
    30.6904  33.0294  35.7044  35.7044  35.7047  38.5985  40.5782  40.5782
    42.2393  42.2394  42.2394  45.8888  46.9777  46.9777  50.9993  50.9993
    54.4924  54.4935  54.4935  54.9461

          k = 0.0473 0.0473 0.0946 (   618 PWs)   bands (ev):

     7.2188   9.9301  10.7801  10.7803  11.2132  11.2140  11.2700  12.0539
    12.4100  12.4100  12.5697  12.7688  12.8554  13.4808  13.5117  13.5755
    13.5786  13.8431  14.3941  14.4235  14.4241  15.0989  18.3223  18.3224
    22.4846  22.4847  26.2952  26.9118  26.9120  29.9257  29.9261  30.3545
    30.5337  32.1739  36.1577  37.1801  37.3401  38.2491  38.2491  41.7608
    42.9207  43.8438  46.3850  46.3850  47.2311  48.3928  49.5266  49.5269
    50.0165  52.2856  52.3547  54.9332

          k = 0.0473 0.0473-0.1419 (   616 PWs)   bands (ev):

     8.6402   8.6608  11.2015  11.2016  11.2610  11.2622  11.6558  11.6871
    12.0381  12.0385  12.5371  12.5730  13.1077  13.1167  13.3891  13.3895
    13.9783  14.0026  14.1487  14.1512  14.3774  14.3775  19.3960  19.3961
    21.0207  21.0207  27.8536  27.8578  28.0925  28.1078  28.5231  28.5305
    34.4375  34.4707  34.8556  34.9230  37.5455  37.6141  41.5918  41.5918
    44.1413  44.1796  44.7324  44.7328  48.7342  48.7848  50.1838  50.2014
    51.4789  51.4791  53.1965  53.2167

          k = 0.0473 0.0946 0.0946 (   617 PWs)   bands (ev):

     8.0978  10.3745  10.3748  10.8880  11.3766  11.5135  11.5144  12.0293
    12.2290  12.2294  12.3511  12.6601  12.8054  13.2460  13.2476  13.2516
    13.6033  14.1490  14.2926  14.2946  14.3134  16.0192  16.0194  18.5280
    20.7182  23.6716  23.6716  27.6071  27.7101  30.7090  30.7092  31.6729
    31.6734  33.5286  34.7385  36.3859  38.7638  38.7641  39.5310  42.4808
    43.1172  44.1263  45.8092  45.8093  48.5528  48.5533  49.6869  49.9067
    50.2105  50.9425  51.6691  52.1772

          k = 0.0473 0.0946-0.1419 (   624 PWs)   bands (ev):

     9.3055   9.3210  10.7335  10.7404  11.6307  11.6339  11.8519  11.8785
    12.2039  12.2161  12.3838  12.4076  12.9282  12.9343  13.1060  13.1103
    13.9074  13.9205  14.1999  14.2104  14.7380  14.7427  17.2303  17.2479
    21.6779  21.6911  25.3931  25.4022  29.0402  29.0501  32.5785  32.5810
    32.7825  32.7915  36.3291  36.4049  39.5385  39.5545  39.8650  39.8791
    44.5506  44.5561  45.0252  45.0627  47.0133  47.0346  49.8927  49.9229
    51.0458  51.0633  53.2435  53.2746

          k = 0.0473-0.1419-0.1419 (   628 PWs)   bands (ev):

    10.0816  10.0914  10.0914  10.1006  12.0147  12.0279  12.0279  12.0407
    12.2295  12.2452  12.2452  12.2608  12.8703  12.8771  12.8771  12.8842
    13.9266  13.9428  13.9428  13.9593  15.6394  15.6492  15.6492  15.6588
    23.2517  23.2614  23.2615  23.2711  30.5483  30.5527  30.5527  30.5576
    37.6271  37.6430  37.6430  37.6726  37.7289  37.7624  37.7624  37.7795
    45.9666  45.9667  45.9684  45.9705  46.0931  46.1231  46.1231  46.1483
    54.0715  54.0905  54.0907  54.1179

          k = 0.0946 0.0946 0.0946 (   627 PWs)   bands (ev):

     8.7630  10.3319  10.3326  10.3326  11.8223  11.8229  11.8229  12.2859
    12.5000  12.5000  12.5019  12.6282  12.6282  12.8939  12.8939  12.8944
    14.0323  14.0323  14.4334  14.4334  14.4338  16.2729  16.2732  16.2732
    21.3137  21.3137  21.3137  24.9116  32.0406  32.0406  32.0410  34.7466
    34.7471  34.7471  36.7321  36.7321  36.7327  37.1485  39.4178  39.4178
    43.8247  43.8247  47.1184  47.3727  47.3727  47.3747  47.4759  47.4763
    47.4763  51.7332  51.7338  51.7338

          k = 0.0946 0.0946-0.1419 (   622 PWs)   bands (ev):

     9.5870   9.5946  10.2943  10.2948  12.0117  12.0121  12.3076  12.3251
    12.5458  12.5679  12.6589  12.6608  12.7006  12.7007  12.7647  12.7649
    14.3361  14.3389  14.3640  14.3651  14.5573  14.5611  16.4648  16.4649
    20.3847  20.3848  22.8051  22.8146  32.9295  32.9296  34.1456  34.1462
    35.7258  35.7592  36.7264  36.7434  38.4357  38.4894  38.8480  38.8481
    44.0389  44.0393  44.2466  44.2733  45.3762  45.3834  47.8583  47.8584
    48.9513  48.9625  52.3666  52.3684

          k = 0.0946-0.1419-0.1419 (   632 PWs)   bands (ev):

     9.9072   9.9098   9.9098   9.9116  12.3468  12.3514  12.3514  12.3557
    12.5739  12.5784  12.5784  12.5834  12.9687  12.9806  12.9806  12.9924
    14.2678  14.2765  14.2765  14.2854  15.1621  15.1730  15.1730  15.1835
    21.0424  21.0502  21.0503  21.0581  34.6177  34.6234  34.6234  34.6294
    37.6234  37.6360  37.6360  37.6495  38.3896  38.4046  38.4046  38.4170
    43.4759  43.4892  43.4892  43.5018  44.5164  44.5198  44.5198  44.5228
    49.7911  49.7962  49.7962  49.8027

          k =-0.1419-0.1419-0.1419 (   624 PWs)   bands (ev):

     9.8279   9.8287   9.8287   9.8287  12.4664  12.4664  12.4664  12.4668
    12.4668  12.4671  12.4671  12.4671  13.9002  13.9003  13.9003  13.9013
    14.4058  14.4058  14.4062  14.4062  14.4062  14.4066  14.4066  14.4066
    20.2605  20.2605  20.2605  20.2605  36.3077  36.3079  36.3079  36.3080
    39.0298  39.0298  39.0299  39.0299  39.0299  39.0309  39.0309  39.0309
    42.2141  42.2141  42.2142  42.2143  42.2143  42.2147  42.2148  42.2148
    48.1733  48.1733  48.1733  48.1737

          k =-0.0473 0.0000 0.0473 (   633 PWs)   bands (ev):

     5.8871  10.1439  10.1440  10.3352  10.8799  10.8907  10.8913  12.3487
    12.7118  12.7160  13.4084  13.4328  13.4483  13.4758  13.6587  14.0468
    14.1696  14.1696  14.4346  14.4347  14.5041  16.3699  16.3699  18.5959
    23.7123  24.7616  25.9645  25.9649  27.9009  27.9011  28.4866  28.4873
    30.1709  35.5803  35.5965  36.5481  36.5486  36.7933  39.5817  39.5825
    40.6292  42.0383  42.8990  44.5658  45.7498  49.1713  49.7320  52.4739
    52.9825  54.6306  54.6318  55.5589

          k =-0.0473 0.0000 0.0946 (   624 PWs)   bands (ev):

     6.9055   9.7333  10.6518  10.7713  11.1548  11.1895  11.2287  12.0442
    12.4083  12.5744  12.7576  12.8097  12.9808  13.2942  13.7062  13.7879
    13.8567  13.9421  13.9719  14.4312  14.4419  14.8212  17.9817  20.3909
    21.8649  24.3618  25.2049  26.2203  27.0138  29.2245  29.4764  29.5348
    30.5847  33.2811  33.9761  37.1712  38.0972  39.7855  39.9603  40.2071
    40.5393  43.4491  44.4868  46.4352  47.0902  47.9093  49.2190  50.6046
    52.2249  52.5105  54.3244  55.8993

          k =-0.0946 0.0000 0.0946 (   618 PWs)   bands (ev):

     7.8463  10.3633  10.3635  11.1225  11.2046  11.4376  11.4391  11.9490
    12.0891  12.0891  12.2580  12.6490  13.1210  13.1932  13.4848  13.6187
    13.6193  13.9753  13.9756  14.1610  14.2343  15.9396  15.9397  19.2175
    21.9117  24.8824  26.4759  26.4761  27.5180  27.5188  30.6126  31.1997
    31.2068  31.2980  33.1180  36.3222  40.8972  41.2817  41.2820  42.4831
    42.7312  43.1651  43.1651  46.5761  46.6942  47.8432  47.8441  51.0120
    51.4095  51.4637  52.7211  54.5704

          k = 0.0473-0.0473 0.0473 (   609 PWs)   bands (ev):

     6.2318  10.3289  10.3290  10.3290  10.9788  10.9798  10.9798  12.2951
    12.7360  12.7360  13.1142  13.1142  13.1143  13.5733  13.5733  13.8588
    13.8593  13.8593  14.5037  14.5037  14.5041  17.0125  17.0128  17.0128
    25.0112  25.0114  25.0114  26.2802  26.2802  26.2805  30.6899  30.6903
    30.6904  33.0294  35.7043  35.7044  35.7047  38.5985  40.5782  40.5782
    42.2393  42.2394  42.2394  45.8888  46.9777  46.9777  50.9993  50.9993
    54.4924  54.4935  54.4935  54.9461

          k = 0.0473-0.0473 0.0946 (   618 PWs)   bands (ev):

     7.2188   9.9301  10.7801  10.7803  11.2132  11.2140  11.2700  12.0539
    12.4100  12.4100  12.5697  12.7688  12.8554  13.4808  13.5117  13.5755
    13.5786  13.8431  14.3941  14.4235  14.4241  15.0989  18.3223  18.3224
    22.4846  22.4847  26.2952  26.9119  26.9120  29.9257  29.9260  30.3545
    30.5337  32.1739  36.1577  37.1801  37.3401  38.2491  38.2491  41.7608
    42.9207  43.8438  46.3849  46.3851  47.2311  48.3928  49.5266  49.5269
    50.0165  52.2856  52.3547  54.9332

          k =-0.0946 0.0473 0.0473 (   618 PWs)   bands (ev):

     7.2188   9.9301  10.7801  10.7803  11.2132  11.2140  11.2700  12.0539
    12.4100  12.4100  12.5697  12.7688  12.8554  13.4808  13.5117  13.5755
    13.5786  13.8431  14.3941  14.4235  14.4241  15.0989  18.3223  18.3224
    22.4846  22.4847  26.2952  26.9118  26.9120  29.9257  29.9261  30.3545
    30.5337  32.1739  36.1577  37.1801  37.3401  38.2491  38.2491  41.7608
    42.9207  43.8438  46.3850  46.3850  47.2311  48.3928  49.5266  49.5269
    50.0165  52.2856  52.3547  54.9332

          k = 0.0473-0.0473-0.1419 (   616 PWs)   bands (ev):

     8.6402   8.6608  11.2015  11.2016  11.2610  11.2622  11.6558  11.6871
    12.0381  12.0385  12.5371  12.5730  13.1077  13.1167  13.3890  13.3895
    13.9783  14.0026  14.1487  14.1512  14.3774  14.3775  19.3960  19.3961
    21.0207  21.0207  27.8536  27.8577  28.0925  28.1078  28.5231  28.5305
    34.4375  34.4707  34.8556  34.9230  37.5455  37.6141  41.5917  41.5919
    44.1413  44.1796  44.7324  44.7328  48.7342  48.7848  50.1838  50.2014
    51.4788  51.4791  53.1967  53.2171

          k = 0.0946-0.0473 0.0946 (   617 PWs)   bands (ev):

     8.0978  10.3745  10.3748  10.8880  11.3766  11.5135  11.5144  12.0293
    12.2290  12.2294  12.3511  12.6601  12.8054  13.2460  13.2476  13.2516
    13.6033  14.1490  14.2926  14.2946  14.3134  16.0192  16.0194  18.5280
    20.7182  23.6716  23.6716  27.6071  27.7101  30.7090  30.7092  31.6729
    31.6734  33.5286  34.7385  36.3859  38.7638  38.7641  39.5310  42.4808
    43.1172  44.1263  45.8092  45.8093  48.5528  48.5533  49.6869  49.9067
    50.2105  50.9425  51.6691  52.1770

          k =-0.0946 0.0473 0.0946 (   617 PWs)   bands (ev):

     8.0978  10.3745  10.3748  10.8880  11.3766  11.5135  11.5144  12.0293
    12.2290  12.2294  12.3511  12.6601  12.8054  13.2460  13.2476  13.2516
    13.6033  14.1490  14.2926  14.2946  14.3134  16.0192  16.0194  18.5280
    20.7182  23.6716  23.6717  27.6071  27.7101  30.7090  30.7092  31.6729
    31.6734  33.5286  34.7385  36.3859  38.7638  38.7641  39.5310  42.4808
    43.1172  44.1263  45.8093  45.8093  48.5528  48.5533  49.6869  49.9067
    50.2105  50.9425  51.6691  52.1776

          k = 0.0946-0.0473-0.1419 (   624 PWs)   bands (ev):

     9.3055   9.3210  10.7335  10.7404  11.6307  11.6339  11.8519  11.8785
    12.2039  12.2161  12.3838  12.4076  12.9282  12.9343  13.1060  13.1103
    13.9074  13.9205  14.1999  14.2104  14.7380  14.7427  17.2303  17.2479
    21.6779  21.6911  25.3931  25.4022  29.0402  29.0501  32.5785  32.5810
    32.7825  32.7915  36.3291  36.4049  39.5385  39.5545  39.8650  39.8791
    44.5506  44.5561  45.0252  45.0627  47.0133  47.0346  49.8927  49.9229
    51.0458  51.0633  53.2435  53.2750

          k = 0.0946-0.0946 0.0946 (   627 PWs)   bands (ev):

     8.7630  10.3319  10.3326  10.3326  11.8223  11.8229  11.8229  12.2859
    12.5000  12.5000  12.5019  12.6282  12.6282  12.8939  12.8939  12.8944
    14.0323  14.0323  14.4334  14.4334  14.4338  16.2729  16.2732  16.2732
    21.3137  21.3137  21.3137  24.9116  32.0406  32.0406  32.0410  34.7466
    34.7470  34.7471  36.7321  36.7321  36.7327  37.1485  39.4178  39.4178
    43.8247  43.8247  47.1184  47.3727  47.3727  47.3748  47.4760  47.4763
    47.4763  51.7332  51.7338  51.7338

          k = 0.0946-0.0946-0.1419 (   622 PWs)   bands (ev):

     9.5870   9.5946  10.2943  10.2948  12.0117  12.0121  12.3076  12.3251
    12.5458  12.5679  12.6589  12.6608  12.7006  12.7007  12.7647  12.7649
    14.3361  14.3389  14.3640  14.3651  14.5573  14.5611  16.4648  16.4649
    20.3847  20.3847  22.8051  22.8146  32.9294  32.9296  34.1456  34.1462
    35.7258  35.7592  36.7264  36.7434  38.4357  38.4894  38.8479  38.8482
    44.0390  44.0393  44.2466  44.2733  45.3762  45.3834  47.8583  47.8584
    48.9513  48.9625  52.3665  52.3684

     the Fermi energy is    14.1811 ev

!    total energy              =    -343.62775996 Ry
     Harris-Foulkes estimate   =    -343.62765319 Ry
     estimated scf accuracy    <          1.7E-09 Ry

     The total energy is the sum of the following terms:

     one-electron contribution =      -8.69854358 Ry
     hartree contribution      =      61.08159917 Ry
     xc contribution           =    -120.47736492 Ry
     ewald contribution        =    -275.48620515 Ry
     Dispersion Correction     =      -0.04675218 Ry
     smearing contrib. (-TS)   =      -0.00049330 Ry

     total magnetization       =     2.87 Bohr mag/cell
     absolute magnetization    =     3.30 Bohr mag/cell

     convergence has been achieved in  16 iterations

     Forces acting on atoms (Ry/au):

     atom    1 type  1   force =    -0.00231436   -0.00231436    0.00231457
     atom    2 type  1   force =     0.00231415    0.00231415    0.00231415
     atom    3 type  1   force =    -0.00231436    0.00231457   -0.00231436
     atom    4 type  1   force =     0.00231457   -0.00231436   -0.00231436

     Total force =     0.008017     Total SCF correction =     0.000004


     entering subroutine stress ...

          total   stress  (Ry/bohr**3)                   (kbar)     P=  -35.73
  -0.00024292   0.00000000   0.00000000        -35.73      0.00      0.00
   0.00000000  -0.00024292   0.00000000          0.00    -35.73      0.00
   0.00000000   0.00000000  -0.00024292          0.00      0.00    -35.73


     BFGS Geometry Optimization

     number of scf cycles    =   1
     number of bfgs steps    =   0

     enthalpy new            =    -343.6277599585 Ry

     new trust radius        =       0.0208612949 bohr
     new conv_thr            =       0.0000000100 Ry

     new unit-cell volume =    289.65895 a.u.^3 (    42.92303 Ang^3 )

CELL_PARAMETERS (alat=  1.88972590)
   3.501306826   0.000000043   0.000000043
   0.000000043   3.501306826   0.000000043
   0.000000043   0.000000043   3.501306826

ATOMIC_POSITIONS (alat)
Ni1      1.757208621   1.757208621   0.001217424
Ni1      0.001217160   0.001217160   0.001217160
Ni1      1.757208621   0.001217424   1.757208621
Ni1      0.001217424   1.757208621   1.757208621



     Writing output data file Ni-ferromag.save
     NEW-OLD atomic charge density approx. for the potential

     Check: negative/imaginary core charge=   -0.000005    0.000000
     extrapolated charge   39.26234, renormalised to   40.00000

     total cpu time spent up to now is      263.9 secs

     Self-consistent Calculation

     iteration #  1     ecut=    25.00 Ry     beta=0.20
     Davidson diagonalization with overlap
     c_bands:  2 eigenvalues not converged
     c_bands:  3 eigenvalues not converged
     c_bands:  2 eigenvalues not converged
     ethr =  1.00E-06,  avg # of iterations =  6.2

     total cpu time spent up to now is      297.2 secs

     total energy              =    -343.52102646 Ry
     Harris-Foulkes estimate   =    -344.44265831 Ry
     estimated scf accuracy    <       0.17617728 Ry

     total magnetization       =     2.51 Bohr mag/cell
     absolute magnetization    =     2.93 Bohr mag/cell

     iteration #  2     ecut=    25.00 Ry     beta=0.20
     Davidson diagonalization with overlap
     ethr =  4.40E-04,  avg # of iterations =  3.2

     total cpu time spent up to now is      311.9 secs

     total energy              =    -343.63211047 Ry
     Harris-Foulkes estimate   =    -343.64499422 Ry
     estimated scf accuracy    <       0.06598498 Ry

     total magnetization       =     2.94 Bohr mag/cell
     absolute magnetization    =     3.35 Bohr mag/cell

     iteration #  3     ecut=    25.00 Ry     beta=0.20
     Davidson diagonalization with overlap
     ethr =  1.65E-04,  avg # of iterations =  1.1

     total cpu time spent up to now is      324.5 secs

     total energy              =    -343.62390563 Ry
     Harris-Foulkes estimate   =    -343.63419491 Ry
     estimated scf accuracy    <       0.02286657 Ry

     total magnetization       =     2.91 Bohr mag/cell
     absolute magnetization    =     3.32 Bohr mag/cell

     iteration #  4     ecut=    25.00 Ry     beta=0.20
     Davidson diagonalization with overlap
     ethr =  5.72E-05,  avg # of iterations =  2.6

     total cpu time spent up to now is      338.5 secs

     total energy              =    -343.62880221 Ry
     Harris-Foulkes estimate   =    -343.62852060 Ry
     estimated scf accuracy    <       0.00012870 Ry

     total magnetization       =     2.84 Bohr mag/cell
     absolute magnetization    =     3.26 Bohr mag/cell

     iteration #  5     ecut=    25.00 Ry     beta=0.20
     Davidson diagonalization with overlap
     ethr =  3.22E-07,  avg # of iterations =  4.0

     total cpu time spent up to now is      357.5 secs

     total energy              =    -343.62885881 Ry
     Harris-Foulkes estimate   =    -343.62902698 Ry
     estimated scf accuracy    <       0.00215008 Ry

     total magnetization       =     2.82 Bohr mag/cell
     absolute magnetization    =     3.24 Bohr mag/cell

     iteration #  6     ecut=    25.00 Ry     beta=0.20
     Davidson diagonalization with overlap
     ethr =  3.22E-07,  avg # of iterations =  1.0

     total cpu time spent up to now is      369.8 secs

     total energy              =    -343.62852561 Ry
     Harris-Foulkes estimate   =    -343.62886882 Ry
     estimated scf accuracy    <       0.00150889 Ry

     total magnetization       =     2.82 Bohr mag/cell
     absolute magnetization    =     3.24 Bohr mag/cell

     iteration #  7     ecut=    25.00 Ry     beta=0.20
     Davidson diagonalization with overlap
     ethr =  3.22E-07,  avg # of iterations =  2.1

     total cpu time spent up to now is      383.0 secs

     total energy              =    -343.62854171 Ry
     Harris-Foulkes estimate   =    -343.62859115 Ry
     estimated scf accuracy    <       0.00037927 Ry

     total magnetization       =     2.83 Bohr mag/cell
     absolute magnetization    =     3.25 Bohr mag/cell

     iteration #  8     ecut=    25.00 Ry     beta=0.20
     Davidson diagonalization with overlap
     ethr =  3.22E-07,  avg # of iterations =  1.0

     total cpu time spent up to now is      395.4 secs

     total energy              =    -343.62851084 Ry
     Harris-Foulkes estimate   =    -343.62854691 Ry
     estimated scf accuracy    <       0.00019846 Ry

     total magnetization       =     2.83 Bohr mag/cell
     absolute magnetization    =     3.25 Bohr mag/cell

     iteration #  9     ecut=    25.00 Ry     beta=0.20
     Davidson diagonalization with overlap
     ethr =  3.22E-07,  avg # of iterations =  1.0

     total cpu time spent up to now is      407.7 secs

     total energy              =    -343.62850280 Ry
     Harris-Foulkes estimate   =    -343.62851630 Ry
     estimated scf accuracy    <       0.00007243 Ry

     total magnetization       =     2.83 Bohr mag/cell
     absolute magnetization    =     3.25 Bohr mag/cell

     iteration # 10     ecut=    25.00 Ry     beta=0.20
     Davidson diagonalization with overlap
     ethr =  1.81E-07,  avg # of iterations =  1.0

     total cpu time spent up to now is      420.0 secs

     total energy              =    -343.62849445 Ry
     Harris-Foulkes estimate   =    -343.62850494 Ry
     estimated scf accuracy    <       0.00002533 Ry

     total magnetization       =     2.83 Bohr mag/cell
     absolute magnetization    =     3.25 Bohr mag/cell

     iteration # 11     ecut=    25.00 Ry     beta=0.20
     Davidson diagonalization with overlap
     ethr =  6.33E-08,  avg # of iterations =  1.0

     Magnetic moment per site:
     atom:    1    charge:    3.0011    magn:    0.3343    constr:    0.0000
     atom:    2    charge:    2.9994    magn:    0.3342    constr:    0.0000
     atom:    3    charge:    3.0011    magn:    0.3343    constr:    0.0000
     atom:    4    charge:    3.0011    magn:    0.3343    constr:    0.0000

     total cpu time spent up to now is      432.2 secs

     End of self-consistent calculation

 ------ SPIN UP ------------


          k = 0.0000 0.0000 0.0000 (   619 PWs)   bands (ev):

     5.4485   9.7360   9.7360   9.7360  10.1900  10.1903  10.1903  11.9731
    11.9731  11.9731  13.1545  13.1545  13.8747  13.8747  13.8747  13.9650
    13.9650  13.9650  13.9651  13.9651  13.9651  17.1013  17.1014  17.1014
    23.8562  23.8563  23.8563  29.6116  29.6116  29.6116  29.6117  29.6117
    29.6117  34.7076  34.7076  34.7078  38.0558  38.0559  38.0559  38.5391
    42.5270  42.5270  42.5270  46.1443  46.1443  46.1443  48.2332  55.2464
    55.2464  55.2464  57.8986  59.6792

          k =-0.0000-0.0000 0.0476 (   635 PWs)   bands (ev):

     5.8151   9.7578   9.9206   9.9206  10.3006  10.3166  10.3168  11.8440
    12.0757  12.0757  13.0362  13.2011  13.3090  13.3091  13.7205  13.7205
    13.7887  13.7887  13.8250  13.9653  13.9653  15.5004  18.0623  18.0624
    23.9519  23.9519  26.1059  27.8606  27.8608  28.4887  28.4888  30.1729
    30.1729  34.8214  36.8785  36.8787  37.9075  38.1859  40.0130  40.0131
    40.3101  40.3101  40.9716  47.5610  48.1939  48.1939  49.2192  51.6343
    56.3472  56.3472  56.7491  56.7494

          k =-0.0000-0.0000 0.0952 (   630 PWs)   bands (ev):

     6.8656   9.5288  10.3582  10.3582  10.6089  10.7003  10.7006  11.4993
    12.2500  12.2504  12.3731  12.3731  12.7479  13.3304  13.3354  13.3357
    13.3357  13.3544  13.3544  13.6905  13.9658  13.9658  20.0283  20.0284
    24.2677  24.2678  25.0848  25.0849  26.7220  26.7221  30.4091  31.7554
    31.7554  35.1840  36.7818  37.0857  37.0857  38.4005  38.7387  40.9233
    40.9234  44.1803  44.1804  44.2166  50.9942  51.1105  51.1105  51.1224
    51.1224  55.1127  56.1231  56.1231

          k = 0.0000 0.0000-0.1428 (   610 PWs)   bands (ev):

     8.3586   8.3739  10.6348  10.6348  11.0334  11.0558  11.3377  11.3378
    11.3600  11.3601  12.5548  12.5863  12.8178  12.8178  12.8347  12.8347
    13.0929  13.0929  13.5030  13.5154  13.9661  13.9661  22.3979  22.3980
    22.4368  22.4368  24.6389  24.6389  25.7784  25.7784  34.1243  34.1244
    34.1516  34.1516  34.9335  34.9910  35.8244  35.8380  40.2888  40.3807
    45.6898  45.6899  45.7700  45.7702  47.6857  47.6858  52.4069  52.4070
    54.2093  54.2093  54.2831  54.2831

          k =-0.0000 0.0476 0.0476 (   633 PWs)   bands (ev):

     6.1731   9.9565   9.9566  10.0840  10.4182  10.4185  10.4322  11.7841
    12.1208  12.1379  12.9615  13.0037  13.0203  13.0286  13.1969  13.5917
    13.7164  13.7164  13.7873  13.7874  13.8491  16.4351  16.4351  18.8337
    23.9446  25.1424  26.2930  26.2931  28.3388  28.3388  28.9826  28.9829
    30.7016  36.0959  36.1724  37.0864  37.0866  37.3875  40.1798  40.1800
    41.3228  42.6725  43.5921  45.2930  46.4375  49.8695  50.5191  53.1912
    53.7512  55.4341  55.4347  56.3766

          k =-0.0000 0.0476 0.0952 (   624 PWs)   bands (ev):

     7.1957   9.7651  10.4396  10.4883  10.7006  10.7539  10.7731  11.5026
    12.0112  12.1506  12.2672  12.3848  12.4106  12.8448  13.2671  13.3405
    13.3574  13.3771  13.5291  13.7835  13.7906  14.4678  18.0521  20.6194
    22.1201  24.6544  25.5470  26.5776  27.4486  29.6555  29.9458  30.0070
    31.0661  33.7770  34.5198  37.7381  38.6915  40.4472  40.6257  40.8122
    41.1797  44.1054  45.1040  47.1301  47.8524  48.6585  49.9712  51.4037
    53.0191  53.3276  54.9583  56.3994

          k = 0.0000 0.0476-0.1428 (   622 PWs)   bands (ev):

     8.6408   8.6552  10.7871  10.7880  11.0851  11.1068  11.2075  11.2258
    11.3526  11.3743  12.1846  12.2078  12.8184  12.8356  13.0525  13.0601
    13.0776  13.0786  13.6931  13.6933  13.7800  13.7834  19.9132  19.9329
    22.9000  22.9349  25.4437  25.4704  28.3526  28.3615  31.5423  31.5539
    32.0662  32.0742  35.8497  35.9157  38.8840  38.8889  42.2509  42.3077
    43.1655  43.1867  45.9688  46.0447  50.1253  50.1929  50.4086  50.4404
    52.6693  52.6946  53.3168  53.3376

          k =-0.0000 0.0952 0.0952 (   618 PWs)   bands (ev):

     8.1232  10.3535  10.3536  10.7202  10.9690  10.9696  10.9826  11.4329
    11.6801  11.6802  11.8347  12.1543  12.5157  12.7583  13.0507  13.2054
    13.2056  13.3471  13.3473  13.5175  13.7330  15.7155  15.7155  19.3370
    22.1482  25.2048  26.8217  26.8217  27.9433  27.9436  31.0362  31.6889
    31.6923  31.7901  33.6552  36.8946  41.5828  41.9426  41.9428  43.1418
    43.4663  43.8340  43.8340  47.2587  47.4043  48.5572  48.5576  51.7513
    52.2483  52.2544  53.3396  55.4206

          k = 0.0000 0.0952-0.1428 (   624 PWs)   bands (ev):

     9.3855   9.3972  10.8182  10.8320  11.2111  11.2243  11.2351  11.2406
    11.3723  11.3925  11.8819  11.8971  12.8546  12.8633  12.8643  12.8718
    12.9313  12.9339  13.3768  13.3872  14.3942  14.3969  17.2408  17.2562
    24.2620  24.2885  26.2617  26.2835  28.6945  28.7070  29.5850  29.5877
    32.9984  33.0042  36.8141  36.8786  40.4160  40.4286  43.1051  43.1174
    43.2754  43.2812  46.7765  46.8383  47.9830  48.0204  50.4823  50.5168
    51.8230  51.8784  53.6266  53.6409

          k = 0.0000-0.1428-0.1428 (   624 PWs)   bands (ev):

    10.2353  10.2454  10.2454  10.2553  11.3247  11.3440  11.3440  11.3631
    11.6480  11.6536  11.6536  11.6590  12.7152  12.7171  12.7171  12.7192
    13.0171  13.0330  13.0330  13.0488  15.4599  15.4671  15.4671  15.4744
    26.2339  26.2522  26.2522  26.2702  27.6132  27.6263  27.6263  27.6398
    37.9335  37.9511  37.9511  37.9694  38.5331  38.5553  38.5554  38.5752
    47.2377  47.2377  47.2379  47.2389  49.2344  49.2694  49.2694  49.3042
    51.8923  51.8954  51.8954  51.8982

          k = 0.0476 0.0476 0.0476 (   609 PWs)   bands (ev):

     6.5192  10.1180  10.1181  10.1181  10.5329  10.5333  10.5333  11.7491
    12.1576  12.1576  12.7155  12.7155  12.7156  13.1099  13.1099  13.3578
    13.3581  13.3581  13.9032  13.9032  13.9033  17.0634  17.0634  17.0634
    25.3683  25.3685  25.3685  26.6391  26.6391  26.6392  31.2183  31.2185
    31.2185  33.5350  36.2271  36.2271  36.2273  39.3011  41.2019  41.2019
    42.8779  42.8779  42.8779  46.6511  47.7194  47.7194  51.7288  51.7288
    55.3083  55.3088  55.3088  55.3163

          k = 0.0476 0.0476 0.0952 (   618 PWs)   bands (ev):

     7.5017   9.9240  10.5018  10.5019  10.8191  10.8474  10.8475  11.5392
    12.0015  12.0015  12.1953  12.2394  12.2977  12.9545  13.0246  13.1111
    13.1121  13.3505  13.8056  13.8057  13.8381  14.8299  18.4076  18.4076
    22.7475  22.7475  26.6639  27.2899  27.2899  30.4069  30.4070  30.7950
    30.9983  32.7010  36.7042  37.8276  37.9092  38.8502  38.8503  42.4228
    43.5698  44.5316  47.0903  47.0904  47.9538  49.1547  50.2791  50.2792
    50.7732  53.0946  53.1559  55.7432

          k = 0.0476 0.0476-0.1428 (   616 PWs)   bands (ev):

     8.8689   8.8816  10.8894  10.8901  10.9478  10.9479  11.1821  11.2024
    11.6069  11.6069  12.0889  12.1116  12.5674  12.5752  12.9429  12.9431
    13.5118  13.5279  13.6254  13.6288  13.7496  13.7496  19.5569  19.5570
    21.1860  21.1860  28.2517  28.2538  28.4887  28.4979  28.9761  28.9792
    34.9809  35.0037  35.4442  35.4897  38.1321  38.1796  42.2634  42.2634
    44.8110  44.8367  45.4387  45.4389  49.5283  49.5639  50.9673  50.9795
    52.2612  52.2613  53.8074  53.8125

          k = 0.0476 0.0952 0.0952 (   617 PWs)   bands (ev):

     8.3412  10.2422  10.2424  10.5290  11.1351  11.1813  11.1815  11.5844
    11.7972  11.7974  11.9305  12.1564  12.2824  12.7616  12.7618  12.7785
    13.0825  13.6384  13.7071  13.7233  13.7243  15.8460  15.8460  18.6588
    20.8438  23.9460  23.9460  27.9860  28.1056  31.1832  31.1832  32.1721
    32.1723  34.0690  35.2945  36.9661  39.3828  39.3830  40.2065  43.1046
    43.8024  44.8487  46.5301  46.5302  49.2711  49.2713  50.4867  50.6719
    50.9960  51.6977  52.3913  52.9979

          k = 0.0476 0.0952-0.1428 (   624 PWs)   bands (ev):

     9.4215   9.4294  10.4628  10.4651  11.3486  11.3494  11.4899  11.5063
    11.8002  11.8072  11.9180  11.9330  12.4292  12.4348  12.6415  12.6450
    13.3768  13.3832  13.6051  13.6117  14.3002  14.3028  17.2184  17.2309
    21.8552  21.8650  25.7053  25.7122  29.4810  29.4871  33.0894  33.0919
    33.3029  33.3084  36.9326  36.9855  40.1874  40.1990  40.5004  40.5099
    45.2585  45.2627  45.7414  45.7670  47.7623  47.7760  50.6421  50.6633
    51.8555  51.8678  53.9785  54.0003

          k = 0.0476-0.1428-0.1428 (   628 PWs)   bands (ev):

     9.9921   9.9955   9.9955   9.9985  11.7357  11.7410  11.7410  11.7460
    11.8178  11.8290  11.8290  11.8403  12.3979  12.4033  12.4033  12.4089
    13.3527  13.3627  13.3627  13.3728  15.3695  15.3774  15.3774  15.3854
    23.4880  23.4955  23.4955  23.5029  31.0203  31.0227  31.0227  31.0253
    38.2160  38.2298  38.2298  38.2476  38.3773  38.3984  38.3984  38.4142
    46.7197  46.7197  46.7202  46.7227  46.8097  46.8302  46.8302  46.8475
    54.8765  54.8901  54.8901  54.9077

          k = 0.0952 0.0952 0.0952 (   627 PWs)   bands (ev):

     8.8854  10.0769  10.0772  10.0772  11.5404  11.5407  11.5407  12.0548
    12.1127  12.1127  12.1180  12.1272  12.1272  12.4067  12.4067  12.4070
    13.4861  13.4861  13.8518  13.8518  13.8519  16.2235  16.2236  16.2236
    21.4519  21.4519  21.4520  25.1952  32.5502  32.5502  32.5503  35.2976
    35.2978  35.2978  37.3290  37.3290  37.3293  37.8375  40.0128  40.0128
    44.5129  44.5129  47.8475  48.1347  48.1347  48.1356  48.2117  48.2119
    48.2119  52.5238  52.5242  52.5242

          k = 0.0952 0.0952-0.1428 (   622 PWs)   bands (ev):

     9.5111   9.5131  10.0083  10.0085  11.6608  11.6610  11.9421  11.9545
    12.1649  12.1666  12.2832  12.2864  12.2953  12.3077  12.4005  12.4008
    13.7712  13.7725  13.7798  13.7806  14.1902  14.1909  16.5070  16.5071
    20.4232  20.4232  23.0076  23.0148  33.4655  33.4655  34.6816  34.6819
    36.3670  36.3892  37.2975  37.3093  39.0359  39.0735  39.4931  39.4932
    44.7231  44.7233  44.9603  44.9791  46.0855  46.0905  48.6207  48.6207
    49.6850  49.6927  53.0772  53.0780

          k = 0.0952-0.1428-0.1428 (   632 PWs)   bands (ev):

     9.6874   9.6878   9.6878   9.6878  11.9044  11.9078  11.9078  11.9109
    12.0946  12.0980  12.0980  12.1016  12.8408  12.8479  12.8479  12.8551
    13.6944  13.6998  13.6998  13.7053  14.9895  14.9986  14.9986  15.0077
    21.1309  21.1370  21.1370  21.1431  35.2022  35.2053  35.2053  35.2085
    38.2617  38.2713  38.2713  38.2813  38.9886  38.9989  38.9989  39.0079
    44.1536  44.1624  44.1624  44.1709  45.2245  45.2268  45.2268  45.2289
    50.5033  50.5070  50.5070  50.5113

          k =-0.1428-0.1428-0.1428 (   624 PWs)   bands (ev):

     9.5712   9.5715   9.5715   9.5715  11.9861  11.9861  11.9861  11.9862
    11.9862  11.9864  11.9864  11.9864  13.8272  13.8272  13.8272  13.8277
    13.8277  13.8278  13.8278  13.8278  14.3185  14.3189  14.3190  14.3190
    20.2560  20.2560  20.2560  20.2561  36.9942  36.9944  36.9944  36.9944
    39.6342  39.6342  39.6342  39.6343  39.6343  39.6347  39.6347  39.6347
    42.8712  42.8712  42.8713  42.8713  42.8714  42.8715  42.8716  42.8716
    48.8599  48.8599  48.8599  48.8600

          k =-0.0476 0.0000 0.0476 (   633 PWs)   bands (ev):

     6.1731   9.9565   9.9566  10.0840  10.4182  10.4185  10.4322  11.7841
    12.1208  12.1379  12.9615  13.0037  13.0203  13.0286  13.1969  13.5917
    13.7164  13.7164  13.7873  13.7874  13.8491  16.4351  16.4351  18.8337
    23.9446  25.1424  26.2929  26.2931  28.3387  28.3388  28.9826  28.9829
    30.7016  36.0959  36.1724  37.0864  37.0866  37.3875  40.1797  40.1800
    41.3228  42.6725  43.5921  45.2930  46.4375  49.8695  50.5191  53.1912
    53.7512  55.4341  55.4347  56.3766

          k =-0.0476-0.0000 0.0952 (   624 PWs)   bands (ev):

     7.1957   9.7651  10.4396  10.4883  10.7006  10.7539  10.7731  11.5026
    12.0112  12.1506  12.2672  12.3848  12.4106  12.8448  13.2671  13.3405
    13.3574  13.3771  13.5291  13.7835  13.7906  14.4678  18.0521  20.6194
    22.1201  24.6544  25.5470  26.5776  27.4486  29.6555  29.9458  30.0070
    31.0661  33.7770  34.5198  37.7381  38.6915  40.4472  40.6257  40.8122
    41.1797  44.1054  45.1040  47.1302  47.8524  48.6585  49.9712  51.4037
    53.0191  53.3276  54.9583  56.3994

          k =-0.0952 0.0000 0.0952 (   618 PWs)   bands (ev):

     8.1232  10.3535  10.3535  10.7202  10.9690  10.9696  10.9826  11.4329
    11.6801  11.6802  11.8347  12.1543  12.5157  12.7583  13.0507  13.2054
    13.2056  13.3471  13.3473  13.5175  13.7330  15.7155  15.7155  19.3370
    22.1482  25.2048  26.8217  26.8217  27.9433  27.9436  31.0362  31.6889
    31.6923  31.7901  33.6552  36.8946  41.5828  41.9426  41.9428  43.1418
    43.4663  43.8340  43.8340  47.2587  47.4043  48.5572  48.5576  51.7513
    52.2483  52.2544  53.3396  55.4262

          k = 0.0476-0.0476 0.0476 (   609 PWs)   bands (ev):

     6.5192  10.1180  10.1181  10.1181  10.5329  10.5333  10.5333  11.7491
    12.1576  12.1576  12.7155  12.7155  12.7156  13.1099  13.1099  13.3578
    13.3581  13.3581  13.9032  13.9032  13.9033  17.0634  17.0634  17.0634
    25.3683  25.3684  25.3685  26.6390  26.6391  26.6392  31.2183  31.2185
    31.2185  33.5350  36.2271  36.2271  36.2273  39.3011  41.2019  41.2019
    42.8779  42.8779  42.8780  46.6511  47.7194  47.7194  51.7288  51.7288
    55.3083  55.3088  55.3088  55.3163

          k = 0.0476-0.0476 0.0952 (   618 PWs)   bands (ev):

     7.5017   9.9240  10.5018  10.5019  10.8191  10.8474  10.8475  11.5392
    12.0014  12.0015  12.1953  12.2394  12.2977  12.9545  13.0246  13.1111
    13.1121  13.3505  13.8056  13.8057  13.8381  14.8299  18.4076  18.4076
    22.7475  22.7475  26.6639  27.2899  27.2899  30.4069  30.4070  30.7950
    30.9983  32.7010  36.7042  37.8276  37.9092  38.8502  38.8503  42.4228
    43.5698  44.5316  47.0903  47.0904  47.9538  49.1547  50.2790  50.2792
    50.7732  53.0946  53.1559  55.7432

          k =-0.0952 0.0476 0.0476 (   618 PWs)   bands (ev):

     7.5017   9.9240  10.5018  10.5019  10.8191  10.8474  10.8475  11.5392
    12.0014  12.0015  12.1953  12.2394  12.2977  12.9545  13.0246  13.1111
    13.1121  13.3505  13.8056  13.8057  13.8381  14.8299  18.4076  18.4076
    22.7475  22.7475  26.6639  27.2899  27.2899  30.4069  30.4070  30.7950
    30.9983  32.7010  36.7042  37.8276  37.9092  38.8502  38.8503  42.4228
    43.5698  44.5316  47.0903  47.0904  47.9538  49.1547  50.2791  50.2792
    50.7732  53.0946  53.1559  55.7432

          k = 0.0476-0.0476-0.1428 (   616 PWs)   bands (ev):

     8.8689   8.8816  10.8894  10.8901  10.9478  10.9479  11.1821  11.2024
    11.6069  11.6069  12.0889  12.1116  12.5674  12.5752  12.9429  12.9431
    13.5118  13.5279  13.6254  13.6288  13.7496  13.7496  19.5569  19.5569
    21.1860  21.1860  28.2518  28.2537  28.4887  28.4979  28.9761  28.9792
    34.9809  35.0037  35.4442  35.4897  38.1321  38.1796  42.2633  42.2634
    44.8110  44.8367  45.4387  45.4389  49.5283  49.5639  50.9673  50.9795
    52.2612  52.2614  53.8075  53.8125

          k = 0.0952-0.0476 0.0952 (   617 PWs)   bands (ev):

     8.3412  10.2422  10.2424  10.5290  11.1351  11.1813  11.1815  11.5844
    11.7972  11.7974  11.9305  12.1564  12.2824  12.7616  12.7618  12.7785
    13.0825  13.6384  13.7071  13.7233  13.7243  15.8460  15.8460  18.6588
    20.8438  23.9460  23.9460  27.9860  28.1056  31.1832  31.1832  32.1721
    32.1723  34.0690  35.2945  36.9661  39.3828  39.3830  40.2065  43.1046
    43.8024  44.8487  46.5301  46.5302  49.2711  49.2713  50.4867  50.6719
    50.9960  51.6977  52.3913  52.9983

          k =-0.0952 0.0476 0.0952 (   617 PWs)   bands (ev):

     8.3412  10.2422  10.2424  10.5290  11.1351  11.1813  11.1815  11.5844
    11.7972  11.7974  11.9305  12.1564  12.2824  12.7616  12.7618  12.7785
    13.0825  13.6384  13.7071  13.7233  13.7243  15.8460  15.8460  18.6588
    20.8438  23.9460  23.9460  27.9860  28.1056  31.1832  31.1833  32.1721
    32.1723  34.0690  35.2945  36.9661  39.3828  39.3830  40.2065  43.1046
    43.8024  44.8487  46.5301  46.5301  49.2711  49.2714  50.4867  50.6719
    50.9960  51.6977  52.3913  52.9981

          k = 0.0952-0.0476-0.1428 (   624 PWs)   bands (ev):

     9.4215   9.4294  10.4628  10.4651  11.3486  11.3494  11.4899  11.5063
    11.8002  11.8072  11.9180  11.9330  12.4292  12.4348  12.6415  12.6450
    13.3768  13.3832  13.6051  13.6117  14.3002  14.3028  17.2184  17.2309
    21.8552  21.8650  25.7053  25.7122  29.4810  29.4871  33.0894  33.0919
    33.3029  33.3084  36.9326  36.9855  40.1874  40.1990  40.5003  40.5099
    45.2585  45.2627  45.7414  45.7670  47.7623  47.7760  50.6421  50.6633
    51.8555  51.8678  53.9785  54.0003

          k = 0.0952-0.0952 0.0952 (   627 PWs)   bands (ev):

     8.8854  10.0769  10.0772  10.0772  11.5404  11.5407  11.5407  12.0548
    12.1127  12.1127  12.1180  12.1272  12.1272  12.4067  12.4067  12.4070
    13.4861  13.4861  13.8518  13.8518  13.8519  16.2235  16.2236  16.2236
    21.4519  21.4519  21.4520  25.1952  32.5502  32.5502  32.5504  35.2976
    35.2978  35.2978  37.3290  37.3290  37.3293  37.8375  40.0128  40.0128
    44.5129  44.5129  47.8475  48.1347  48.1347  48.1357  48.2117  48.2118
    48.2119  52.5238  52.5242  52.5242

          k = 0.0952-0.0952-0.1428 (   622 PWs)   bands (ev):

     9.5111   9.5131  10.0083  10.0085  11.6608  11.6610  11.9421  11.9545
    12.1649  12.1666  12.2832  12.2864  12.2953  12.3077  12.4004  12.4008
    13.7712  13.7725  13.7798  13.7806  14.1902  14.1909  16.5070  16.5071
    20.4232  20.4232  23.0076  23.0148  33.4655  33.4656  34.6816  34.6818
    36.3670  36.3892  37.2975  37.3093  39.0359  39.0735  39.4931  39.4932
    44.7231  44.7233  44.9603  44.9791  46.0855  46.0905  48.6207  48.6207
    49.6850  49.6927  53.0772  53.0781

 ------ SPIN DOWN ----------


          k = 0.0000 0.0000 0.0000 (   619 PWs)   bands (ev):

     5.3939  10.1976  10.1976  10.1976  10.9078  10.9082  10.9082  12.8532
    12.8532  12.8532  13.9343  13.9343  14.6886  14.6886  14.6886  14.9742
    14.9742  14.9742  14.9744  14.9744  14.9744  17.0224  17.0226  17.0226
    24.1617  24.1617  24.1617  29.5978  29.5979  29.5979  29.5980  29.5980
    29.5981  34.8711  34.8711  34.8713  38.1998  38.2000  38.2000  38.3327
    42.4970  42.4970  42.4970  46.2166  46.2166  46.2166  48.0735  55.4356
    55.4356  55.4356  58.4504  59.5691

          k =-0.0000-0.0000 0.0476 (   635 PWs)   bands (ev):

     5.7605  10.1730  10.3922  10.3922  11.0273  11.0318  11.0321  12.7109
    12.9599  12.9599  13.8063  13.9828  14.1285  14.1287  14.5210  14.5210
    14.6365  14.7811  14.7811  14.9747  14.9747  15.5704  18.1694  18.1696
    24.2423  24.2423  26.3077  27.9291  27.9292  28.5161  28.5161  30.1755
    30.1755  34.9725  36.9589  36.9590  37.7679  38.3274  40.1334  40.1335
    40.3521  40.3521  40.9012  47.5815  48.1673  48.1673  49.2897  51.6258
    56.5586  56.5586  56.6756  56.6759

          k =-0.0000-0.0000 0.0952 (   630 PWs)   bands (ev):

     6.8152   9.7367  10.8542  10.8542  11.3609  11.4101  11.4105  12.3319
    12.9789  12.9793  13.2705  13.2705  13.4843  13.7065  14.1077  14.1077
    14.1183  14.3055  14.3055  14.4954  14.9752  14.9752  20.2136  20.2137
    24.5138  24.5138  25.2255  25.2255  26.8204  26.8204  30.5044  31.7923
    31.7923  35.2973  36.7462  37.1569  37.1569  38.3098  38.8852  40.9281
    40.9283  44.2800  44.2801  44.4353  50.9497  51.0152  51.0152  51.0481
    51.0482  55.0054  56.3601  56.3602

          k = 0.0000 0.0000-0.1428 (   610 PWs)   bands (ev):

     8.3519   8.3676  11.1465  11.1465  11.8225  11.8465  12.0463  12.0466
    12.0691  12.0694  13.2010  13.2353  13.7381  13.7381  13.7557  13.7557
    13.8404  13.8404  14.2990  14.3119  14.9755  14.9755  22.5792  22.5792
    22.6189  22.6190  24.8355  24.8355  25.9360  25.9360  34.1893  34.1893
    34.2165  34.2165  34.9122  34.9714  35.8737  35.8900  40.4808  40.5743
    45.6436  45.6438  45.7258  45.7260  47.7598  47.7599  52.5971  52.5972
    54.0985  54.0985  54.1722  54.1722

          k =-0.0000 0.0476 0.0476 (   633 PWs)   bands (ev):

     6.1194  10.3842  10.3843  10.5745  11.1315  11.1419  11.1422  12.6373
    13.0104  13.0149  13.7259  13.7583  13.7679  13.7898  13.9838  14.3821
    14.5085  14.5085  14.7799  14.7799  14.8511  16.7499  16.7499  18.9996
    24.2028  25.2723  26.4816  26.4817  28.4215  28.4215  29.0237  29.0241
    30.7126  36.1627  36.2001  37.1565  37.1568  37.4045  40.2981  40.2983
    41.2416  42.7602  43.5605  45.2364  46.4978  50.0278  50.4442  53.3541
    53.7247  55.3933  55.3939  56.3168

          k =-0.0000 0.0476 0.0952 (   624 PWs)   bands (ev):

     7.1502   9.9875  10.9014  11.0199  11.4155  11.4481  11.4896  12.3243
    12.7022  12.8711  13.0638  13.1087  13.2867  13.6090  14.0318  14.1167
    14.1875  14.2745  14.3038  14.7767  14.7868  15.1771  18.3909  20.8236
    22.3186  24.8823  25.6986  26.7123  27.5740  29.7638  30.0077  30.0770
    31.1635  33.8546  34.5619  37.7795  38.7292  40.3980  40.5729  40.9324
    41.1788  44.1878  45.3087  47.1966  47.7743  48.6405  49.9547  51.3284
    52.9734  53.2365  55.1726  56.6470

          k = 0.0000 0.0476-0.1428 (   622 PWs)   bands (ev):

     8.6460   8.6610  11.2894  11.2913  11.8631  11.8851  11.8883  11.9069
    12.0640  12.0863  12.9235  12.9501  13.7413  13.7589  13.8209  13.8250
    13.8304  13.8330  14.5311  14.5319  14.7738  14.7776  20.1946  20.2146
    23.0930  23.1283  25.6142  25.6430  28.4688  28.4794  31.6567  31.6670
    32.1245  32.1313  35.8746  35.9406  38.8854  38.8889  42.4032  42.4618
    43.1571  43.1806  45.9192  45.9969  50.1908  50.2572  50.3403  50.3724
    52.5848  52.6111  53.4850  53.5056

          k =-0.0000 0.0952 0.0952 (   618 PWs)   bands (ev):

     8.1010  10.6264  10.6264  11.3840  11.4663  11.7042  11.7049  12.2265
    12.3730  12.3730  12.5465  12.9453  13.4308  13.5050  13.8040  13.9427
    13.9430  14.3077  14.3078  14.4981  14.5751  16.3208  16.3209  19.6448
    22.3675  25.4033  26.9883  26.9883  28.0445  28.0448  31.1668  31.7770
    31.7809  31.8580  33.7076  36.9301  41.5191  41.9239  41.9241  43.1759
    43.3482  43.8765  43.8765  47.3799  47.4332  48.6018  48.6022  51.8107
    52.1306  52.2029  53.5408  55.3271

          k = 0.0000 0.0952-0.1428 (   624 PWs)   bands (ev):

     9.4462   9.4590  11.2375  11.2511  11.8697  11.8709  11.9765  11.9978
    12.0923  12.1134  12.6177  12.6346  13.5977  13.5982  13.6696  13.6722
    13.7902  13.8086  14.3448  14.3560  15.1998  15.2032  17.7052  17.7203
    24.4674  24.4933  26.4125  26.4362  28.8572  28.8684  29.6745  29.6782
    33.0693  33.0767  36.8414  36.9062  40.4154  40.4266  43.0505  43.0620
    43.2941  43.2992  46.7133  46.7762  48.0640  48.1032  50.4287  50.4641
    51.9435  51.9988  53.5413  53.5548

          k = 0.0000-0.1428-0.1428 (   624 PWs)   bands (ev):

    10.4532  10.4645  10.4645  10.4757  12.0609  12.0814  12.0814  12.1017
    12.3163  12.3226  12.3227  12.3290  13.4525  13.4546  13.4546  13.4570
    13.9651  13.9818  13.9818  13.9985  16.1428  16.1490  16.1490  16.1551
    26.4299  26.4470  26.4470  26.4639  27.7354  27.7499  27.7499  27.7649
    38.0081  38.0250  38.0250  38.0431  38.5003  38.5214  38.5215  38.5398
    47.1163  47.1169  47.1170  47.1191  49.2222  49.2580  49.2580  49.2938
    51.9912  51.9960  51.9961  52.0005

          k = 0.0476 0.0476 0.0476 (   609 PWs)   bands (ev):

     6.4684  10.5727  10.5728  10.5728  11.2331  11.2336  11.2336  12.5823
    13.0355  13.0355  13.4258  13.4258  13.4258  13.8961  13.8961  14.1887
    14.1890  14.1890  14.8514  14.8514  14.8516  17.4046  17.4047  17.4047
    25.4998  25.4999  25.4999  26.8123  26.8123  26.8125  31.2401  31.2404
    31.2404  33.6012  36.3217  36.3217  36.3218  39.1451  41.2539  41.2539
    42.9621  42.9622  42.9622  46.5636  47.6758  47.6758  51.8950  51.8950
    55.2612  55.2618  55.2618  55.6527

          k = 0.0476 0.0476 0.0952 (   618 PWs)   bands (ev):

     7.4666  10.1864  11.0329  11.0330  11.4752  11.4756  11.5313  12.3346
    12.7034  12.7035  12.8690  13.0680  13.1578  13.8005  13.8338  13.8977
    13.8992  14.1726  14.7390  14.7687  14.7690  15.4603  18.7346  18.7347
    22.9578  22.9578  26.8080  27.4388  27.4389  30.4818  30.4819  30.9088
    31.0855  32.7474  36.7784  37.7328  37.9862  38.8803  38.8803  42.4297
    43.6503  44.5491  47.1342  47.1342  47.9954  49.0997  50.2674  50.2675
    50.7797  53.0224  53.1154  55.8575

          k = 0.0476 0.0476-0.1428 (   616 PWs)   bands (ev):

     8.9029   8.9167  11.4612  11.4613  11.5287  11.5293  11.9316  11.9537
    12.3205  12.3206  12.8370  12.8623  13.4185  13.4249  13.7063  13.7065
    14.3158  14.3330  14.4872  14.4890  14.7211  14.7211  19.8144  19.8144
    21.4900  21.4900  28.3665  28.3684  28.6306  28.6390  29.0909  29.0944
    35.0504  35.0728  35.4162  35.4632  38.2089  38.2567  42.2445  42.2445
    44.8969  44.9248  45.4270  45.4272  49.4484  49.4841  50.9208  50.9331
    52.2942  52.2943  53.9825  53.9918

          k = 0.0476 0.0952 0.0952 (   617 PWs)   bands (ev):

     8.3532  10.6347  10.6348  11.1471  11.6417  11.7825  11.7830  12.3106
    12.5170  12.5171  12.6420  12.9569  13.1065  13.5599  13.5609  13.5642
    13.9256  14.4873  14.6352  14.6363  14.6543  16.3993  16.3994  18.9337
    21.1878  24.1631  24.1631  28.1454  28.2355  31.2467  31.2468  32.2647
    32.2649  34.1237  35.3195  36.9911  39.3973  39.3975  40.1301  43.2181
    43.7935  44.7938  46.5237  46.5238  49.3256  49.3258  50.4178  50.6550
    50.9720  51.7697  52.4556  52.9247

          k = 0.0476 0.0952-0.1428 (   624 PWs)   bands (ev):

     9.5696   9.5799  10.9962  11.0008  11.9017  11.9040  12.1342  12.1529
    12.4930  12.5016  12.6770  12.6938  13.2337  13.2380  13.4159  13.4189
    14.2404  14.2497  14.5403  14.5478  15.0927  15.0961  17.6298  17.6419
    22.1560  22.1648  25.9058  25.9116  29.5806  29.5883  33.1467  33.1475
    33.3710  33.3780  36.9457  36.9980  40.1719  40.1826  40.5224  40.5327
    45.2455  45.2491  45.7319  45.7589  47.7418  47.7574  50.6796  50.7008
    51.7947  51.8065  54.0601  54.0836

          k = 0.0476-0.1428-0.1428 (   628 PWs)   bands (ev):

    10.3458  10.3521  10.3521  10.3581  12.3016  12.3107  12.3107  12.3197
    12.5208  12.5319  12.5319  12.5430  13.1754  13.1802  13.1802  13.1851
    14.2630  14.2745  14.2745  14.2861  16.0164  16.0231  16.0231  16.0297
    23.7469  23.7532  23.7532  23.7595  31.1013  31.1052  31.1052  31.1093
    38.2887  38.2960  38.2960  38.3194  38.3291  38.3551  38.3551  38.3636
    46.6514  46.6514  46.6518  46.6533  46.8336  46.8548  46.8548  46.8741
    54.9391  54.9535  54.9535  55.1686

          k = 0.0952 0.0952 0.0952 (   627 PWs)   bands (ev):

     9.0185  10.5863  10.5866  10.5866  12.0987  12.0990  12.0990  12.5776
    12.7957  12.7957  12.7966  12.9241  12.9241  13.1975  13.1975  13.1977
    14.3668  14.3668  14.7792  14.7792  14.7794  16.6502  16.6504  16.6504
    21.7906  21.7906  21.7907  25.4205  32.5963  32.5963  32.5964  35.3590
    35.3592  35.3592  37.3416  37.3416  37.3418  37.6661  40.0989  40.0989
    44.5217  44.5217  47.8619  48.0828  48.0828  48.0838  48.2126  48.2128
    48.2128  52.5544  52.5547  52.5547

          k = 0.0952 0.0952-0.1428 (   622 PWs)   bands (ev):

     9.8418   9.8466  10.5461  10.5463  12.2918  12.2920  12.5999  12.6122
    12.8463  12.8618  12.9568  12.9580  13.0000  13.0000  13.0648  13.0648
    14.6797  14.6817  14.7080  14.7085  14.9051  14.9078  16.8391  16.8392
    20.8602  20.8603  23.2976  23.3038  33.4729  33.4729  34.7677  34.7680
    36.2571  36.2805  37.3703  37.3813  39.1165  39.1537  39.4677  39.4678
    44.7492  44.7494  44.9370  44.9560  46.0929  46.0989  48.5800  48.5801
    49.7374  49.7451  53.1844  53.1852

          k = 0.0952-0.1428-0.1428 (   632 PWs)   bands (ev):

    10.1567  10.1582  10.1582  10.1593  12.6370  12.6402  12.6402  12.6433
    12.8703  12.8735  12.8735  12.8769  13.2789  13.2873  13.2873  13.2956
    14.6116  14.6178  14.6178  14.6240  15.5234  15.5308  15.5309  15.5381
    21.5246  21.5297  21.5298  21.5349  35.1740  35.1787  35.1788  35.1836
    38.2319  38.2406  38.2406  38.2497  39.0583  39.0681  39.0681  39.0766
    44.1841  44.1940  44.1940  44.2036  45.2162  45.2190  45.2191  45.2217
    50.5935  50.5972  50.5972  50.6017

          k =-0.1428-0.1428-0.1428 (   624 PWs)   bands (ev):

    10.0722  10.0725  10.0725  10.0726  12.7587  12.7587  12.7587  12.7589
    12.7589  12.7590  12.7591  12.7591  14.2186  14.2187  14.2187  14.2192
    14.7509  14.7509  14.7510  14.7511  14.7511  14.7512  14.7512  14.7512
    20.7382  20.7382  20.7382  20.7383  36.8096  36.8098  36.8098  36.8099
    39.7045  39.7045  39.7045  39.7045  39.7045  39.7050  39.7050  39.7050
    42.9010  42.9010  42.9011  42.9011  42.9011  42.9013  42.9014  42.9014
    48.9744  48.9744  48.9744  48.9746

          k =-0.0476 0.0000 0.0476 (   633 PWs)   bands (ev):

     6.1194  10.3842  10.3843  10.5745  11.1315  11.1419  11.1422  12.6373
    13.0104  13.0149  13.7259  13.7583  13.7679  13.7898  13.9838  14.3821
    14.5085  14.5085  14.7799  14.7799  14.8511  16.7499  16.7499  18.9996
    24.2028  25.2723  26.4815  26.4817  28.4214  28.4216  29.0237  29.0241
    30.7126  36.1627  36.2001  37.1566  37.1567  37.4045  40.2980  40.2984
    41.2416  42.7602  43.5605  45.2364  46.4978  50.0278  50.4442  53.3541
    53.7247  55.3933  55.3939  56.3168

          k =-0.0476-0.0000 0.0952 (   624 PWs)   bands (ev):

     7.1502   9.9875  10.9014  11.0199  11.4155  11.4481  11.4896  12.3243
    12.7022  12.8711  13.0638  13.1087  13.2867  13.6090  14.0318  14.1167
    14.1875  14.2745  14.3038  14.7767  14.7868  15.1771  18.3909  20.8236
    22.3186  24.8823  25.6986  26.7123  27.5740  29.7638  30.0077  30.0770
    31.1635  33.8546  34.5619  37.7795  38.7292  40.3980  40.5729  40.9324
    41.1788  44.1878  45.3087  47.1966  47.7743  48.6405  49.9547  51.3284
    52.9734  53.2365  55.1726  56.6470

          k =-0.0952 0.0000 0.0952 (   618 PWs)   bands (ev):

     8.1010  10.6264  10.6264  11.3840  11.4663  11.7042  11.7049  12.2265
    12.3730  12.3730  12.5465  12.9453  13.4308  13.5050  13.8040  13.9427
    13.9430  14.3077  14.3078  14.4981  14.5751  16.3208  16.3209  19.6448
    22.3675  25.4033  26.9883  26.9884  28.0444  28.0448  31.1668  31.7770
    31.7809  31.8580  33.7076  36.9301  41.5190  41.9239  41.9240  43.1759
    43.3482  43.8765  43.8766  47.3799  47.4332  48.6018  48.6022  51.8107
    52.1306  52.2029  53.5408  55.3258

          k = 0.0476-0.0476 0.0476 (   609 PWs)   bands (ev):

     6.4684  10.5727  10.5728  10.5728  11.2331  11.2336  11.2336  12.5823
    13.0355  13.0355  13.4258  13.4258  13.4258  13.8961  13.8961  14.1887
    14.1890  14.1890  14.8514  14.8514  14.8516  17.4046  17.4047  17.4047
    25.4998  25.4999  25.4999  26.8123  26.8123  26.8125  31.2402  31.2404
    31.2404  33.6012  36.3216  36.3217  36.3218  39.1451  41.2539  41.2539
    42.9621  42.9622  42.9623  46.5636  47.6758  47.6758  51.8950  51.8950
    55.2613  55.2618  55.2618  55.6527

          k = 0.0476-0.0476 0.0952 (   618 PWs)   bands (ev):

     7.4666  10.1864  11.0329  11.0330  11.4752  11.4756  11.5313  12.3346
    12.7034  12.7035  12.8690  13.0680  13.1578  13.8005  13.8338  13.8977
    13.8992  14.1726  14.7390  14.7687  14.7690  15.4603  18.7346  18.7347
    22.9578  22.9578  26.8080  27.4388  27.4389  30.4818  30.4819  30.9088
    31.0855  32.7474  36.7784  37.7328  37.9861  38.8803  38.8803  42.4297
    43.6503  44.5491  47.1342  47.1343  47.9954  49.0997  50.2674  50.2675
    50.7797  53.0224  53.1154  55.8575

          k =-0.0952 0.0476 0.0476 (   618 PWs)   bands (ev):

     7.4666  10.1864  11.0329  11.0330  11.4752  11.4756  11.5313  12.3346
    12.7034  12.7035  12.8690  13.0680  13.1578  13.8005  13.8338  13.8977
    13.8992  14.1726  14.7390  14.7687  14.7690  15.4603  18.7346  18.7347
    22.9578  22.9578  26.8080  27.4388  27.4389  30.4818  30.4819  30.9088
    31.0855  32.7474  36.7784  37.7328  37.9861  38.8803  38.8803  42.4297
    43.6503  44.5491  47.1342  47.1342  47.9954  49.0997  50.2674  50.2675
    50.7797  53.0224  53.1154  55.8575

          k = 0.0476-0.0476-0.1428 (   616 PWs)   bands (ev):

     8.9029   8.9167  11.4612  11.4612  11.5287  11.5293  11.9316  11.9537
    12.3205  12.3206  12.8370  12.8623  13.4185  13.4249  13.7063  13.7065
    14.3158  14.3330  14.4872  14.4890  14.7211  14.7211  19.8144  19.8144
    21.4900  21.4900  28.3666  28.3684  28.6306  28.6391  29.0910  29.0943
    35.0504  35.0728  35.4162  35.4632  38.2089  38.2567  42.2444  42.2445
    44.8969  44.9248  45.4270  45.4272  49.4484  49.4841  50.9208  50.9331
    52.2941  52.2943  53.9825  53.9918

          k = 0.0952-0.0476 0.0952 (   617 PWs)   bands (ev):

     8.3532  10.6347  10.6348  11.1471  11.6417  11.7825  11.7830  12.3106
    12.5170  12.5171  12.6420  12.9569  13.1065  13.5599  13.5609  13.5642
    13.9256  14.4873  14.6352  14.6363  14.6543  16.3993  16.3994  18.9337
    21.1878  24.1631  24.1631  28.1454  28.2355  31.2467  31.2468  32.2647
    32.2649  34.1237  35.3195  36.9911  39.3973  39.3975  40.1301  43.2181
    43.7935  44.7938  46.5237  46.5238  49.3256  49.3258  50.4178  50.6550
    50.9720  51.7697  52.4556  52.9246

          k =-0.0952 0.0476 0.0952 (   617 PWs)   bands (ev):

     8.3532  10.6347  10.6348  11.1471  11.6417  11.7825  11.7830  12.3106
    12.5170  12.5171  12.6420  12.9569  13.1065  13.5600  13.5609  13.5642
    13.9256  14.4873  14.6352  14.6363  14.6543  16.3994  16.3994  18.9337
    21.1878  24.1630  24.1631  28.1454  28.2355  31.2467  31.2468  32.2647
    32.2649  34.1237  35.3195  36.9911  39.3973  39.3975  40.1301  43.2181
    43.7935  44.7938  46.5237  46.5238  49.3256  49.3258  50.4178  50.6550
    50.9720  51.7697  52.4556  52.9249

          k = 0.0952-0.0476-0.1428 (   624 PWs)   bands (ev):

     9.5696   9.5799  10.9962  11.0008  11.9017  11.9040  12.1342  12.1529
    12.4930  12.5016  12.6770  12.6938  13.2337  13.2380  13.4159  13.4189
    14.2404  14.2497  14.5403  14.5478  15.0927  15.0961  17.6298  17.6419
    22.1560  22.1648  25.9058  25.9116  29.5806  29.5883  33.1467  33.1475
    33.3710  33.3780  36.9457  36.9980  40.1719  40.1826  40.5224  40.5327
    45.2455  45.2491  45.7319  45.7589  47.7418  47.7574  50.6796  50.7008
    51.7947  51.8065  54.0601  54.0836

          k = 0.0952-0.0952 0.0952 (   627 PWs)   bands (ev):

     9.0185  10.5863  10.5866  10.5866  12.0987  12.0990  12.0990  12.5776
    12.7957  12.7957  12.7966  12.9241  12.9241  13.1975  13.1975  13.1978
    14.3668  14.3668  14.7792  14.7792  14.7794  16.6503  16.6504  16.6504
    21.7906  21.7906  21.7907  25.4205  32.5962  32.5963  32.5965  35.3590
    35.3592  35.3592  37.3415  37.3416  37.3419  37.6661  40.0989  40.0989
    44.5217  44.5217  47.8619  48.0827  48.0828  48.0839  48.2127  48.2128
    48.2128  52.5544  52.5547  52.5547

          k = 0.0952-0.0952-0.1428 (   622 PWs)   bands (ev):

     9.8418   9.8466  10.5461  10.5463  12.2918  12.2920  12.5999  12.6122
    12.8463  12.8618  12.9568  12.9580  13.0000  13.0000  13.0647  13.0648
    14.6797  14.6817  14.7080  14.7086  14.9051  14.9078  16.8391  16.8391
    20.8602  20.8602  23.2976  23.3038  33.4728  33.4729  34.7677  34.7680
    36.2571  36.2805  37.3703  37.3813  39.1165  39.1537  39.4677  39.4678
    44.7492  44.7494  44.9370  44.9560  46.0929  46.0989  48.5800  48.5801
    49.7374  49.7451  53.1843  53.1852

     the Fermi energy is    14.5236 ev

!    total energy              =    -343.62849904 Ry
     Harris-Foulkes estimate   =    -343.62849888 Ry
     estimated scf accuracy    <          1.0E-09 Ry

     The total energy is the sum of the following terms:

     one-electron contribution =      -6.17332022 Ry
     hartree contribution      =      60.28693536 Ry
     xc contribution           =    -120.52011725 Ry
     ewald contribution        =    -277.17346533 Ry
     Dispersion Correction     =      -0.04794710 Ry
     smearing contrib. (-TS)   =      -0.00058450 Ry

     total magnetization       =     2.83 Bohr mag/cell
     absolute magnetization    =     3.25 Bohr mag/cell

     convergence has been achieved in  11 iterations

     Forces acting on atoms (Ry/au):

     atom    1 type  1   force =    -0.00173669   -0.00173669    0.00173713
     atom    2 type  1   force =     0.00173625    0.00173625    0.00173625
     atom    3 type  1   force =    -0.00173669    0.00173713   -0.00173669
     atom    4 type  1   force =     0.00173713   -0.00173669   -0.00173669

     Total force =     0.006016     Total SCF correction =     0.000014


     entering subroutine stress ...

          total   stress  (Ry/bohr**3)                   (kbar)     P=   -0.66
  -0.00000448  -0.00000000  -0.00000000         -0.66     -0.00     -0.00
  -0.00000000  -0.00000448  -0.00000000         -0.00     -0.66     -0.00
  -0.00000000  -0.00000000  -0.00000448         -0.00     -0.00     -0.66


     number of scf cycles    =   2
     number of bfgs steps    =   1

     enthalpy old            =    -343.6277599585 Ry
     enthalpy new            =    -343.6284990404 Ry

     CASE: enthalpy_new < enthalpy_old

     new trust radius        =       0.0032411203 bohr
     new conv_thr            =       0.0000000002 Ry

     new unit-cell volume =    289.41695 a.u.^3 (    42.88717 Ang^3 )

CELL_PARAMETERS (alat=  1.88972590)
   3.500331469  -0.000000304  -0.000000304
  -0.000000304   3.500331469  -0.000000304
  -0.000000304  -0.000000304   3.500331469

ATOMIC_POSITIONS (alat)
Ni1      1.755729070   1.755729070   0.002206853
Ni1      0.002206448   0.002206448   0.002206448
Ni1      1.755729070   0.002206853   1.755729070
Ni1      0.002206853   1.755729070   1.755729070



     Writing output data file Ni-ferromag.save
     NEW-OLD atomic charge density approx. for the potential

     Check: negative/imaginary core charge=   -0.000005    0.000000
     extrapolated charge   39.96655, renormalised to   40.00000

     total cpu time spent up to now is      455.3 secs

     Self-consistent Calculation

     iteration #  1     ecut=    25.00 Ry     beta=0.20
     Davidson diagonalization with overlap
     ethr =  1.00E-06,  avg # of iterations =  2.8

     total cpu time spent up to now is      475.7 secs

     total energy              =    -343.62829103 Ry
     Harris-Foulkes estimate   =    -343.66359588 Ry
     estimated scf accuracy    <       0.00036005 Ry

     total magnetization       =     2.82 Bohr mag/cell
     absolute magnetization    =     3.24 Bohr mag/cell

     iteration #  2     ecut=    25.00 Ry     beta=0.20
     Davidson diagonalization with overlap
     ethr =  9.00E-07,  avg # of iterations =  2.3

     total cpu time spent up to now is      489.2 secs

     total energy              =    -343.62852009 Ry
     Harris-Foulkes estimate   =    -343.62854753 Ry
     estimated scf accuracy    <       0.00014332 Ry

     total magnetization       =     2.84 Bohr mag/cell
     absolute magnetization    =     3.25 Bohr mag/cell

     iteration #  3     ecut=    25.00 Ry     beta=0.20
     Davidson diagonalization with overlap
     ethr =  3.58E-07,  avg # of iterations =  1.0

     total cpu time spent up to now is      501.5 secs

     total energy              =    -343.62848794 Ry
     Harris-Foulkes estimate   =    -343.62852468 Ry
     estimated scf accuracy    <       0.00004995 Ry

     total magnetization       =     2.84 Bohr mag/cell
     absolute magnetization    =     3.25 Bohr mag/cell

     iteration #  4     ecut=    25.00 Ry     beta=0.20
     Davidson diagonalization with overlap
     ethr =  1.25E-07,  avg # of iterations =  2.0

     total cpu time spent up to now is      515.0 secs

     total energy              =    -343.62851624 Ry
     Harris-Foulkes estimate   =    -343.62853227 Ry
     estimated scf accuracy    <       0.00007995 Ry

     total magnetization       =     2.83 Bohr mag/cell
     absolute magnetization    =     3.24 Bohr mag/cell

     iteration #  5     ecut=    25.00 Ry     beta=0.20
     Davidson diagonalization with overlap
     ethr =  1.25E-07,  avg # of iterations =  1.0

     total cpu time spent up to now is      527.5 secs

     total energy              =    -343.62851409 Ry
     Harris-Foulkes estimate   =    -343.62851888 Ry
     estimated scf accuracy    <       0.00002584 Ry

     total magnetization       =     2.83 Bohr mag/cell
     absolute magnetization    =     3.25 Bohr mag/cell

     iteration #  6     ecut=    25.00 Ry     beta=0.20
     Davidson diagonalization with overlap
     ethr =  6.46E-08,  avg # of iterations =  1.0

     total cpu time spent up to now is      539.9 secs

     total energy              =    -343.62851094 Ry
     Harris-Foulkes estimate   =    -343.62851482 Ry
     estimated scf accuracy    <       0.00000929 Ry

     total magnetization       =     2.83 Bohr mag/cell
     absolute magnetization    =     3.25 Bohr mag/cell

     iteration #  7     ecut=    25.00 Ry     beta=0.20
     Davidson diagonalization with overlap
     ethr =  2.32E-08,  avg # of iterations =  1.0

     total cpu time spent up to now is      552.4 secs

     total energy              =    -343.62851264 Ry
     Harris-Foulkes estimate   =    -343.62851255 Ry
     estimated scf accuracy    <          2.3E-09 Ry

     total magnetization       =     2.83 Bohr mag/cell
     absolute magnetization    =     3.25 Bohr mag/cell

     iteration #  8     ecut=    25.00 Ry     beta=0.20
     Davidson diagonalization with overlap
     ethr =  5.74E-12,  avg # of iterations =  3.0

     total cpu time spent up to now is      569.6 secs

     total energy              =    -343.62851270 Ry
     Harris-Foulkes estimate   =    -343.62851281 Ry
     estimated scf accuracy    <       0.00000098 Ry

     total magnetization       =     2.83 Bohr mag/cell
     absolute magnetization    =     3.25 Bohr mag/cell

     iteration #  9     ecut=    25.00 Ry     beta=0.20
     Davidson diagonalization with overlap
     ethr =  5.74E-12,  avg # of iterations =  2.1

     total cpu time spent up to now is      585.3 secs

     total energy              =    -343.62851281 Ry
     Harris-Foulkes estimate   =    -343.62851271 Ry
     estimated scf accuracy    <       0.00000055 Ry

     total magnetization       =     2.83 Bohr mag/cell
     absolute magnetization    =     3.25 Bohr mag/cell

     iteration # 10     ecut=    25.00 Ry     beta=0.20
     Davidson diagonalization with overlap
     ethr =  5.74E-12,  avg # of iterations =  2.0

     total cpu time spent up to now is      600.6 secs

     total energy              =    -343.62851242 Ry
     Harris-Foulkes estimate   =    -343.62851282 Ry
     estimated scf accuracy    <       0.00000095 Ry

     total magnetization       =     2.83 Bohr mag/cell
     absolute magnetization    =     3.25 Bohr mag/cell

     iteration # 11     ecut=    25.00 Ry     beta=0.20
     Davidson diagonalization with overlap
     ethr =  5.74E-12,  avg # of iterations =  3.0

     Magnetic moment per site:
     atom:    1    charge:    2.9986    magn:    0.3339    constr:    0.0000
     atom:    2    charge:    2.9968    magn:    0.3337    constr:    0.0000
     atom:    3    charge:    2.9986    magn:    0.3339    constr:    0.0000
     atom:    4    charge:    2.9986    magn:    0.3339    constr:    0.0000

     total cpu time spent up to now is      618.0 secs

     End of self-consistent calculation

 ------ SPIN UP ------------


          k = 0.0000 0.0000 0.0000 (   619 PWs)   bands (ev):

     5.4587   9.7471   9.7472   9.7472  10.2020  10.2021  10.2021  11.9872
    11.9872  11.9872  13.1701  13.1701  13.8911  13.8911  13.8911  13.9817
    13.9817  13.9817  13.9818  13.9818  13.9818  17.1178  17.1178  17.1178
    23.8800  23.8801  23.8801  29.6355  29.6355  29.6355  29.6356  29.6356
    29.6356  34.7352  34.7352  34.7352  38.0885  38.0886  38.0886  38.5621
    42.5568  42.5568  42.5568  46.1791  46.1791  46.1791  48.2637  55.2880
    55.2880  55.2880  57.9157  59.6941

          k = 0.0000 0.0000 0.0476 (   635 PWs)   bands (ev):

     5.8256   9.7691   9.9319   9.9319  10.3126  10.3287  10.3288  11.8580
    12.0900  12.0900  13.0518  13.2169  13.3245  13.3246  13.7369  13.7369
    13.8050  13.8050  13.8413  13.9820  13.9820  15.5166  18.0800  18.0800
    23.9755  23.9756  26.1300  27.8841  27.8841  28.5130  28.5130  30.1972
    30.1972  34.8488  36.9065  36.9066  37.9316  38.2186  40.0468  40.0469
    40.3396  40.3396  40.9996  47.5953  48.2269  48.2269  49.2565  51.6686
    56.3908  56.3908  56.7839  56.7840

          k = 0.0000 0.0000 0.0952 (   630 PWs)   bands (ev):

     6.8766   9.5404  10.3700  10.3700  10.6213  10.7130  10.7131  11.5127
    12.2645  12.2647  12.3878  12.3878  12.7629  13.3462  13.3504  13.3542
    13.3542  13.3674  13.3674  13.7067  13.9825  13.9825  20.0477  20.0477
    24.2908  24.2908  25.1071  25.1071  26.7466  26.7466  30.4341  31.7809
    31.7810  35.2110  36.8072  37.1147  37.1147  38.4265  38.7719  40.9527
    40.9527  44.2149  44.2150  44.2542  51.0288  51.1425  51.1426  51.1553
    51.1553  55.1480  56.1561  56.1562

          k =-0.0000-0.0000-0.1428 (   610 PWs)   bands (ev):

     8.3731   8.3827  10.6469  10.6469  11.0507  11.0648  11.3550  11.3551
    11.3691  11.3691  12.5752  12.5950  12.8364  12.8364  12.8470  12.8470
    13.1077  13.1077  13.5213  13.5290  13.9828  13.9828  22.4260  22.4260
    22.4505  22.4505  24.6608  24.6609  25.8040  25.8040  34.1566  34.1566
    34.1738  34.1738  34.9692  35.0055  35.8532  35.8618  40.3411  40.3990
    45.7356  45.7357  45.7862  45.7862  47.7219  47.7220  52.4428  52.4429
    54.2557  54.2557  54.3021  54.3021

          k = 0.0000 0.0476 0.0476 (   633 PWs)   bands (ev):

     6.1838   9.9680   9.9680  10.0956  10.4305  10.4306  10.4444  11.7979
    12.1352  12.1523  12.9768  13.0230  13.0356  13.0400  13.2124  13.6077
    13.7327  13.7327  13.8037  13.8038  13.8656  16.4526  16.4526  18.8521
    23.9673  25.1660  26.3168  26.3168  28.3628  28.3628  29.0071  29.0072
    30.7263  36.1245  36.1983  37.1144  37.1145  37.4157  40.2129  40.2129
    41.3507  42.7058  43.6224  45.3237  46.4720  49.9089  50.5517  53.2321
    53.7844  55.4689  55.4691  56.4110

          k = 0.0000 0.0476 0.0952 (   624 PWs)   bands (ev):

     7.2070   9.7769  10.4515  10.5004  10.7132  10.7665  10.7858  11.5159
    12.0253  12.1651  12.2816  12.3995  12.4249  12.8597  13.2826  13.3591
    13.3709  13.3925  13.5449  13.8003  13.8067  14.4846  18.0710  20.6392
    22.1409  24.6785  25.5696  26.6002  27.4746  29.6801  29.9722  30.0299
    31.0927  33.8033  34.5467  37.7660  38.7206  40.4752  40.6537  40.8456
    41.2091  44.1395  45.1417  47.1654  47.8837  48.6921  50.0047  51.4367
    53.0533  53.3610  54.9962  56.4317

          k =-0.0000 0.0476-0.1428 (   622 PWs)   bands (ev):

     8.6553   8.6643  10.7996  10.8002  11.1026  11.1163  11.2237  11.2352
    11.3698  11.3835  12.2031  12.2177  12.8370  12.8479  13.0697  13.0745
    13.0925  13.0931  13.7093  13.7094  13.7970  13.7991  19.9368  19.9492
    22.9278  22.9498  25.4723  25.4891  28.3794  28.3850  31.5701  31.5774
    32.0934  32.0984  35.8892  35.9307  38.9129  38.9160  42.2964  42.3322
    43.2001  43.2136  46.0139  46.0617  50.1749  50.2174  50.4472  50.4672
    52.7077  52.7237  53.3559  53.3690

          k = 0.0000 0.0952 0.0952 (   618 PWs)   bands (ev):

     8.1349  10.3658  10.3659  10.7328  10.9822  10.9825  10.9952  11.4460
    11.6937  11.6938  11.8485  12.1684  12.5307  12.7732  13.0658  13.2213
    13.2214  13.3628  13.3629  13.5333  13.7492  15.7334  15.7334  19.3567
    22.1692  25.2290  26.8455  26.8455  27.9672  27.9673  31.0616  31.7174
    31.7187  31.8140  33.6822  36.9225  41.6111  41.9722  41.9722  43.1738
    43.4944  43.8667  43.8667  47.2958  47.4383  48.5922  48.5923  51.7877
    52.2819  52.2878  53.3761  55.4578

          k =-0.0000 0.0952-0.1428 (   624 PWs)   bands (ev):

     9.3999   9.4072  10.8336  10.8423  11.2295  11.2388  11.2465  11.2489
    11.3891  11.4018  11.8985  11.9081  12.8740  12.8786  12.8793  12.8850
    12.9457  12.9476  13.3945  13.4010  14.4117  14.4134  17.2625  17.2721
    24.2892  24.3058  26.2900  26.3037  28.7211  28.7289  29.6105  29.6122
    33.0263  33.0300  36.8541  36.8947  40.4477  40.4557  43.1368  43.1446
    43.3081  43.3118  46.8192  46.8581  48.0258  48.0494  50.5223  50.5441
    51.8713  51.9061  53.6632  53.6722

          k =-0.0000-0.1428-0.1428 (   624 PWs)   bands (ev):

    10.2516  10.2580  10.2580  10.2642  11.3452  11.3573  11.3573  11.3694
    11.6634  11.6669  11.6669  11.6704  12.7310  12.7322  12.7322  12.7335
    13.0382  13.0482  13.0482  13.0582  15.4804  15.4850  15.4850  15.4895
    26.2644  26.2759  26.2759  26.2872  27.6421  27.6504  27.6504  27.6589
    37.9702  37.9814  37.9814  37.9928  38.5685  38.5822  38.5822  38.5950
    47.2682  47.2683  47.2683  47.2688  49.2809  49.3029  49.3029  49.3249
    51.9329  51.9349  51.9349  51.9367

          k = 0.0476 0.0476 0.0476 (   609 PWs)   bands (ev):

     6.5301  10.1297  10.1298  10.1298  10.5454  10.5455  10.5455  11.7629
    12.1721  12.1721  12.7305  12.7305  12.7305  13.1255  13.1255  13.3736
    13.3737  13.3737  13.9198  13.9198  13.9198  17.0815  17.0815  17.0815
    25.3909  25.3909  25.3909  26.6636  26.6636  26.6637  31.2435  31.2436
    31.2436  33.5613  36.2556  36.2556  36.2556  39.3259  41.2330  41.2330
    42.9112  42.9113  42.9113  46.6820  47.7513  47.7513  51.7702  51.7702
    55.3436  55.3438  55.3438  55.3473

          k = 0.0476 0.0476 0.0952 (   618 PWs)   bands (ev):

     7.5130   9.9360  10.5140  10.5141  10.8319  10.8600  10.8601  11.5526
    12.0156  12.0156  12.2109  12.2524  12.3121  12.9699  13.0404  13.1266
    13.1270  13.3661  13.8221  13.8221  13.8545  14.8469  18.4266  18.4266
    22.7693  22.7693  26.6876  27.3142  27.3142  30.4325  30.4325  30.8205
    31.0234  32.7272  36.7328  37.8528  37.9389  38.8792  38.8792  42.4536
    43.6034  44.5638  47.1250  47.1250  47.9890  49.1871  50.3129  50.3129
    50.8081  53.1282  53.1907  55.7863

          k = 0.0476 0.0476-0.1428 (   616 PWs)   bands (ev):

     8.8832   8.8911  10.9027  10.9030  10.9603  10.9604  11.1988  11.2116
    11.6204  11.6204  12.1072  12.1215  12.5838  12.5886  12.9582  12.9583
    13.5307  13.5408  13.6421  13.6443  13.7659  13.7659  19.5762  19.5762
    21.2077  21.2077  28.2764  28.2772  28.5155  28.5208  29.0023  29.0036
    35.0130  35.0273  35.4778  35.5065  38.1709  38.2008  42.2933  42.2933
    44.8502  44.8664  45.4707  45.4708  49.5673  49.5897  51.0033  51.0109
    52.2988  52.2988  53.8450  53.8471

          k = 0.0476 0.0952 0.0952 (   617 PWs)   bands (ev):

     8.3529  10.2545  10.2546  10.5415  11.1479  11.1943  11.1944  11.5978
    11.8110  11.8111  11.9445  12.1705  12.2969  12.7768  12.7769  12.7934
    13.0977  13.6545  13.7239  13.7395  13.7400  15.8638  15.8638  18.6774
    20.8656  23.9687  23.9687  28.0136  28.1270  31.2078  31.2078  32.1994
    32.1995  34.0963  35.3212  36.9939  39.4119  39.4120  40.2336  43.1385
    43.8335  44.8793  46.5630  46.5630  49.3068  49.3069  50.5204  50.7060
    51.0311  51.7357  52.4270  53.0322

          k = 0.0476 0.0952-0.1428 (   624 PWs)   bands (ev):

     9.4350   9.4400  10.4757  10.4772  11.3619  11.3624  11.5063  11.5166
    11.8153  11.8197  11.9344  11.9439  12.4449  12.4484  12.6570  12.6593
    13.3938  13.3978  13.6224  13.6265  14.3175  14.3191  17.2391  17.2470
    21.8790  21.8852  25.7302  25.7346  29.5068  29.5107  33.1160  33.1176
    33.3307  33.3342  36.9702  37.0034  40.2185  40.2258  40.5321  40.5381
    45.2912  45.2939  45.7784  45.7945  47.7981  47.8068  50.6821  50.6954
    51.8920  51.8997  54.0252  54.0384

          k = 0.0476-0.1428-0.1428 (   628 PWs)   bands (ev):

    10.0056  10.0077  10.0077  10.0096  11.7516  11.7549  11.7549  11.7581
    11.8353  11.8424  11.8424  11.8496  12.4145  12.4179  12.4179  12.4214
    13.3722  13.3785  13.3785  13.3848  15.3900  15.3950  15.3950  15.4000
    23.5135  23.5182  23.5182  23.5229  31.0465  31.0480  31.0480  31.0497
    38.2521  38.2612  38.2612  38.2719  38.4112  38.4239  38.4239  38.4344
    46.7520  46.7521  46.7521  46.7536  46.8504  46.8630  46.8630  46.8743
    54.9218  54.9309  54.9309  54.9415

          k = 0.0952 0.0952 0.0952 (   627 PWs)   bands (ev):

     8.8972  10.0891  10.0893  10.0893  11.5538  11.5540  11.5540  12.0692
    12.1289  12.1289  12.1315  12.1392  12.1392  12.4214  12.4214  12.4215
    13.5020  13.5020  13.8683  13.8683  13.8683  16.2410  16.2411  16.2411
    21.4740  21.4740  21.4740  25.2187  32.5757  32.5757  32.5758  35.3257
    35.3258  35.3258  37.3570  37.3570  37.3571  37.8609  40.0441  40.0441
    44.5450  44.5450  47.8822  48.1674  48.1674  48.1678  48.2457  48.2457
    48.2457  52.5619  52.5621  52.5621

          k = 0.0952 0.0952-0.1428 (   622 PWs)   bands (ev):

     9.5233   9.5246  10.0204  10.0205  11.6744  11.6745  11.9583  11.9662
    12.1795  12.1806  12.2994  12.3008  12.3108  12.3188  12.4147  12.4149
    13.7880  13.7888  13.7963  13.7966  14.2067  14.2071  16.5242  16.5242
    20.4453  20.4454  23.0316  23.0361  33.4904  33.4904  34.7102  34.7104
    36.3951  36.4090  37.3291  37.3365  39.0738  39.0974  39.5214  39.5214
    44.7559  44.7560  44.9953  45.0071  46.1193  46.1225  48.6539  48.6539
    49.7226  49.7274  53.1149  53.1153

          k = 0.0952-0.1428-0.1428 (   632 PWs)   bands (ev):

     9.6994   9.6995   9.6995   9.6995  11.9196  11.9217  11.9217  11.9236
    12.1100  12.1122  12.1122  12.1144  12.8581  12.8626  12.8626  12.8671
    13.7127  13.7161  13.7161  13.7196  15.0095  15.0152  15.0152  15.0209
    21.1554  21.1592  21.1592  21.1630  35.2289  35.2308  35.2308  35.2328
    38.2928  38.2989  38.2989  38.3051  39.0228  39.0291  39.0291  39.0349
    44.1893  44.1948  44.1948  44.2003  45.2575  45.2590  45.2590  45.2603
    50.5415  50.5439  50.5439  50.5466

          k =-0.1428-0.1428-0.1428 (   624 PWs)   bands (ev):

     9.5829   9.5831   9.5831   9.5831  12.0002  12.0002  12.0002  12.0003
    12.0003  12.0004  12.0004  12.0004  13.8440  13.8440  13.8440  13.8442
    13.8442  13.8442  13.8442  13.8442  14.3330  14.3332  14.3332  14.3332
    20.2783  20.2783  20.2783  20.2783  37.0168  37.0170  37.0170  37.0170
    39.6652  39.6652  39.6652  39.6653  39.6653  39.6654  39.6654  39.6655
    42.9030  42.9030  42.9031  42.9031  42.9031  42.9031  42.9032  42.9032
    48.8969  48.8969  48.8969  48.8970

          k =-0.0476 0.0000 0.0476 (   633 PWs)   bands (ev):

     6.1837   9.9680   9.9680  10.0956  10.4305  10.4306  10.4444  11.7979
    12.1352  12.1523  12.9768  13.0230  13.0356  13.0400  13.2124  13.6077
    13.7327  13.7327  13.8037  13.8038  13.8656  16.4526  16.4526  18.8521
    23.9673  25.1660  26.3168  26.3169  28.3628  28.3629  29.0071  29.0073
    30.7263  36.1245  36.1983  37.1144  37.1145  37.4156  40.2128  40.2130
    41.3507  42.7058  43.6224  45.3237  46.4720  49.9089  50.5517  53.2321
    53.7844  55.4689  55.4691  56.4110

          k =-0.0476 0.0000 0.0952 (   624 PWs)   bands (ev):

     7.2070   9.7769  10.4515  10.5004  10.7132  10.7665  10.7858  11.5159
    12.0253  12.1651  12.2816  12.3995  12.4249  12.8597  13.2826  13.3591
    13.3709  13.3925  13.5449  13.8003  13.8067  14.4846  18.0710  20.6392
    22.1409  24.6785  25.5696  26.6002  27.4746  29.6801  29.9722  30.0299
    31.0927  33.8033  34.5467  37.7660  38.7206  40.4752  40.6537  40.8456
    41.2091  44.1395  45.1417  47.1654  47.8837  48.6921  50.0046  51.4367
    53.0533  53.3610  54.9962  56.4317

          k =-0.0952 0.0000 0.0952 (   618 PWs)   bands (ev):

     8.1349  10.3658  10.3658  10.7328  10.9822  10.9825  10.9952  11.4460
    11.6937  11.6937  11.8485  12.1684  12.5307  12.7732  13.0658  13.2213
    13.2214  13.3628  13.3629  13.5333  13.7492  15.7334  15.7334  19.3567
    22.1692  25.2290  26.8455  26.8455  27.9672  27.9673  31.0616  31.7174
    31.7187  31.8140  33.6822  36.9225  41.6111  41.9722  41.9722  43.1738
    43.4944  43.8667  43.8667  47.2958  47.4384  48.5922  48.5923  51.7877
    52.2819  52.2878  53.3761  55.4602

          k = 0.0476-0.0476 0.0476 (   609 PWs)   bands (ev):

     6.5301  10.1297  10.1297  10.1298  10.5454  10.5455  10.5455  11.7629
    12.1721  12.1721  12.7305  12.7305  12.7305  13.1255  13.1255  13.3736
    13.3737  13.3737  13.9198  13.9198  13.9198  17.0815  17.0815  17.0815
    25.3909  25.3909  25.3909  26.6636  26.6636  26.6637  31.2436  31.2436
    31.2436  33.5613  36.2555  36.2556  36.2557  39.3259  41.2330  41.2330
    42.9112  42.9112  42.9113  46.6820  47.7513  47.7513  51.7702  51.7702
    55.3436  55.3438  55.3438  55.3473

          k = 0.0476-0.0476 0.0952 (   618 PWs)   bands (ev):

     7.5130   9.9360  10.5140  10.5141  10.8319  10.8600  10.8601  11.5526
    12.0156  12.0156  12.2109  12.2524  12.3121  12.9699  13.0404  13.1266
    13.1270  13.3661  13.8221  13.8221  13.8545  14.8469  18.4266  18.4266
    22.7693  22.7693  26.6876  27.3142  27.3142  30.4325  30.4325  30.8205
    31.0234  32.7272  36.7328  37.8528  37.9389  38.8792  38.8792  42.4536
    43.6034  44.5638  47.1250  47.1250  47.9890  49.1871  50.3129  50.3129
    50.8081  53.1282  53.1907  55.7863

          k =-0.0952 0.0476 0.0476 (   618 PWs)   bands (ev):

     7.5130   9.9360  10.5140  10.5141  10.8319  10.8600  10.8601  11.5526
    12.0156  12.0156  12.2109  12.2524  12.3121  12.9699  13.0404  13.1266
    13.1270  13.3661  13.8221  13.8221  13.8545  14.8469  18.4266  18.4266
    22.7693  22.7693  26.6876  27.3141  27.3142  30.4325  30.4325  30.8205
    31.0234  32.7272  36.7328  37.8528  37.9389  38.8792  38.8792  42.4536
    43.6034  44.5638  47.1250  47.1250  47.9890  49.1871  50.3129  50.3129
    50.8081  53.1282  53.1907  55.7863

          k = 0.0476-0.0476-0.1428 (   616 PWs)   bands (ev):

     8.8832   8.8911  10.9027  10.9030  10.9603  10.9604  11.1988  11.2116
    11.6203  11.6204  12.1072  12.1215  12.5838  12.5886  12.9582  12.9583
    13.5307  13.5408  13.6421  13.6443  13.7659  13.7659  19.5762  19.5762
    21.2077  21.2077  28.2764  28.2771  28.5155  28.5208  29.0023  29.0035
    35.0130  35.0273  35.4778  35.5065  38.1709  38.2008  42.2933  42.2934
    44.8502  44.8664  45.4707  45.4708  49.5673  49.5897  51.0033  51.0110
    52.2987  52.2988  53.8450  53.8470

          k = 0.0952-0.0476 0.0952 (   617 PWs)   bands (ev):

     8.3529  10.2545  10.2546  10.5415  11.1479  11.1943  11.1944  11.5978
    11.8110  11.8111  11.9445  12.1705  12.2969  12.7768  12.7769  12.7934
    13.0977  13.6545  13.7239  13.7395  13.7400  15.8638  15.8638  18.6774
    20.8656  23.9687  23.9687  28.0136  28.1270  31.2078  31.2078  32.1994
    32.1995  34.0963  35.3212  36.9939  39.4119  39.4120  40.2336  43.1385
    43.8335  44.8793  46.5630  46.5630  49.3068  49.3069  50.5204  50.7060
    51.0312  51.7357  52.4270  53.0323

          k =-0.0952 0.0476 0.0952 (   617 PWs)   bands (ev):

     8.3529  10.2545  10.2546  10.5415  11.1479  11.1944  11.1944  11.5978
    11.8110  11.8111  11.9445  12.1705  12.2969  12.7768  12.7769  12.7934
    13.0977  13.6545  13.7239  13.7395  13.7400  15.8638  15.8638  18.6774
    20.8656  23.9687  23.9687  28.0136  28.1270  31.2078  31.2079  32.1994
    32.1995  34.0963  35.3212  36.9939  39.4119  39.4120  40.2337  43.1385
    43.8335  44.8793  46.5630  46.5630  49.3068  49.3069  50.5204  50.7060
    51.0312  51.7357  52.4270  53.0322

          k = 0.0952-0.0476-0.1428 (   624 PWs)   bands (ev):

     9.4350   9.4400  10.4757  10.4772  11.3619  11.3624  11.5063  11.5166
    11.8153  11.8197  11.9344  11.9439  12.4449  12.4484  12.6570  12.6593
    13.3938  13.3978  13.6224  13.6265  14.3175  14.3191  17.2391  17.2470
    21.8791  21.8852  25.7302  25.7346  29.5068  29.5107  33.1160  33.1176
    33.3307  33.3342  36.9702  37.0034  40.2185  40.2258  40.5321  40.5381
    45.2912  45.2939  45.7784  45.7945  47.7981  47.8068  50.6821  50.6954
    51.8920  51.8997  54.0252  54.0384

          k = 0.0952-0.0952 0.0952 (   627 PWs)   bands (ev):

     8.8972  10.0891  10.0893  10.0893  11.5539  11.5540  11.5540  12.0692
    12.1289  12.1289  12.1315  12.1392  12.1392  12.4214  12.4214  12.4215
    13.5020  13.5020  13.8683  13.8683  13.8683  16.2411  16.2411  16.2411
    21.4740  21.4740  21.4740  25.2187  32.5757  32.5757  32.5758  35.3258
    35.3258  35.3258  37.3570  37.3570  37.3571  37.8609  40.0441  40.0441
    44.5450  44.5450  47.8822  48.1674  48.1674  48.1678  48.2457  48.2457
    48.2457  52.5619  52.5620  52.5621

          k = 0.0952-0.0952-0.1428 (   622 PWs)   bands (ev):

     9.5233   9.5246  10.0204  10.0205  11.6744  11.6745  11.9583  11.9662
    12.1795  12.1806  12.2994  12.3008  12.3108  12.3188  12.4147  12.4149
    13.7880  13.7888  13.7963  13.7966  14.2067  14.2071  16.5242  16.5242
    20.4453  20.4453  23.0316  23.0361  33.4903  33.4904  34.7102  34.7103
    36.3951  36.4090  37.3291  37.3365  39.0738  39.0974  39.5214  39.5215
    44.7559  44.7560  44.9953  45.0071  46.1194  46.1225  48.6539  48.6539
    49.7226  49.7274  53.1149  53.1153

 ------ SPIN DOWN ----------


          k = 0.0000 0.0000 0.0000 (   619 PWs)   bands (ev):

     5.4043  10.2084  10.2084  10.2084  10.9193  10.9195  10.9195  12.8668
    12.8668  12.8668  13.9494  13.9494  14.7045  14.7045  14.7045  14.9905
    14.9905  14.9905  14.9905  14.9905  14.9905  17.0391  17.0392  17.0392
    24.1855  24.1855  24.1855  29.6218  29.6219  29.6219  29.6220  29.6220
    29.6220  34.8988  34.8988  34.8989  38.2326  38.2328  38.2328  38.3561
    42.5267  42.5267  42.5267  46.2515  46.2515  46.2515  48.1043  55.4775
    55.4775  55.4775  58.4672  59.6144

          k = 0.0000 0.0000 0.0476 (   635 PWs)   bands (ev):

     5.7711  10.1840  10.4032  10.4032  11.0388  11.0435  11.0436  12.7243
    12.9737  12.9737  13.8215  13.9983  14.1434  14.1435  14.5367  14.5368
    14.6523  14.7970  14.7970  14.9908  14.9908  15.5866  18.1873  18.1874
    24.2659  24.2659  26.3319  27.9526  27.9527  28.5403  28.5404  30.1999
    30.1999  35.0000  36.9871  36.9872  37.7922  38.3604  40.1677  40.1678
    40.3812  40.3812  40.9292  47.6160  48.2004  48.2004  49.3268  51.6609
    56.6023  56.6024  56.7106  56.7107

          k = 0.0000 0.0000 0.0952 (   630 PWs)   bands (ev):

     6.8264   9.7483  10.8656  10.8657  11.3729  11.4223  11.4225  12.3447
    12.9929  12.9930  13.2847  13.2847  13.4994  13.7207  14.1231  14.1231
    14.1336  14.3206  14.3206  14.5111  14.9913  14.9913  20.2332  20.2332
    24.5369  24.5369  25.2479  25.2479  26.8450  26.8450  30.5295  31.8179
    31.8179  35.3245  36.7718  37.1859  37.1859  38.3359  38.9186  40.9577
    40.9578  44.3148  44.3149  44.4729  50.9845  51.0474  51.0474  51.0812
    51.0812  55.0412  56.3944  56.3944

          k =-0.0000-0.0000-0.1428 (   610 PWs)   bands (ev):

     8.3666   8.3765  11.1581  11.1582  11.8397  11.8548  12.0632  12.0633
    12.0776  12.0777  13.2214  13.2431  13.7568  13.7568  13.7679  13.7679
    13.8537  13.8537  14.3169  14.3250  14.9916  14.9916  22.6075  22.6076
    22.6325  22.6326  24.8575  24.8575  25.9615  25.9616  34.2216  34.2216
    34.2387  34.2387  34.9484  34.9857  35.9032  35.9135  40.5335  40.5923
    45.6900  45.6901  45.7418  45.7418  47.7961  47.7962  52.6337  52.6337
    54.1451  54.1451  54.1915  54.1915

          k = 0.0000 0.0476 0.0476 (   633 PWs)   bands (ev):

     6.1302  10.3954  10.3954  10.5856  11.1432  11.1536  11.1537  12.6505
    13.0242  13.0287  13.7406  13.7778  13.7826  13.8000  13.9988  14.3976
    14.5242  14.5242  14.7958  14.7959  14.8670  16.7674  16.7674  19.0182
    24.2256  25.2960  26.5055  26.5055  28.4457  28.4457  29.0483  29.0484
    30.7374  36.1890  36.2284  37.1847  37.1848  37.4327  40.3314  40.3314
    41.2698  42.7936  43.5908  45.2674  46.5325  50.0673  50.4770  53.3946
    53.7592  55.4284  55.4286  56.3515

          k = 0.0000 0.0476 0.0952 (   624 PWs)   bands (ev):

     7.1615   9.9992  10.9130  11.0315  11.4276  11.4602  11.5018  12.3370
    12.7157  12.8850  13.0792  13.1211  13.3009  13.6234  14.0469  14.1324
    14.2029  14.2896  14.3189  14.7929  14.8024  15.1934  18.4098  20.8436
    22.3395  24.9065  25.7213  26.7350  27.6000  29.7885  30.0340  30.1003
    31.1901  33.8810  34.5889  37.8076  38.7584  40.4261  40.6012  40.9661
    41.2083  44.2220  45.3464  47.2320  47.8058  48.6743  49.9884  51.3616
    53.0078  53.2701  55.2114  56.6808

          k =-0.0000 0.0476-0.1428 (   622 PWs)   bands (ev):

     8.6608   8.6702  11.3016  11.3028  11.8825  11.8966  11.9018  11.9132
    12.0808  12.0948  12.9421  12.9589  13.7600  13.7713  13.8378  13.8402
    13.8435  13.8454  14.5469  14.5474  14.7903  14.7927  20.2183  20.2309
    23.1210  23.1431  25.6432  25.6614  28.4960  28.5026  31.6844  31.6909
    32.1515  32.1558  35.9142  35.9557  38.9141  38.9164  42.4492  42.4861
    43.1923  43.2072  45.9648  46.0137  50.2403  50.2821  50.3790  50.3993
    52.6236  52.6402  53.5248  53.5378

          k = 0.0000 0.0952 0.0952 (   618 PWs)   bands (ev):

     8.1128  10.6386  10.6386  11.3962  11.4785  11.7170  11.7173  12.2390
    12.3861  12.3861  12.5598  12.9588  13.4453  13.5194  13.8186  13.9580
    13.9581  14.3229  14.3230  14.5134  14.5908  16.3384  16.3385  19.6645
    22.3886  25.4275  27.0123  27.0123  28.0684  28.0685  31.1923  31.8058
    31.8075  31.8816  33.7347  36.9582  41.5476  41.9535  41.9536  43.2078
    43.3765  43.9092  43.9093  47.4172  47.4673  48.6370  48.6372  51.8474
    52.1641  52.2367  53.5782  55.3622

          k =-0.0000 0.0952-0.1428 (   624 PWs)   bands (ev):

     9.4608   9.4689  11.2525  11.2611  11.8829  11.8837  11.9929  12.0064
    12.1086  12.1219  12.6340  12.6447  13.6125  13.6127  13.6853  13.6870
    13.8078  13.8194  14.3621  14.3691  15.2169  15.2191  17.7267  17.7362
    24.4946  24.5109  26.4413  26.4562  28.8837  28.8907  29.7002  29.7026
    33.0976  33.1022  36.8816  36.9223  40.4470  40.4541  43.0822  43.0894
    43.3267  43.3299  46.7563  46.7960  48.1074  48.1321  50.4690  50.4913
    51.9921  52.0269  53.5779  53.5864

          k =-0.0000-0.1428-0.1428 (   624 PWs)   bands (ev):

    10.4699  10.4770  10.4770  10.4841  12.0814  12.0944  12.0944  12.1072
    12.3314  12.3354  12.3354  12.3394  13.4678  13.4691  13.4691  13.4706
    13.9860  13.9966  13.9966  14.0071  16.1626  16.1665  16.1665  16.1703
    26.4601  26.4708  26.4709  26.4815  27.7648  27.7740  27.7741  27.7835
    38.0447  38.0555  38.0555  38.0667  38.5354  38.5483  38.5484  38.5602
    47.1471  47.1477  47.1478  47.1489  49.2691  49.2917  49.2917  49.3142
    52.0326  52.0356  52.0356  52.0385

          k = 0.0476 0.0476 0.0476 (   609 PWs)   bands (ev):

     6.4794  10.5841  10.5841  10.5841  11.2452  11.2453  11.2453  12.5955
    13.0495  13.0495  13.4401  13.4401  13.4401  13.9111  13.9111  14.2040
    14.2041  14.2041  14.8674  14.8674  14.8675  17.4227  17.4228  17.4228
    25.5224  25.5225  25.5225  26.8369  26.8369  26.8370  31.2655  31.2656
    31.2656  33.6275  36.3502  36.3502  36.3503  39.1701  41.2851  41.2851
    42.9956  42.9957  42.9957  46.5947  47.7079  47.7079  51.9365  51.9365
    55.2967  55.2970  55.2970  55.6845

          k = 0.0476 0.0476 0.0952 (   618 PWs)   bands (ev):

     7.4781  10.1983  11.0447  11.0447  11.4875  11.4877  11.5435  12.3474
    12.7170  12.7171  12.8831  13.0815  13.1717  13.8154  13.8494  13.9127
    13.9133  14.1877  14.7550  14.7847  14.7848  15.4769  18.7537  18.7537
    22.9796  22.9797  26.8318  27.4632  27.4632  30.5074  30.5075  30.9344
    31.1107  32.7738  36.8071  37.7581  38.0159  38.9093  38.9094  42.4604
    43.6840  44.5815  47.1690  47.1690  48.0307  49.1322  50.3015  50.3015
    50.8149  53.0563  53.1504  55.9008

          k = 0.0476 0.0476-0.1428 (   616 PWs)   bands (ev):

     8.9175   8.9261  11.4734  11.4734  11.5413  11.5416  11.9482  11.9622
    12.3334  12.3335  12.8553  12.8712  13.4341  13.4381  13.7211  13.7212
    14.3344  14.3452  14.5032  14.5043  14.7369  14.7369  19.8337  19.8338
    21.5117  21.5117  28.3912  28.3920  28.6576  28.6622  29.1172  29.1185
    35.0825  35.0965  35.4502  35.4798  38.2478  38.2779  42.2745  42.2746
    44.9367  44.9543  45.4592  45.4593  49.4876  49.5102  50.9569  50.9647
    52.3318  52.3319  54.0234  54.0272

          k = 0.0476 0.0952 0.0952 (   617 PWs)   bands (ev):

     8.3650  10.6468  10.6469  11.1591  11.6541  11.7953  11.7954  12.3236
    12.5303  12.5303  12.6555  12.9704  13.1203  13.5751  13.5755  13.5782
    13.9403  14.5028  14.6516  14.6521  14.6693  16.4169  16.4170  18.9525
    21.2095  24.1858  24.1858  28.1744  28.2557  31.2715  31.2715  32.2920
    32.2921  34.1510  35.3463  37.0190  39.4265  39.4266  40.1576  43.2520
    43.8248  44.8245  46.5567  46.5568  49.3616  49.3617  50.4515  50.6892
    51.0071  51.8079  52.4919  52.9590

          k = 0.0476 0.0952-0.1428 (   624 PWs)   bands (ev):

     9.5837   9.5902  11.0093  11.0122  11.9148  11.9162  12.1506  12.1624
    12.5078  12.5132  12.6934  12.7040  13.2487  13.2514  13.4309  13.4328
    14.2574  14.2632  14.5573  14.5620  15.1097  15.1118  17.6504  17.6580
    22.1797  22.1852  25.9306  25.9343  29.6068  29.6116  33.1731  33.1735
    33.3993  33.4037  36.9832  37.0161  40.2029  40.2096  40.5545  40.5609
    45.2782  45.2805  45.7693  45.7863  47.7781  47.7880  50.7199  50.7332
    51.8312  51.8386  54.1069  54.1213

          k = 0.0476-0.1428-0.1428 (   628 PWs)   bands (ev):

    10.3602  10.3642  10.3642  10.3680  12.3182  12.3240  12.3240  12.3296
    12.5380  12.5450  12.5450  12.5520  13.1912  13.1943  13.1943  13.1974
    14.2825  14.2897  14.2898  14.2971  16.0362  16.0404  16.0404  16.0446
    23.7721  23.7760  23.7760  23.7799  31.1281  31.1306  31.1306  31.1332
    38.3247  38.3305  38.3305  38.3439  38.3628  38.3776  38.3777  38.3845
    46.6835  46.6835  46.6836  46.6845  46.8749  46.8881  46.8881  46.9004
    54.9850  54.9946  54.9947  55.2060

          k = 0.0952 0.0952 0.0952 (   627 PWs)   bands (ev):

     9.0304  10.5982  10.5984  10.5984  12.1117  12.1118  12.1118  12.5912
    12.8096  12.8096  12.8099  12.9375  12.9375  13.2116  13.2116  13.2117
    14.3822  14.3822  14.7952  14.7952  14.7953  16.6677  16.6678  16.6678
    21.8127  21.8127  21.8128  25.4441  32.6219  32.6219  32.6219  35.3872
    35.3873  35.3873  37.3697  37.3697  37.3698  37.6897  40.1302  40.1302
    44.5538  44.5538  47.8968  48.1157  48.1157  48.1161  48.2467  48.2468
    48.2468  52.5926  52.5928  52.5928

          k = 0.0952 0.0952-0.1428 (   622 PWs)   bands (ev):

     9.8545   9.8575  10.5578  10.5579  12.3049  12.3050  12.6157  12.6235
    12.8629  12.8727  12.9709  12.9716  13.0136  13.0137  13.0787  13.0787
    14.6960  14.6973  14.7240  14.7242  14.9215  14.9233  16.8564  16.8564
    20.8822  20.8823  23.3215  23.3254  33.4978  33.4979  34.7964  34.7965
    36.2855  36.3003  37.4018  37.4087  39.1543  39.1777  39.4961  39.4962
    44.7821  44.7822  44.9723  44.9842  46.1270  46.1309  48.6134  48.6134
    49.7752  49.7799  53.2226  53.2230

          k = 0.0952-0.1428-0.1428 (   632 PWs)   bands (ev):

    10.1688  10.1696  10.1696  10.1704  12.6516  12.6536  12.6536  12.6555
    12.8851  12.8872  12.8872  12.8893  13.2962  13.3014  13.3014  13.3067
    14.6296  14.6335  14.6335  14.6374  15.5427  15.5473  15.5473  15.5519
    21.5487  21.5520  21.5520  21.5552  35.2012  35.2041  35.2042  35.2073
    38.2630  38.2685  38.2685  38.2742  39.0924  39.0983  39.0984  39.1038
    44.2203  44.2265  44.2265  44.2326  45.2496  45.2513  45.2514  45.2531
    50.6320  50.6345  50.6345  50.6372

          k =-0.1428-0.1428-0.1428 (   624 PWs)   bands (ev):

    10.0837  10.0838  10.0838  10.0838  12.7723  12.7723  12.7724  12.7724
    12.7724  12.7725  12.7725  12.7725  14.2336  14.2336  14.2336  14.2338
    14.7668  14.7668  14.7669  14.7669  14.7669  14.7670  14.7670  14.7670
    20.7604  20.7604  20.7604  20.7604  36.8325  36.8328  36.8328  36.8328
    39.7355  39.7355  39.7355  39.7356  39.7356  39.7357  39.7357  39.7358
    42.9329  42.9329  42.9329  42.9330  42.9330  42.9331  42.9331  42.9331
    49.0117  49.0117  49.0117  49.0118

          k =-0.0476 0.0000 0.0476 (   633 PWs)   bands (ev):

     6.1302  10.3954  10.3954  10.5856  11.1432  11.1536  11.1537  12.6505
    13.0242  13.0287  13.7406  13.7778  13.7826  13.8000  13.9988  14.3976
    14.5242  14.5242  14.7958  14.7959  14.8670  16.7674  16.7674  19.0182
    24.2256  25.2960  26.5055  26.5056  28.4457  28.4457  29.0483  29.0485
    30.7374  36.1890  36.2285  37.1847  37.1848  37.4327  40.3313  40.3315
    41.2698  42.7936  43.5908  45.2674  46.5325  50.0673  50.4770  53.3946
    53.7592  55.4284  55.4286  56.3515

          k =-0.0476 0.0000 0.0952 (   624 PWs)   bands (ev):

     7.1615   9.9992  10.9130  11.0315  11.4276  11.4602  11.5018  12.3370
    12.7157  12.8850  13.0792  13.1211  13.3009  13.6234  14.0469  14.1324
    14.2029  14.2896  14.3189  14.7929  14.8024  15.1934  18.4098  20.8436
    22.3395  24.9065  25.7213  26.7350  27.6000  29.7885  30.0340  30.1003
    31.1901  33.8810  34.5889  37.8076  38.7584  40.4261  40.6012  40.9661
    41.2083  44.2220  45.3465  47.2320  47.8058  48.6744  49.9884  51.3616
    53.0078  53.2701  55.2114  56.6808

          k =-0.0952 0.0000 0.0952 (   618 PWs)   bands (ev):

     8.1128  10.6386  10.6386  11.3962  11.4785  11.7170  11.7173  12.2390
    12.3861  12.3861  12.5598  12.9588  13.4453  13.5194  13.8186  13.9579
    13.9581  14.3229  14.3230  14.5134  14.5908  16.3384  16.3385  19.6645
    22.3886  25.4275  27.0123  27.0123  28.0684  28.0686  31.1923  31.8058
    31.8074  31.8816  33.7347  36.9582  41.5476  41.9536  41.9536  43.2078
    43.3765  43.9092  43.9093  47.4172  47.4673  48.6370  48.6372  51.8474
    52.1641  52.2367  53.5782  55.3615

          k = 0.0476-0.0476 0.0476 (   609 PWs)   bands (ev):

     6.4794  10.5841  10.5841  10.5841  11.2452  11.2453  11.2453  12.5955
    13.0495  13.0495  13.4401  13.4401  13.4401  13.9111  13.9111  14.2040
    14.2041  14.2041  14.8674  14.8674  14.8675  17.4227  17.4228  17.4228
    25.5224  25.5225  25.5225  26.8369  26.8369  26.8370  31.2655  31.2656
    31.2656  33.6275  36.3502  36.3502  36.3503  39.1701  41.2851  41.2851
    42.9956  42.9957  42.9957  46.5947  47.7079  47.7079  51.9365  51.9365
    55.2967  55.2969  55.2970  55.6845

          k = 0.0476-0.0476 0.0952 (   618 PWs)   bands (ev):

     7.4781  10.1983  11.0447  11.0447  11.4875  11.4877  11.5435  12.3474
    12.7171  12.7171  12.8831  13.0815  13.1717  13.8154  13.8494  13.9127
    13.9133  14.1877  14.7550  14.7847  14.7848  15.4769  18.7537  18.7537
    22.9796  22.9796  26.8318  27.4632  27.4632  30.5074  30.5075  30.9344
    31.1107  32.7738  36.8071  37.7581  38.0160  38.9093  38.9094  42.4604
    43.6840  44.5815  47.1690  47.1691  48.0307  49.1322  50.3014  50.3015
    50.8149  53.0563  53.1504  55.9008

          k =-0.0952 0.0476 0.0476 (   618 PWs)   bands (ev):

     7.4781  10.1983  11.0447  11.0447  11.4875  11.4877  11.5435  12.3474
    12.7171  12.7171  12.8831  13.0815  13.1717  13.8154  13.8494  13.9127
    13.9133  14.1877  14.7550  14.7847  14.7848  15.4769  18.7537  18.7537
    22.9796  22.9796  26.8319  27.4632  27.4632  30.5074  30.5075  30.9344
    31.1107  32.7738  36.8071  37.7581  38.0160  38.9094  38.9094  42.4604
    43.6840  44.5816  47.1690  47.1690  48.0307  49.1322  50.3014  50.3015
    50.8149  53.0563  53.1503  55.9008

          k = 0.0476-0.0476-0.1428 (   616 PWs)   bands (ev):

     8.9175   8.9261  11.4734  11.4734  11.5413  11.5416  11.9482  11.9622
    12.3334  12.3335  12.8553  12.8712  13.4341  13.4381  13.7211  13.7212
    14.3344  14.3452  14.5032  14.5043  14.7369  14.7369  19.8337  19.8337
    21.5117  21.5117  28.3912  28.3919  28.6575  28.6623  29.1172  29.1185
    35.0825  35.0965  35.4502  35.4798  38.2478  38.2779  42.2745  42.2746
    44.9367  44.9543  45.4592  45.4593  49.4876  49.5101  50.9569  50.9647
    52.3318  52.3319  54.0234  54.0272

          k = 0.0952-0.0476 0.0952 (   617 PWs)   bands (ev):

     8.3650  10.6468  10.6469  11.1591  11.6541  11.7953  11.7954  12.3236
    12.5303  12.5303  12.6555  12.9704  13.1203  13.5751  13.5755  13.5782
    13.9403  14.5028  14.6516  14.6521  14.6693  16.4169  16.4170  18.9525
    21.2095  24.1858  24.1858  28.1744  28.2557  31.2715  31.2715  32.2920
    32.2921  34.1510  35.3463  37.0189  39.4266  39.4266  40.1576  43.2520
    43.8248  44.8245  46.5567  46.5568  49.3616  49.3617  50.4515  50.6892
    51.0072  51.8079  52.4919  52.9590

          k =-0.0952 0.0476 0.0952 (   617 PWs)   bands (ev):

     8.3650  10.6468  10.6469  11.1591  11.6541  11.7953  11.7954  12.3236
    12.5303  12.5303  12.6555  12.9704  13.1203  13.5751  13.5755  13.5782
    13.9403  14.5028  14.6516  14.6520  14.6693  16.4169  16.4170  18.9525
    21.2095  24.1858  24.1858  28.1744  28.2557  31.2714  31.2715  32.2920
    32.2921  34.1510  35.3463  37.0190  39.4265  39.4266  40.1576  43.2520
    43.8248  44.8245  46.5567  46.5567  49.3616  49.3617  50.4515  50.6892
    51.0071  51.8079  52.4919  52.9591

          k = 0.0952-0.0476-0.1428 (   624 PWs)   bands (ev):

     9.5837   9.5902  11.0093  11.0122  11.9148  11.9162  12.1506  12.1624
    12.5078  12.5132  12.6934  12.7040  13.2487  13.2514  13.4309  13.4328
    14.2574  14.2632  14.5573  14.5620  15.1097  15.1118  17.6504  17.6580
    22.1797  22.1852  25.9306  25.9343  29.6068  29.6116  33.1731  33.1735
    33.3993  33.4037  36.9832  37.0161  40.2029  40.2096  40.5545  40.5609
    45.2782  45.2805  45.7693  45.7863  47.7781  47.7880  50.7199  50.7332
    51.8312  51.8386  54.1069  54.1213

          k = 0.0952-0.0952 0.0952 (   627 PWs)   bands (ev):

     9.0304  10.5982  10.5984  10.5984  12.1117  12.1118  12.1118  12.5912
    12.8096  12.8096  12.8100  12.9375  12.9375  13.2116  13.2116  13.2117
    14.3822  14.3822  14.7952  14.7952  14.7953  16.6677  16.6678  16.6678
    21.8127  21.8127  21.8127  25.4441  32.6218  32.6219  32.6220  35.3872
    35.3873  35.3873  37.3697  37.3697  37.3699  37.6897  40.1302  40.1302
    44.5539  44.5539  47.8968  48.1156  48.1157  48.1161  48.2467  48.2467
    48.2468  52.5926  52.5927  52.5927

          k = 0.0952-0.0952-0.1428 (   622 PWs)   bands (ev):

     9.8545   9.8575  10.5578  10.5579  12.3049  12.3050  12.6157  12.6235
    12.8629  12.8727  12.9709  12.9716  13.0136  13.0136  13.0786  13.0787
    14.6960  14.6973  14.7240  14.7242  14.9216  14.9233  16.8564  16.8564
    20.8823  20.8823  23.3215  23.3254  33.4978  33.4979  34.7964  34.7965
    36.2856  36.3003  37.4018  37.4087  39.1543  39.1777  39.4961  39.4962
    44.7822  44.7822  44.9723  44.9842  46.1270  46.1309  48.6134  48.6134
    49.7752  49.7799  53.2226  53.2230

     the Fermi energy is    14.5394 ev

!    total energy              =    -343.62851260 Ry
     Harris-Foulkes estimate   =    -343.62851259 Ry
     estimated scf accuracy    <          9.4E-12 Ry

     The total energy is the sum of the following terms:

     one-electron contribution =      -6.05387231 Ry
     hartree contribution      =      60.24887095 Ry
     xc contribution           =    -120.52204989 Ry
     ewald contribution        =    -277.25287078 Ry
     Dispersion Correction     =      -0.04800200 Ry
     smearing contrib. (-TS)   =      -0.00058857 Ry

     total magnetization       =     2.83 Bohr mag/cell
     absolute magnetization    =     3.25 Bohr mag/cell

     convergence has been achieved in  11 iterations

     Forces acting on atoms (Ry/au):

     atom    1 type  1   force =    -0.00109205   -0.00109205    0.00109221
     atom    2 type  1   force =     0.00109189    0.00109189    0.00109189
     atom    3 type  1   force =    -0.00109205    0.00109221   -0.00109205
     atom    4 type  1   force =     0.00109221   -0.00109205   -0.00109205

     Total force =     0.003783     Total SCF correction =     0.000011


     entering subroutine stress ...

          total   stress  (Ry/bohr**3)                   (kbar)     P=    1.00
   0.00000678   0.00000003   0.00000003          1.00      0.00      0.00
   0.00000003   0.00000678   0.00000003          0.00      1.00      0.00
   0.00000003   0.00000003   0.00000678          0.00      0.00      1.00


     number of scf cycles    =   3
     number of bfgs steps    =   2

     enthalpy old            =    -343.6284990404 Ry
     enthalpy new            =    -343.6285125963 Ry

     CASE: enthalpy_new < enthalpy_old

     new trust radius        =       0.0048603265 bohr
     new conv_thr            =            1.0E-10 Ry

     new unit-cell volume =    289.48221 a.u.^3 (    42.89684 Ang^3 )

CELL_PARAMETERS (alat=  1.88972590)
   3.500594545   0.000004462   0.000004462
   0.000004462   3.500594545   0.000004462
   0.000004462   0.000004462   3.500594545

ATOMIC_POSITIONS (alat)
Ni1      1.754378458   1.754378458   0.003696996
Ni1      0.003691349   0.003691349   0.003691349
Ni1      1.754378458   0.003696996   1.754378458
Ni1      0.003696996   1.754378458   1.754378458



     Writing output data file Ni-ferromag.save
     NEW-OLD atomic charge density approx. for the potential

     Check: negative/imaginary core charge=   -0.000005    0.000000
     extrapolated charge   40.00902, renormalised to   40.00000

     total cpu time spent up to now is      641.6 secs

     Self-consistent Calculation

     iteration #  1     ecut=    25.00 Ry     beta=0.20
     Davidson diagonalization with overlap
     ethr =  1.00E-06,  avg # of iterations =  3.4

     Threshold (ethr) on eigenvalues was too large:
     Diagonalizing with lowered threshold

     Davidson diagonalization with overlap
     ethr =  8.01E-08,  avg # of iterations =  1.0

     total cpu time spent up to now is      675.4 secs

     total energy              =    -343.62852587 Ry
     Harris-Foulkes estimate   =    -343.61910749 Ry
     estimated scf accuracy    <       0.00003211 Ry

     total magnetization       =     2.84 Bohr mag/cell
     absolute magnetization    =     3.25 Bohr mag/cell

     iteration #  2     ecut=    25.00 Ry     beta=0.20
     Davidson diagonalization with overlap
     ethr =  8.03E-08,  avg # of iterations =  1.1

     total cpu time spent up to now is      688.4 secs

     total energy              =    -343.62854248 Ry
     Harris-Foulkes estimate   =    -343.62854453 Ry
     estimated scf accuracy    <       0.00001386 Ry

     total magnetization       =     2.83 Bohr mag/cell
     absolute magnetization    =     3.25 Bohr mag/cell

     iteration #  3     ecut=    25.00 Ry     beta=0.20
     Davidson diagonalization with overlap
     ethr =  3.47E-08,  avg # of iterations =  1.0

     total cpu time spent up to now is      701.3 secs

     total energy              =    -343.62854002 Ry
     Harris-Foulkes estimate   =    -343.62854283 Ry
     estimated scf accuracy    <       0.00000607 Ry

     total magnetization       =     2.83 Bohr mag/cell
     absolute magnetization    =     3.25 Bohr mag/cell

     iteration #  4     ecut=    25.00 Ry     beta=0.20
     Davidson diagonalization with overlap
     ethr =  1.52E-08,  avg # of iterations =  1.1

     total cpu time spent up to now is      714.1 secs

     total energy              =    -343.62854103 Ry
     Harris-Foulkes estimate   =    -343.62854357 Ry
     estimated scf accuracy    <       0.00000692 Ry

     total magnetization       =     2.83 Bohr mag/cell
     absolute magnetization    =     3.25 Bohr mag/cell

     iteration #  5     ecut=    25.00 Ry     beta=0.20
     Davidson diagonalization with overlap
     ethr =  1.52E-08,  avg # of iterations =  1.0

     total cpu time spent up to now is      726.9 secs

     total energy              =    -343.62854189 Ry
     Harris-Foulkes estimate   =    -343.62854195 Ry
     estimated scf accuracy    <       0.00000027 Ry

     total magnetization       =     2.83 Bohr mag/cell
     absolute magnetization    =     3.25 Bohr mag/cell

     iteration #  6     ecut=    25.00 Ry     beta=0.20
     Davidson diagonalization with overlap
     ethr =  6.63E-10,  avg # of iterations =  1.0

     total cpu time spent up to now is      739.7 secs

     total energy              =    -343.62854202 Ry
     Harris-Foulkes estimate   =    -343.62854200 Ry
     estimated scf accuracy    <       0.00000015 Ry

     total magnetization       =     2.83 Bohr mag/cell
     absolute magnetization    =     3.25 Bohr mag/cell

     iteration #  7     ecut=    25.00 Ry     beta=0.20
     Davidson diagonalization with overlap
     ethr =  3.69E-10,  avg # of iterations =  1.0

     total cpu time spent up to now is      752.4 secs

     total energy              =    -343.62854198 Ry
     Harris-Foulkes estimate   =    -343.62854202 Ry
     estimated scf accuracy    <       0.00000008 Ry

     total magnetization       =     2.83 Bohr mag/cell
     absolute magnetization    =     3.25 Bohr mag/cell

     iteration #  8     ecut=    25.00 Ry     beta=0.20
     Davidson diagonalization with overlap
     ethr =  2.12E-10,  avg # of iterations =  2.0

     total cpu time spent up to now is      766.9 secs

     total energy              =    -343.62854205 Ry
     Harris-Foulkes estimate   =    -343.62854207 Ry
     estimated scf accuracy    <       0.00000020 Ry

     total magnetization       =     2.83 Bohr mag/cell
     absolute magnetization    =     3.25 Bohr mag/cell

     iteration #  9     ecut=    25.00 Ry     beta=0.20
     Davidson diagonalization with overlap
     ethr =  2.12E-10,  avg # of iterations =  1.0

     total cpu time spent up to now is      779.7 secs

     total energy              =    -343.62854206 Ry
     Harris-Foulkes estimate   =    -343.62854205 Ry
     estimated scf accuracy    <       0.00000006 Ry

     total magnetization       =     2.83 Bohr mag/cell
     absolute magnetization    =     3.25 Bohr mag/cell

     iteration # 10     ecut=    25.00 Ry     beta=0.20
     Davidson diagonalization with overlap
     ethr =  1.51E-10,  avg # of iterations =  1.0

     total cpu time spent up to now is      792.4 secs

     total energy              =    -343.62854205 Ry
     Harris-Foulkes estimate   =    -343.62854206 Ry
     estimated scf accuracy    <       0.00000006 Ry

     total magnetization       =     2.83 Bohr mag/cell
     absolute magnetization    =     3.25 Bohr mag/cell

     iteration # 11     ecut=    25.00 Ry     beta=0.20
     Davidson diagonalization with overlap
     ethr =  1.41E-10,  avg # of iterations =  1.0

     Magnetic moment per site:
     atom:    1    charge:    2.9988    magn:    0.3339    constr:    0.0000
     atom:    2    charge:    2.9970    magn:    0.3338    constr:    0.0000
     atom:    3    charge:    2.9988    magn:    0.3339    constr:    0.0000
     atom:    4    charge:    2.9988    magn:    0.3339    constr:    0.0000

     total cpu time spent up to now is      805.1 secs

     End of self-consistent calculation

 ------ SPIN UP ------------


          k = 0.0000 0.0000 0.0000 (   619 PWs)   bands (ev):

     5.4560   9.7442   9.7442   9.7442  10.1990  10.1990  10.1990  11.9834
    11.9834  11.9834  13.1660  13.1660  13.8867  13.8867  13.8867  13.9773
    13.9773  13.9773  13.9773  13.9773  13.9773  17.1132  17.1132  17.1132
    23.8737  23.8737  23.8737  29.6289  29.6289  29.6289  29.6290  29.6290
    29.6290  34.7278  34.7278  34.7278  38.0799  38.0801  38.0801  38.5557
    42.5484  42.5486  42.5486  46.1697  46.1699  46.1699  48.2557  55.2765
    55.2766  55.2766  57.9110  59.6901

          k =-0.0000-0.0000 0.0476 (   635 PWs)   bands (ev):

     5.8227   9.7661   9.9289   9.9289  10.3095  10.3256  10.3256  11.8542
    12.0862  12.0862  13.0479  13.2129  13.3202  13.3202  13.7326  13.7326
    13.8005  13.8005  13.8369  13.9775  13.9775  15.5121  18.0752  18.0752
    23.9692  23.9693  26.1236  27.8777  27.8777  28.5064  28.5064  30.1903
    30.1905  34.8415  36.8990  36.8990  37.9249  38.2100  40.0386  40.0387
    40.3307  40.3309  40.9919  47.5861  48.2179  48.2180  49.2464  51.6595
    56.3789  56.3790  56.7743  56.7743

          k =-0.0000-0.0000 0.0952 (   630 PWs)   bands (ev):

     6.8736   9.5373  10.3669  10.3669  10.6181  10.7098  10.7098  11.5090
    12.2608  12.2608  12.3840  12.3840  12.7589  13.3420  13.3461  13.3527
    13.3527  13.3604  13.3604  13.7023  13.9780  13.9780  20.0425  20.0425
    24.2847  24.2847  25.1010  25.1010  26.7400  26.7400  30.4274  31.7738
    31.7739  35.2038  36.8002  37.1067  37.1069  38.4196  38.7630  40.9448
    40.9448  44.2057  44.2058  44.2438  51.0195  51.1339  51.1339  51.1462
    51.1462  55.1385  56.1473  56.1474

          k = 0.0000 0.0000-0.1428 (   610 PWs)   bands (ev):

     8.3742   8.3753  10.6437  10.6437  11.0537  11.0553  11.3577  11.3577
    11.3593  11.3593  12.5800  12.5823  12.8372  12.8372  12.8384  12.8384
    13.1033  13.1033  13.5204  13.5213  13.9783  13.9783  22.4312  22.4312
    22.4340  22.4340  24.6550  24.6550  25.7970  25.7970  34.1567  34.1568
    34.1586  34.1588  34.9785  34.9827  35.8499  35.8509  40.3572  40.3639
    45.7496  45.7496  45.7554  45.7554  47.7123  47.7124  52.4332  52.4333
    54.2672  54.2673  54.2726  54.2726

          k =-0.0000 0.0476 0.0476 (   633 PWs)   bands (ev):

     6.1809   9.9650   9.9650  10.0925  10.4274  10.4274  10.4413  11.7942
    12.1314  12.1485  12.9728  13.0232  13.0315  13.0316  13.2082  13.6034
    13.7284  13.7284  13.7993  13.7993  13.8610  16.4478  16.4478  18.8470
    23.9612  25.1596  26.3104  26.3104  28.3565  28.3565  29.0003  29.0003
    30.7195  36.1170  36.1911  37.1069  37.1069  37.4080  40.2041  40.2041
    41.3431  42.6968  43.6141  45.3154  46.4629  49.8982  50.5428  53.2211
    53.7756  55.4594  55.4594  56.4014

          k =-0.0000 0.0476 0.0952 (   624 PWs)   bands (ev):

     7.2039   9.7738  10.4484  10.4972  10.7100  10.7633  10.7825  11.5122
    12.0215  12.1615  12.2777  12.3957  12.4209  12.8556  13.2784  13.3577
    13.3642  13.3880  13.5406  13.7960  13.8020  14.4800  18.0659  20.6339
    22.1352  24.6721  25.5635  26.5940  27.4677  29.6733  29.9672  30.0215
    31.0855  33.7961  34.5394  37.7584  38.7128  40.4675  40.6461  40.8366
    41.2011  44.1303  45.1314  47.1561  47.8753  48.6831  49.9954  51.4276
    53.0439  53.3520  54.9862  56.4230

          k = 0.0000 0.0476-0.1428 (   622 PWs)   bands (ev):

     8.6561   8.6571  10.7966  10.7967  11.1056  11.1072  11.2251  11.2264
    11.3723  11.3739  12.2057  12.2074  12.8379  12.8392  13.0680  13.0686
    13.0882  13.0883  13.7049  13.7049  13.7935  13.7937  19.9369  19.9383
    22.9317  22.9343  25.4734  25.4754  28.3751  28.3758  31.5663  31.5671
    32.0885  32.0891  35.9002  35.9050  38.9066  38.9070  42.3027  42.3069
    43.1978  43.1993  46.0266  46.0321  50.1838  50.1887  50.4471  50.4494
    52.7057  52.7076  53.3523  53.3538

          k =-0.0000 0.0952 0.0952 (   618 PWs)   bands (ev):

     8.1317  10.3626  10.3626  10.7296  10.9791  10.9791  10.9919  11.4422
    11.6901  11.6901  11.8449  12.1644  12.5269  12.7692  13.0617  13.2174
    13.2174  13.3584  13.3584  13.5288  13.7447  15.7286  15.7286  19.3513
    22.1635  25.2226  26.8394  26.8394  27.9604  27.9605  31.0546  31.7116
    31.7116  31.8055  33.6748  36.9150  41.6033  41.9642  41.9642  43.1652
    43.4867  43.8577  43.8578  47.2859  47.4293  48.5829  48.5829  51.7777
    52.2726  52.2792  53.3661  55.4505

          k = 0.0000 0.0952-0.1428 (   624 PWs)   bands (ev):

     9.3999   9.4007  10.8341  10.8351  11.2334  11.2348  11.2410  11.2411
    11.3911  11.3925  11.8990  11.9001  12.8750  12.8750  12.8755  12.8768
    12.9418  12.9420  13.3930  13.3938  14.4079  14.4081  17.2617  17.2628
    24.2906  24.2925  26.2897  26.2913  28.7178  28.7187  29.6044  29.6046
    33.0206  33.0210  36.8644  36.8691  40.4432  40.4442  43.1322  43.1331
    43.3011  43.3015  46.8279  46.8324  48.0266  48.0293  50.5230  50.5255
    51.8764  51.8804  53.6579  53.6589

          k = 0.0000-0.1428-0.1428 (   624 PWs)   bands (ev):

    10.2539  10.2546  10.2546  10.2553  11.3525  11.3539  11.3539  11.3553
    11.6629  11.6633  11.6633  11.6637  12.7283  12.7284  12.7284  12.7285
    13.0427  13.0439  13.0439  13.0451  15.4796  15.4801  15.4802  15.4807
    26.2685  26.2698  26.2698  26.2711  27.6426  27.6435  27.6436  27.6446
    37.9722  37.9734  37.9735  37.9748  38.5728  38.5743  38.5743  38.5758
    47.2603  47.2603  47.2603  47.2603  49.2912  49.2937  49.2938  49.2963
    51.9239  51.9241  51.9243  51.9244

          k = 0.0476 0.0476 0.0476 (   609 PWs)   bands (ev):

     6.5271  10.1266  10.1267  10.1267  10.5423  10.5423  10.5423  11.7591
    12.1683  12.1683  12.7265  12.7265  12.7265  13.1214  13.1214  13.3694
    13.3694  13.3694  13.9153  13.9153  13.9153  17.0766  17.0766  17.0766
    25.3848  25.3848  25.3848  26.6569  26.6570  26.6570  31.2367  31.2367
    31.2367  33.5540  36.2480  36.2480  36.2480  39.3191  41.2247  41.2247
    42.9022  42.9023  42.9023  46.6736  47.7427  47.7427  51.7591  51.7591
    55.3340  55.3341  55.3341  55.3391

          k = 0.0476 0.0476 0.0952 (   618 PWs)   bands (ev):

     7.5100   9.9328  10.5109  10.5109  10.8287  10.8567  10.8568  11.5489
    12.0119  12.0119  12.2080  12.2476  12.3081  12.9659  13.0367  13.1225
    13.1225  13.3618  13.8177  13.8177  13.8500  14.8423  18.4215  18.4215
    22.7634  22.7634  26.6814  27.3076  27.3076  30.4256  30.4256  30.8135
    31.0163  32.7200  36.7251  37.8459  37.9310  38.8714  38.8714  42.4453
    43.5942  44.5550  47.1157  47.1158  47.9796  49.1783  50.3036  50.3037
    50.7986  53.1190  53.1812  55.7752

          k = 0.0476 0.0476-0.1428 (   616 PWs)   bands (ev):

     8.8835   8.8844  10.8996  10.8996  10.9570  10.9571  11.2010  11.2024
    11.6167  11.6167  12.1097  12.1113  12.5820  12.5826  12.9542  12.9542
    13.5309  13.5320  13.6387  13.6390  13.7614  13.7614  19.5710  19.5710
    21.2018  21.2018  28.2708  28.2708  28.5114  28.5119  28.9952  28.9952
    35.0117  35.0134  35.4837  35.4870  38.1760  38.1795  42.2852  42.2852
    44.8479  44.8498  45.4622  45.4622  49.5685  49.5710  50.9976  50.9985
    52.2886  52.2886  53.8376  53.8377

          k = 0.0476 0.0952 0.0952 (   617 PWs)   bands (ev):

     8.3498  10.2513  10.2513  10.5383  11.1446  11.1911  11.1911  11.5941
    11.8074  11.8074  11.9409  12.1665  12.2930  12.7729  12.7729  12.7894
    13.0934  13.6502  13.7199  13.7352  13.7352  15.8590  15.8590  18.6724
    20.8598  23.9626  23.9626  28.0090  28.1182  31.2011  31.2011  32.1920
    32.1920  34.0889  35.3140  36.9864  39.4041  39.4041  40.2262  43.1293
    43.8252  44.8711  46.5541  46.5541  49.2974  49.2974  50.5113  50.6966
    51.0218  51.7254  52.4173  53.0228

          k = 0.0476 0.0952-0.1428 (   624 PWs)   bands (ev):

     9.4340   9.4346  10.4732  10.4733  11.3588  11.3588  11.5072  11.5084
    11.8137  11.8142  11.9348  11.9359  12.4426  12.4430  12.6541  12.6543
    13.3913  13.3918  13.6198  13.6203  14.3137  14.3139  17.2376  17.2385
    21.8759  21.8766  25.7258  25.7263  29.5016  29.5021  33.1097  33.1099
    33.3248  33.3252  36.9773  36.9812  40.2138  40.2146  40.5266  40.5273
    45.2838  45.2841  45.7769  45.7788  47.7929  47.7939  50.6784  50.6799
    51.8860  51.8869  54.0296  54.0315

          k = 0.0476-0.1428-0.1428 (   628 PWs)   bands (ev):

    10.0042  10.0044  10.0044  10.0046  11.7511  11.7515  11.7515  11.7519
    11.8377  11.8385  11.8385  11.8394  12.4137  12.4141  12.4141  12.4145
    13.3734  13.3742  13.3742  13.3749  15.3897  15.3902  15.3903  15.3908
    23.5116  23.5121  23.5121  23.5127  31.0409  31.0411  31.0411  31.0413
    38.2528  38.2538  38.2539  38.2550  38.4141  38.4154  38.4155  38.4168
    46.7443  46.7443  46.7444  46.7445  46.8518  46.8532  46.8533  46.8546
    54.9198  54.9209  54.9210  54.9221

          k = 0.0952 0.0952 0.0952 (   627 PWs)   bands (ev):

     8.8940  10.0860  10.0860  10.0861  11.5504  11.5505  11.5505  12.0657
    12.1272  12.1272  12.1273  12.1333  12.1333  12.4175  12.4175  12.4175
    13.4977  13.4977  13.8639  13.8639  13.8639  16.2363  16.2364  16.2364
    21.4681  21.4681  21.4681  25.2123  32.5687  32.5688  32.5688  35.3181
    35.3181  35.3181  37.3494  37.3495  37.3495  37.8544  40.0356  40.0356
    44.5364  44.5364  47.8735  48.1586  48.1587  48.1587  48.2365  48.2365
    48.2365  52.5518  52.5519  52.5519

          k = 0.0952 0.0952-0.1428 (   622 PWs)   bands (ev):

     9.5207   9.5209  10.0173  10.0173  11.6709  11.6709  11.9581  11.9590
    12.1762  12.1763  12.2969  12.2969  12.3099  12.3108  12.4109  12.4109
    13.7841  13.7841  13.7919  13.7919  14.2024  14.2025  16.5195  16.5196
    20.4394  20.4395  23.0275  23.0280  33.4835  33.4836  34.7025  34.7025
    36.3947  36.3963  37.3244  37.3252  39.0758  39.0785  39.5136  39.5137
    44.7472  44.7473  44.9921  44.9934  46.1119  46.1123  48.6449  48.6449
    49.7151  49.7157  53.1055  53.1055

          k = 0.0952-0.1428-0.1428 (   632 PWs)   bands (ev):

     9.6964   9.6964   9.6964   9.6964  11.9177  11.9180  11.9180  11.9182
    12.1082  12.1084  12.1085  12.1087  12.8581  12.8586  12.8587  12.8592
    13.7113  13.7117  13.7117  13.7121  15.0100  15.0107  15.0107  15.0113
    21.1528  21.1533  21.1533  21.1537  35.2236  35.2238  35.2239  35.2241
    38.2907  38.2913  38.2914  38.2921  39.0199  39.0205  39.0206  39.0213
    44.1854  44.1860  44.1861  44.1867  45.2502  45.2503  45.2504  45.2505
    50.5340  50.5343  50.5343  50.5346

          k =-0.1428-0.1428-0.1428 (   624 PWs)   bands (ev):

     9.5800   9.5800   9.5800   9.5800  11.9965  11.9965  11.9965  11.9966
    11.9966  11.9966  11.9966  11.9966  13.8397  13.8397  13.8397  13.8397
    13.8397  13.8398  13.8398  13.8398  14.3290  14.3291  14.3291  14.3291
    20.2723  20.2724  20.2724  20.2724  37.0105  37.0107  37.0107  37.0107
    39.6567  39.6567  39.6567  39.6568  39.6568  39.6568  39.6569  39.6569
    42.8946  42.8946  42.8946  42.8946  42.8946  42.8947  42.8947  42.8947
    48.8873  48.8873  48.8873  48.8873

          k =-0.0476 0.0000 0.0476 (   633 PWs)   bands (ev):

     6.1809   9.9650   9.9650  10.0925  10.4274  10.4274  10.4413  11.7942
    12.1314  12.1485  12.9728  13.0232  13.0315  13.0316  13.2082  13.6034
    13.7284  13.7284  13.7993  13.7993  13.8610  16.4478  16.4478  18.8470
    23.9613  25.1597  26.3104  26.3104  28.3565  28.3565  29.0003  29.0003
    30.7194  36.1169  36.1912  37.1069  37.1069  37.4081  40.2041  40.2042
    41.3430  42.6969  43.6140  45.3154  46.4627  49.8981  50.5429  53.2212
    53.7757  55.4595  55.4596  56.4014

          k =-0.0476-0.0000 0.0952 (   624 PWs)   bands (ev):

     7.2039   9.7738  10.4484  10.4972  10.7100  10.7633  10.7825  11.5122
    12.0215  12.1615  12.2777  12.3957  12.4208  12.8556  13.2784  13.3577
    13.3642  13.3880  13.5406  13.7960  13.8020  14.4800  18.0659  20.6339
    22.1353  24.6721  25.5635  26.5940  27.4677  29.6732  29.9672  30.0214
    31.0855  33.7961  34.5394  37.7584  38.7127  40.4675  40.6461  40.8367
    41.2011  44.1304  45.1313  47.1562  47.8752  48.6830  49.9955  51.4276
    53.0441  53.3521  54.9861  56.4230

          k =-0.0952 0.0000 0.0952 (   618 PWs)   bands (ev):

     8.1317  10.3626  10.3626  10.7296  10.9791  10.9791  10.9919  11.4422
    11.6901  11.6901  11.8449  12.1644  12.5269  12.7692  13.0617  13.2174
    13.2174  13.3584  13.3584  13.5288  13.7447  15.7286  15.7286  19.3514
    22.1635  25.2226  26.8393  26.8394  27.9604  27.9605  31.0546  31.7116
    31.7116  31.8056  33.6747  36.9149  41.6033  41.9643  41.9643  43.1651
    43.4866  43.8578  43.8579  47.2858  47.4292  48.5830  48.5830  51.7779
    52.2725  52.2792  53.3660  55.4508

          k = 0.0476-0.0476 0.0476 (   609 PWs)   bands (ev):

     6.5271  10.1267  10.1267  10.1267  10.5423  10.5423  10.5423  11.7592
    12.1683  12.1683  12.7265  12.7265  12.7265  13.1214  13.1214  13.3694
    13.3694  13.3694  13.9153  13.9153  13.9153  17.0766  17.0766  17.0766
    25.3848  25.3849  25.3849  26.6570  26.6570  26.6570  31.2366  31.2366
    31.2367  33.5541  36.2479  36.2479  36.2480  39.3191  41.2245  41.2246
    42.9023  42.9024  42.9024  46.6736  47.7426  47.7427  51.7590  51.7591
    55.3340  55.3341  55.3342  55.3391

          k = 0.0476-0.0476 0.0952 (   618 PWs)   bands (ev):

     7.5100   9.9328  10.5109  10.5109  10.8287  10.8567  10.8568  11.5489
    12.0119  12.0119  12.2080  12.2476  12.3081  12.9659  13.0367  13.1225
    13.1225  13.3618  13.8177  13.8177  13.8500  14.8423  18.4215  18.4215
    22.7633  22.7634  26.6814  27.3076  27.3077  30.4255  30.4256  30.8137
    31.0164  32.7199  36.7251  37.8458  37.9308  38.8713  38.8714  42.4453
    43.5944  44.5550  47.1158  47.1159  47.9796  49.1782  50.3036  50.3037
    50.7986  53.1191  53.1812  55.7751

          k =-0.0952 0.0476 0.0476 (   618 PWs)   bands (ev):

     7.5100   9.9328  10.5109  10.5109  10.8287  10.8568  10.8568  11.5489
    12.0119  12.0119  12.2080  12.2476  12.3081  12.9659  13.0366  13.1225
    13.1225  13.3618  13.8177  13.8177  13.8500  14.8422  18.4215  18.4215
    22.7634  22.7634  26.6813  27.3076  27.3077  30.4255  30.4255  30.8136
    31.0164  32.7200  36.7251  37.8459  37.9309  38.8713  38.8713  42.4452
    43.5943  44.5548  47.1159  47.1160  47.9795  49.1783  50.3037  50.3037
    50.7986  53.1192  53.1813  55.7752

          k = 0.0476-0.0476-0.1428 (   616 PWs)   bands (ev):

     8.8835   8.8844  10.8996  10.8996  10.9570  10.9571  11.2010  11.2024
    11.6167  11.6167  12.1097  12.1114  12.5820  12.5826  12.9542  12.9543
    13.5309  13.5320  13.6387  13.6390  13.7614  13.7614  19.5710  19.5710
    21.2018  21.2018  28.2708  28.2708  28.5115  28.5120  28.9952  28.9953
    35.0116  35.0133  35.4837  35.4870  38.1760  38.1794  42.2851  42.2853
    44.8481  44.8500  45.4621  45.4623  49.5685  49.5711  50.9975  50.9984
    52.2886  52.2887  53.8376  53.8378

          k = 0.0952-0.0476 0.0952 (   617 PWs)   bands (ev):

     8.3498  10.2513  10.2513  10.5383  11.1446  11.1911  11.1911  11.5941
    11.8074  11.8074  11.9409  12.1665  12.2930  12.7729  12.7729  12.7894
    13.0934  13.6502  13.7199  13.7351  13.7352  15.8590  15.8590  18.6724
    20.8597  23.9626  23.9626  28.0091  28.1183  31.2011  31.2011  32.1920
    32.1920  34.0889  35.3138  36.9864  39.4040  39.4040  40.2261  43.1293
    43.8252  44.8711  46.5541  46.5542  49.2975  49.2976  50.5114  50.6967
    51.0217  51.7255  52.4173  53.0229

          k =-0.0952 0.0476 0.0952 (   617 PWs)   bands (ev):

     8.3498  10.2513  10.2513  10.5383  11.1447  11.1910  11.1911  11.5941
    11.8073  11.8074  11.9409  12.1665  12.2930  12.7729  12.7729  12.7894
    13.0934  13.6502  13.7199  13.7351  13.7352  15.8590  15.8590  18.6724
    20.8598  23.9625  23.9626  28.0091  28.1182  31.2011  31.2012  32.1920
    32.1921  34.0888  35.3139  36.9863  39.4040  39.4041  40.2261  43.1292
    43.8251  44.8710  46.5542  46.5542  49.2975  49.2976  50.5114  50.6965
    51.0218  51.7253  52.4175  53.0229

          k = 0.0952-0.0476-0.1428 (   624 PWs)   bands (ev):

     9.4340   9.4346  10.4732  10.4733  11.3588  11.3588  11.5072  11.5084
    11.8137  11.8142  11.9348  11.9359  12.4426  12.4430  12.6541  12.6543
    13.3913  13.3918  13.6198  13.6203  14.3137  14.3139  17.2376  17.2385
    21.8759  21.8766  25.7259  25.7264  29.5017  29.5022  33.1096  33.1098
    33.3248  33.3252  36.9773  36.9812  40.2138  40.2146  40.5265  40.5272
    45.2838  45.2841  45.7769  45.7787  47.7930  47.7940  50.6785  50.6800
    51.8861  51.8870  54.0297  54.0316

          k = 0.0952-0.0952 0.0952 (   627 PWs)   bands (ev):

     8.8940  10.0860  10.0861  10.0861  11.5505  11.5505  11.5505  12.0657
    12.1272  12.1272  12.1273  12.1333  12.1334  12.4175  12.4175  12.4175
    13.4977  13.4977  13.8639  13.8639  13.8639  16.2363  16.2363  16.2364
    21.4680  21.4681  21.4681  25.2125  32.5688  32.5688  32.5689  35.3180
    35.3181  35.3182  37.3494  37.3494  37.3495  37.8544  40.0354  40.0355
    44.5363  44.5363  47.8734  48.1587  48.1587  48.1588  48.2365  48.2365
    48.2366  52.5520  52.5521  52.5521

          k = 0.0952-0.0952-0.1428 (   622 PWs)   bands (ev):

     9.5207   9.5209  10.0173  10.0173  11.6709  11.6709  11.9581  11.9590
    12.1762  12.1763  12.2969  12.2969  12.3099  12.3109  12.4109  12.4109
    13.7841  13.7841  13.7919  13.7919  14.2024  14.2025  16.5195  16.5196
    20.4394  20.4394  23.0276  23.0281  33.4836  33.4836  34.7025  34.7026
    36.3946  36.3962  37.3243  37.3251  39.0757  39.0785  39.5135  39.5137
    44.7472  44.7473  44.9921  44.9934  46.1118  46.1122  48.6450  48.6451
    49.7151  49.7157  53.1055  53.1056

 ------ SPIN DOWN ----------


          k = 0.0000 0.0000 0.0000 (   619 PWs)   bands (ev):

     5.4015  10.2055  10.2055  10.2055  10.9164  10.9164  10.9164  12.8631
    12.8632  12.8632  13.9455  13.9455  14.7002  14.7002  14.7002  14.9862
    14.9862  14.9862  14.9862  14.9862  14.9862  17.0345  17.0345  17.0345
    24.1792  24.1792  24.1792  29.6152  29.6152  29.6153  29.6153  29.6154
    29.6154  34.8915  34.8915  34.8915  38.2240  38.2242  38.2242  38.3495
    42.5184  42.5185  42.5185  46.2421  46.2423  46.2423  48.0963  55.4659
    55.4660  55.4660  58.4626  59.6031

          k =-0.0000-0.0000 0.0476 (   635 PWs)   bands (ev):

     5.7682  10.1811  10.4003  10.4003  11.0358  11.0405  11.0405  12.7206
    12.9700  12.9700  13.8178  13.9945  14.1392  14.1392  14.5325  14.5326
    14.6480  14.7927  14.7927  14.9864  14.9864  15.5820  18.1825  18.1825
    24.2596  24.2596  26.3255  27.9462  27.9462  28.5338  28.5338  30.1930
    30.1931  34.9927  36.9796  36.9796  37.7854  38.3518  40.1597  40.1598
    40.3721  40.3722  40.9215  47.6068  48.1915  48.1916  49.3168  51.6516
    56.5904  56.5905  56.7010  56.7010

          k =-0.0000-0.0000 0.0952 (   630 PWs)   bands (ev):

     6.8234   9.7452  10.8626  10.8626  11.3698  11.4193  11.4193  12.3412
    12.9893  12.9893  13.2809  13.2809  13.4958  13.7161  14.1191  14.1191
    14.1295  14.3162  14.3163  14.5069  14.9869  14.9869  20.2279  20.2279
    24.5308  24.5308  25.2418  25.2418  26.8383  26.8384  30.5228  31.8108
    31.8109  35.3172  36.7647  37.1779  37.1780  38.3289  38.9097  40.9498
    40.9498  44.3055  44.3056  44.4625  50.9752  51.0387  51.0387  51.0721
    51.0721  55.0316  56.3853  56.3854

          k = 0.0000 0.0000-0.1428 (   610 PWs)   bands (ev):

     8.3678   8.3689  11.1551  11.1551  11.8434  11.8451  12.0661  12.0661
    12.0678  12.0678  13.2271  13.2296  13.7583  13.7583  13.7596  13.7596
    13.8486  13.8486  14.3163  14.3173  14.9872  14.9872  22.6129  22.6129
    22.6158  22.6158  24.8517  24.8517  25.9546  25.9546  34.2216  34.2218
    34.2236  34.2237  34.9580  34.9624  35.9006  35.9018  40.5500  40.5568
    45.7045  45.7045  45.7104  45.7104  47.7865  47.7866  52.6240  52.6240
    54.1566  54.1567  54.1619  54.1620

          k =-0.0000 0.0476 0.0476 (   633 PWs)   bands (ev):

     6.1273  10.3925  10.3925  10.5827  11.1402  11.1506  11.1506  12.6469
    13.0205  13.0251  13.7368  13.7785  13.7786  13.7913  13.9947  14.3934
    14.5200  14.5200  14.7916  14.7916  14.8626  16.7626  16.7626  19.0131
    24.2195  25.2897  26.4991  26.4991  28.4393  28.4394  29.0414  29.0414
    30.7306  36.1820  36.2207  37.1771  37.1772  37.4251  40.3225  40.3226
    41.2621  42.7846  43.5825  45.2591  46.5233  50.0566  50.4681  53.3838
    53.7501  55.4189  55.4189  56.3418

          k =-0.0000 0.0476 0.0952 (   624 PWs)   bands (ev):

     7.1585   9.9961  10.9100  11.0285  11.4245  11.4571  11.4987  12.3335
    12.7121  12.8814  13.0763  13.1164  13.2972  13.6195  14.0428  14.1286
    14.1989  14.2853  14.3146  14.7887  14.7979  15.1889  18.4047  20.8382
    22.3338  24.9001  25.7152  26.7288  27.5931  29.7817  30.0288  30.0920
    31.1828  33.8737  34.5815  37.8000  38.7506  40.4184  40.5935  40.9571
    41.2003  44.2128  45.3361  47.2227  47.7973  48.6653  49.9790  51.3524
    52.9984  53.2611  55.2012  56.6717

          k = 0.0000 0.0476-0.1428 (   622 PWs)   bands (ev):

     8.6617   8.6628  11.2990  11.2992  11.8879  11.8896  11.9011  11.9024
    12.0834  12.0851  12.9458  12.9477  13.7617  13.7630  13.8370  13.8372
    13.8376  13.8380  14.5429  14.5429  14.7870  14.7873  20.2185  20.2199
    23.1250  23.1275  25.6449  25.6470  28.4921  28.4929  31.6802  31.6809
    32.1463  32.1468  35.9252  35.9300  38.9075  38.9077  42.4560  42.4603
    43.1905  43.1922  45.9779  45.9836  50.2489  50.2537  50.3790  50.3813
    52.6219  52.6238  53.5210  53.5225

          k =-0.0000 0.0952 0.0952 (   618 PWs)   bands (ev):

     8.1097  10.6354  10.6354  11.3931  11.4753  11.7141  11.7141  12.2354
    12.3826  12.3826  12.5563  12.9550  13.4416  13.5156  13.8146  13.9541
    13.9541  14.3188  14.3188  14.5090  14.5865  16.3337  16.3337  19.6591
    22.3830  25.4211  27.0061  27.0062  28.0616  28.0617  31.1853  31.8003
    31.8003  31.8729  33.7273  36.9507  41.5398  41.9456  41.9456  43.1992
    43.3688  43.9003  43.9004  47.4073  47.4583  48.6277  48.6277  51.8374
    52.1554  52.2273  53.5680  55.3529

          k = 0.0000 0.0952-0.1428 (   624 PWs)   bands (ev):

     9.4611   9.4620  11.2530  11.2540  11.8803  11.8804  11.9955  11.9971
    12.1109  12.1124  12.6351  12.6363  13.6087  13.6087  13.6825  13.6827
    13.8086  13.8099  14.3609  14.3617  15.2134  15.2137  17.7258  17.7269
    24.4958  24.4977  26.4415  26.4432  28.8799  28.8807  29.6944  29.6947
    33.0923  33.0928  36.8919  36.8966  40.4421  40.4429  43.0774  43.0782
    43.3195  43.3199  46.7653  46.7699  48.1086  48.1115  50.4699  50.4725
    51.9972  52.0012  53.5724  53.5734

          k = 0.0000-0.1428-0.1428 (   624 PWs)   bands (ev):

    10.4729  10.4737  10.4737  10.4745  12.0896  12.0911  12.0911  12.0926
    12.3313  12.3318  12.3318  12.3322  13.4652  13.4654  13.4654  13.4656
    13.9912  13.9924  13.9924  13.9936  16.1613  16.1617  16.1617  16.1622
    26.4636  26.4648  26.4648  26.4660  27.7661  27.7671  27.7672  27.7683
    38.0464  38.0476  38.0477  38.0489  38.5389  38.5403  38.5403  38.5417
    47.1396  47.1397  47.1398  47.1398  49.2798  49.2824  49.2825  49.2851
    52.0245  52.0248  52.0250  52.0253

          k = 0.0476 0.0476 0.0476 (   609 PWs)   bands (ev):

     6.4765  10.5811  10.5811  10.5811  11.2422  11.2422  11.2422  12.5918
    13.0458  13.0458  13.4362  13.4362  13.4362  13.9071  13.9071  14.1998
    14.1999  14.1999  14.8631  14.8631  14.8631  17.4178  17.4178  17.4178
    25.5164  25.5164  25.5164  26.8302  26.8303  26.8303  31.2586  31.2587
    31.2587  33.6202  36.3426  36.3427  36.3427  39.1633  41.2767  41.2767
    42.9866  42.9867  42.9867  46.5863  47.6992  47.6992  51.9254  51.9254
    55.2871  55.2872  55.2872  55.6762

          k = 0.0476 0.0476 0.0952 (   618 PWs)   bands (ev):

     7.4750  10.1951  11.0416  11.0416  11.4844  11.4845  11.5403  12.3438
    12.7134  12.7134  12.8796  13.0775  13.1679  13.8115  13.8460  13.9087
    13.9088  14.1835  14.7507  14.7804  14.7804  15.4723  18.7485  18.7486
    22.9737  22.9737  26.8256  27.4566  27.4566  30.5005  30.5005  30.9274
    31.1036  32.7665  36.7995  37.7512  38.0080  38.9015  38.9015  42.4521
    43.6749  44.5727  47.1597  47.1598  48.0213  49.1234  50.2922  50.2922
    50.8054  53.0470  53.1408  55.8899

          k = 0.0476 0.0476-0.1428 (   616 PWs)   bands (ev):

     8.9181   8.9191  11.4703  11.4703  11.5382  11.5382  11.9511  11.9527
    12.3299  12.3299  12.8586  12.8604  13.4321  13.4325  13.7173  13.7173
    14.3349  14.3362  14.4994  14.4995  14.7325  14.7325  19.8285  19.8285
    21.5058  21.5059  28.3855  28.3856  28.6532  28.6537  29.1101  29.1101
    35.0811  35.0827  35.4565  35.4599  38.2530  38.2565  42.2664  42.2664
    44.9350  44.9371  45.4506  45.4506  49.4888  49.4914  50.9513  50.9521
    52.3216  52.3217  54.0176  54.0177

          k = 0.0476 0.0952 0.0952 (   617 PWs)   bands (ev):

     8.3619  10.6436  10.6436  11.1560  11.6508  11.7922  11.7922  12.3200
    12.5267  12.5267  12.6519  12.9666  13.1166  13.5717  13.5717  13.5740
    13.9362  14.4986  14.6478  14.6478  14.6646  16.4122  16.4122  18.9474
    21.2037  24.1797  24.1797  28.1708  28.2459  31.2647  31.2648  32.2846
    32.2846  34.1435  35.3390  37.0114  39.4187  39.4187  40.1500  43.2428
    43.8165  44.8163  46.5478  46.5478  49.3521  49.3521  50.4425  50.6797
    50.9978  51.7975  52.4821  52.9495

          k = 0.0476 0.0952-0.1428 (   624 PWs)   bands (ev):

     9.5833   9.5840  11.0074  11.0077  11.9121  11.9123  12.1524  12.1538
    12.5066  12.5072  12.6944  12.6956  13.2461  13.2464  13.4279  13.4281
    14.2558  14.2565  14.5551  14.5556  15.1062  15.1064  17.6488  17.6496
    22.1763  22.1769  25.9259  25.9263  29.6020  29.6026  33.1663  33.1663
    33.3937  33.3943  36.9902  36.9940  40.1980  40.1988  40.5491  40.5499
    45.2707  45.2709  45.7681  45.7701  47.7734  47.7746  50.7161  50.7177
    51.8251  51.8259  54.1117  54.1141

          k = 0.0476-0.1428-0.1428 (   628 PWs)   bands (ev):

    10.3605  10.3609  10.3609  10.3614  12.3199  12.3206  12.3206  12.3212
    12.5405  12.5413  12.5413  12.5421  13.1902  13.1905  13.1906  13.1909
    14.2847  14.2856  14.2856  14.2864  16.0352  16.0357  16.0357  16.0362
    23.7695  23.7699  23.7699  23.7704  31.1233  31.1236  31.1237  31.1240
    38.3251  38.3261  38.3262  38.3273  38.3650  38.3663  38.3663  38.3675
    46.6755  46.6755  46.6756  46.6756  46.8771  46.8785  46.8786  46.8801
    54.9836  54.9848  54.9849  55.1950

          k = 0.0952 0.0952 0.0952 (   627 PWs)   bands (ev):

     9.0272  10.5952  10.5952  10.5952  12.1084  12.1084  12.1084  12.5877
    12.8061  12.8061  12.8061  12.9336  12.9337  13.2079  13.2079  13.2079
    14.3780  14.3780  14.7909  14.7909  14.7909  16.6630  16.6630  16.6630
    21.8068  21.8068  21.8068  25.4378  32.6149  32.6149  32.6149  35.3796
    35.3796  35.3796  37.3621  37.3622  37.3622  37.6832  40.1217  40.1217
    44.5452  44.5452  47.8881  48.1068  48.1069  48.1069  48.2375  48.2376
    48.2376  52.5825  52.5825  52.5825

          k = 0.0952 0.0952-0.1428 (   622 PWs)   bands (ev):

     9.8527   9.8530  10.5548  10.5548  12.3015  12.3015  12.6156  12.6165
    12.8635  12.8646  12.9676  12.9677  13.0098  13.0098  13.0749  13.0750
    14.6923  14.6924  14.7198  14.7198  14.9179  14.9181  16.8517  16.8517
    20.8764  20.8764  23.3171  23.3175  33.4910  33.4910  34.7886  34.7886
    36.2855  36.2872  37.3969  37.3976  39.1562  39.1589  39.4883  39.4883
    44.7734  44.7735  44.9690  44.9704  46.1198  46.1203  48.6044  48.6044
    49.7677  49.7682  53.2130  53.2130

          k = 0.0952-0.1428-0.1428 (   632 PWs)   bands (ev):

    10.1665  10.1666  10.1666  10.1666  12.6498  12.6500  12.6500  12.6503
    12.8833  12.8835  12.8836  12.8838  13.2970  13.2976  13.2976  13.2982
    14.6288  14.6292  14.6292  14.6297  15.5423  15.5428  15.5428  15.5434
    21.5457  21.5460  21.5460  21.5464  35.1968  35.1972  35.1973  35.1976
    38.2603  38.2609  38.2610  38.2616  39.0892  39.0898  39.0899  39.0905
    44.2170  44.2177  44.2178  44.2185  45.2425  45.2427  45.2427  45.2429
    50.6245  50.6248  50.6248  50.6251

          k =-0.1428-0.1428-0.1428 (   624 PWs)   bands (ev):

    10.0808  10.0808  10.0808  10.0808  12.7688  12.7688  12.7688  12.7688
    12.7688  12.7688  12.7688  12.7688  14.2297  14.2298  14.2298  14.2298
    14.7625  14.7625  14.7625  14.7625  14.7625  14.7625  14.7626  14.7626
    20.7544  20.7545  20.7545  20.7545  36.8261  36.8264  36.8264  36.8265
    39.7270  39.7270  39.7270  39.7270  39.7271  39.7271  39.7271  39.7271
    42.9245  42.9245  42.9245  42.9245  42.9245  42.9245  42.9246  42.9246
    49.0020  49.0020  49.0020  49.0021

          k =-0.0476 0.0000 0.0476 (   633 PWs)   bands (ev):

     6.1273  10.3925  10.3925  10.5827  11.1402  11.1506  11.1506  12.6469
    13.0205  13.0251  13.7367  13.7785  13.7786  13.7913  13.9947  14.3934
    14.5200  14.5200  14.7916  14.7916  14.8626  16.7626  16.7626  19.0131
    24.2195  25.2897  26.4991  26.4991  28.4393  28.4394  29.0414  29.0414
    30.7304  36.1820  36.2207  37.1772  37.1772  37.4252  40.3225  40.3226
    41.2620  42.7847  43.5824  45.2590  46.5232  50.0565  50.4682  53.3838
    53.7501  55.4190  55.4190  56.3418

          k =-0.0476-0.0000 0.0952 (   624 PWs)   bands (ev):

     7.1585   9.9961  10.9100  11.0285  11.4245  11.4571  11.4987  12.3335
    12.7121  12.8814  13.0763  13.1164  13.2972  13.6194  14.0428  14.1286
    14.1989  14.2853  14.3146  14.7887  14.7979  15.1889  18.4047  20.8382
    22.3339  24.9001  25.7152  26.7288  27.5932  29.7816  30.0288  30.0920
    31.1829  33.8738  34.5816  37.8000  38.7505  40.4184  40.5935  40.9571
    41.2003  44.2129  45.3360  47.2229  47.7973  48.6652  49.9791  51.3524
    52.9986  53.2612  55.2011  56.6717

          k =-0.0952 0.0000 0.0952 (   618 PWs)   bands (ev):

     8.1097  10.6354  10.6354  11.3931  11.4753  11.7141  11.7141  12.2354
    12.3826  12.3826  12.5563  12.9550  13.4416  13.5155  13.8145  13.9541
    13.9541  14.3188  14.3188  14.5090  14.5865  16.3337  16.3337  19.6591
    22.3830  25.4211  27.0061  27.0062  28.0616  28.0616  31.1853  31.8003
    31.8003  31.8729  33.7272  36.9506  41.5397  41.9456  41.9457  43.1991
    43.3687  43.9004  43.9005  47.4072  47.4581  48.6278  48.6278  51.8376
    52.1554  52.2273  53.5680  55.3530

          k = 0.0476-0.0476 0.0476 (   609 PWs)   bands (ev):

     6.4765  10.5811  10.5811  10.5811  11.2422  11.2422  11.2422  12.5919
    13.0458  13.0458  13.4362  13.4362  13.4362  13.9071  13.9071  14.1998
    14.1999  14.1999  14.8631  14.8631  14.8631  17.4178  17.4178  17.4178
    25.5163  25.5164  25.5164  26.8303  26.8303  26.8303  31.2585  31.2586
    31.2587  33.6204  36.3425  36.3426  36.3427  39.1632  41.2765  41.2767
    42.9867  42.9868  42.9868  46.5862  47.6991  47.6993  51.9253  51.9254
    55.2871  55.2872  55.2873  55.6762

          k = 0.0476-0.0476 0.0952 (   618 PWs)   bands (ev):

     7.4750  10.1951  11.0416  11.0416  11.4845  11.4845  11.5403  12.3438
    12.7134  12.7134  12.8796  13.0775  13.1678  13.8115  13.8460  13.9087
    13.9088  14.1835  14.7507  14.7804  14.7804  15.4723  18.7485  18.7485
    22.9737  22.9738  26.8256  27.4566  27.4567  30.5004  30.5005  30.9276
    31.1036  32.7664  36.7994  37.7511  38.0078  38.9014  38.9015  42.4521
    43.6750  44.5727  47.1598  47.1599  48.0213  49.1233  50.2921  50.2922
    50.8054  53.0471  53.1408  55.8898

          k =-0.0952 0.0476 0.0476 (   618 PWs)   bands (ev):

     7.4750  10.1951  11.0416  11.0416  11.4845  11.4845  11.5403  12.3438
    12.7134  12.7134  12.8796  13.0775  13.1679  13.8115  13.8460  13.9087
    13.9088  14.1835  14.7507  14.7804  14.7804  15.4723  18.7485  18.7485
    22.9738  22.9738  26.8255  27.4567  27.4567  30.5004  30.5004  30.9276
    31.1036  32.7666  36.7995  37.7512  38.0079  38.9014  38.9015  42.4521
    43.6749  44.5725  47.1599  47.1600  48.0212  49.1233  50.2922  50.2922
    50.8054  53.0472  53.1409  55.8899

          k = 0.0476-0.0476-0.1428 (   616 PWs)   bands (ev):

     8.9181   8.9191  11.4703  11.4703  11.5382  11.5382  11.9511  11.9527
    12.3299  12.3299  12.8586  12.8604  13.4320  13.4325  13.7173  13.7173
    14.3350  14.3362  14.4994  14.4995  14.7325  14.7325  19.8285  19.8285
    21.5058  21.5058  28.3855  28.3856  28.6533  28.6538  29.1101  29.1101
    35.0810  35.0826  35.4564  35.4599  38.2530  38.2564  42.2663  42.2665
    44.9351  44.9372  45.4506  45.4507  49.4888  49.4914  50.9512  50.9521
    52.3216  52.3218  54.0176  54.0177

          k = 0.0952-0.0476 0.0952 (   617 PWs)   bands (ev):

     8.3619  10.6436  10.6436  11.1560  11.6508  11.7922  11.7922  12.3201
    12.5267  12.5267  12.6519  12.9666  13.1166  13.5717  13.5717  13.5740
    13.9362  14.4986  14.6478  14.6478  14.6646  16.4122  16.4122  18.9473
    21.2036  24.1797  24.1798  28.1709  28.2459  31.2647  31.2647  32.2846
    32.2846  34.1436  35.3389  37.0115  39.4186  39.4186  40.1500  43.2427
    43.8164  44.8163  46.5478  46.5479  49.3522  49.3523  50.4426  50.6798
    50.9977  51.7976  52.4822  52.9496

          k =-0.0952 0.0476 0.0952 (   617 PWs)   bands (ev):

     8.3619  10.6436  10.6436  11.1560  11.6508  11.7922  11.7922  12.3200
    12.5267  12.5267  12.6519  12.9666  13.1166  13.5717  13.5717  13.5739
    13.9362  14.4986  14.6478  14.6478  14.6646  16.4122  16.4122  18.9474
    21.2037  24.1797  24.1798  28.1709  28.2459  31.2647  31.2648  32.2846
    32.2847  34.1434  35.3390  37.0114  39.4186  39.4187  40.1499  43.2427
    43.8163  44.8162  46.5479  46.5479  49.3522  49.3523  50.4425  50.6797
    50.9978  51.7974  52.4823  52.9496

          k = 0.0952-0.0476-0.1428 (   624 PWs)   bands (ev):

     9.5833   9.5840  11.0074  11.0077  11.9121  11.9123  12.1524  12.1538
    12.5066  12.5072  12.6944  12.6956  13.2461  13.2464  13.4279  13.4281
    14.2558  14.2565  14.5551  14.5556  15.1062  15.1064  17.6488  17.6496
    22.1762  22.1768  25.9260  25.9264  29.6021  29.6027  33.1662  33.1663
    33.3938  33.3943  36.9902  36.9940  40.1980  40.1988  40.5490  40.5498
    45.2706  45.2709  45.7681  45.7701  47.7735  47.7746  50.7162  50.7177
    51.8252  51.8260  54.1117  54.1140

          k = 0.0952-0.0952 0.0952 (   627 PWs)   bands (ev):

     9.0272  10.5952  10.5952  10.5952  12.1084  12.1084  12.1084  12.5877
    12.8061  12.8061  12.8061  12.9336  12.9337  13.2079  13.2079  13.2079
    14.3780  14.3780  14.7909  14.7909  14.7909  16.6630  16.6630  16.6630
    21.8067  21.8068  21.8068  25.4379  32.6149  32.6150  32.6150  35.3795
    35.3795  35.3797  37.3620  37.3621  37.3622  37.6831  40.1215  40.1216
    44.5451  44.5452  47.8881  48.1069  48.1069  48.1070  48.2375  48.2375
    48.2377  52.5826  52.5827  52.5827

          k = 0.0952-0.0952-0.1428 (   622 PWs)   bands (ev):

     9.8527   9.8530  10.5548  10.5548  12.3015  12.3015  12.6156  12.6165
    12.8635  12.8647  12.9676  12.9677  13.0098  13.0098  13.0749  13.0750
    14.6923  14.6924  14.7198  14.7198  14.9179  14.9181  16.8517  16.8517
    20.8763  20.8764  23.3172  23.3176  33.4910  33.4911  34.7886  34.7887
    36.2854  36.2872  37.3967  37.3975  39.1562  39.1589  39.4882  39.4884
    44.7734  44.7735  44.9691  44.9704  46.1198  46.1202  48.6045  48.6045
    49.7677  49.7682  53.2131  53.2132

     the Fermi energy is    14.5350 ev

!    total energy              =    -343.62854207 Ry
     Harris-Foulkes estimate   =    -343.62854206 Ry
     estimated scf accuracy    <          1.6E-11 Ry

     The total energy is the sum of the following terms:

     one-electron contribution =      -6.08236219 Ry
     hartree contribution      =      60.25729935 Ry
     xc contribution           =    -120.52146919 Ry
     ewald contribution        =    -277.23343753 Ry
     Dispersion Correction     =      -0.04798671 Ry
     smearing contrib. (-TS)   =      -0.00058580 Ry

     total magnetization       =     2.83 Bohr mag/cell
     absolute magnetization    =     3.25 Bohr mag/cell

     convergence has been achieved in  11 iterations

     Forces acting on atoms (Ry/au):

     atom    1 type  1   force =    -0.00011823   -0.00011823    0.00011806
     atom    2 type  1   force =     0.00011839    0.00011839    0.00011839
     atom    3 type  1   force =    -0.00011823    0.00011806   -0.00011823
     atom    4 type  1   force =     0.00011806   -0.00011823   -0.00011823

     Total force =     0.000410     Total SCF correction =     0.000007


     entering subroutine stress ...

          total   stress  (Ry/bohr**3)                   (kbar)     P=    0.50
   0.00000337  -0.00000002  -0.00000002          0.50     -0.00     -0.00
  -0.00000002   0.00000337  -0.00000002         -0.00      0.50     -0.00
  -0.00000002  -0.00000002   0.00000337         -0.00     -0.00      0.50


     bfgs converged in   4 scf cycles and   3 bfgs steps
     (criteria: energy <  1.0E-04, force <  1.0E-03, cell <  5.0E-01)

     End of BFGS Geometry Optimization

     Final enthalpy =    -343.6285420718 Ry
Begin final coordinates
     new unit-cell volume =    289.48221 a.u.^3 (    42.89684 Ang^3 )

CELL_PARAMETERS (alat=  1.88972590)
   3.500594545   0.000004462   0.000004462
   0.000004462   3.500594545   0.000004462
   0.000004462   0.000004462   3.500594545

ATOMIC_POSITIONS (alat)
Ni1      1.754378458   1.754378458   0.003696996
Ni1      0.003691349   0.003691349   0.003691349
Ni1      1.754378458   0.003696996   1.754378458
Ni1      0.003696996   1.754378458   1.754378458
End final coordinates



     A final scf calculation at the relaxed structure.
     The G-vectors are recalculated for the final unit cell
     Results may differ from those at the preceding step.

     G-vector sticks info
     --------------------
     sticks:   dense  smooth     PW     G-vecs:    dense   smooth      PW
     Sum        1389     349    121                39127     4945     949

     Generating pointlists ...

     Title: 
     Ni-ferro-mag                                                               


     bravais-lattice index     =            0
     lattice parameter (alat)  =       1.8897  a.u.
     unit-cell volume          =     289.4822 (a.u.)^3
     number of atoms/cell      =            4
     number of atomic types    =            1
     number of electrons       =        40.00
     number of Kohn-Sham states=           52
     kinetic-energy cutoff     =      25.0000  Ry
     charge density cutoff     =     400.0000  Ry
     convergence threshold     =      1.0E-10
     mixing beta               =       0.2000
     number of iterations used =            8  plain     mixing
     Exchange-correlation      =  SLA  PW   PBE  PBE ( 1  4  3  4 0 0)

     celldm(1)=   1.889726  celldm(2)=   0.000000  celldm(3)=   0.000000
     celldm(4)=   0.000000  celldm(5)=   0.000000  celldm(6)=   0.000000

     crystal axes: (cart. coord. in units of alat)
               a(1) = (   3.500595   0.000004   0.000004 )  
               a(2) = (   0.000004   3.500595   0.000004 )  
               a(3) = (   0.000004   0.000004   3.500595 )  

     reciprocal axes: (cart. coord. in units 2 pi/alat)
               b(1) = (  0.285666 -0.000000 -0.000000 )  
               b(2) = ( -0.000000  0.285666 -0.000000 )  
               b(3) = ( -0.000000 -0.000000  0.285666 )  


     PseudoPot. # 1 for Ni read from file:
     /home/eliot/pseudo/Ni.pbe-nd-rrkjus.UPF
     MD5 check sum: 8081f0a005c9a5470caab1a58e82ecb2
     Pseudo is Ultrasoft + core correction, Zval = 10.0
     Generated by new atomic code, or converted to UPF format
     Using radial grid of 1203 points,  6 beta functions with: 
                l(1) =   0
                l(2) =   0
                l(3) =   1
                l(4) =   1
                l(5) =   2
                l(6) =   2
     Q(r) pseudized with 0 coefficients 


     atomic species   valence    mass     pseudopotential
        Ni1           10.00    58.69340     Ni( 1.00)

     Starting magnetic structure 
     atomic species   magnetization
        Ni1          0.500

      6 Sym. Ops. (no inversion) found



   Cartesian axes

     site n.     atom                  positions (alat units)
         1           Ni1 tau(   1) = (   1.7543785   1.7543785   0.0036970  )
         2           Ni1 tau(   2) = (   0.0036913   0.0036913   0.0036913  )
         3           Ni1 tau(   3) = (   1.7543785   0.0036970   1.7543785  )
         4           Ni1 tau(   4) = (   0.0036970   1.7543785   1.7543785  )

     number of k points=    32  Methfessel-Paxton smearing, width (Ry)=  0.0500
                       cart. coord. in units 2pi/alat
        k(    1) = (   0.0000000   0.0000000   0.0000000), wk =   0.0046296
        k(    2) = (  -0.0000001  -0.0000001   0.0476110), wk =   0.0277778
        k(    3) = (  -0.0000001  -0.0000001   0.0952219), wk =   0.0277778
        k(    4) = (   0.0000002   0.0000002  -0.1428329), wk =   0.0138889
        k(    5) = (  -0.0000001   0.0476109   0.0476109), wk =   0.0277778
        k(    6) = (  -0.0000002   0.0476108   0.0952219), wk =   0.0555556
        k(    7) = (   0.0000001   0.0476111  -0.1428329), wk =   0.0555556
        k(    8) = (  -0.0000002   0.0952218   0.0952218), wk =   0.0277778
        k(    9) = (   0.0000001   0.0952221  -0.1428330), wk =   0.0555556
        k(   10) = (   0.0000004  -0.1428327  -0.1428327), wk =   0.0138889
        k(   11) = (   0.0476108   0.0476108   0.0476108), wk =   0.0092593
        k(   12) = (   0.0476108   0.0476108   0.0952218), wk =   0.0277778
        k(   13) = (   0.0476111   0.0476111  -0.1428330), wk =   0.0277778
        k(   14) = (   0.0476107   0.0952217   0.0952217), wk =   0.0277778
        k(   15) = (   0.0476110   0.0952220  -0.1428331), wk =   0.0555556
        k(   16) = (   0.0476113  -0.1428328  -0.1428328), wk =   0.0277778
        k(   17) = (   0.0952217   0.0952217   0.0952217), wk =   0.0092593
        k(   18) = (   0.0952220   0.0952220  -0.1428331), wk =   0.0277778
        k(   19) = (   0.0952223  -0.1428328  -0.1428328), wk =   0.0277778
        k(   20) = (  -0.1428325  -0.1428325  -0.1428325), wk =   0.0046296
        k(   21) = (  -0.0476110   0.0000000   0.0476110), wk =   0.0277778
        k(   22) = (  -0.0476111  -0.0000001   0.0952220), wk =   0.0555556
        k(   23) = (  -0.0952220   0.0000000   0.0952220), wk =   0.0277778
        k(   24) = (   0.0476110  -0.0476111   0.0476110), wk =   0.0277778
        k(   25) = (   0.0476109  -0.0476111   0.0952219), wk =   0.0555556
        k(   26) = (  -0.0952220   0.0476110   0.0476110), wk =   0.0277778
        k(   27) = (   0.0476112  -0.0476108  -0.1428329), wk =   0.0277778
        k(   28) = (   0.0952219  -0.0476112   0.0952219), wk =   0.0277778
        k(   29) = (  -0.0952221   0.0476110   0.0952220), wk =   0.0555556
        k(   30) = (   0.0952222  -0.0476109  -0.1428329), wk =   0.0555556
        k(   31) = (   0.0952219  -0.0952222   0.0952219), wk =   0.0277778
        k(   32) = (   0.0952222  -0.0952219  -0.1428329), wk =   0.0277778

     Dense  grid:    39127 G-vectors     FFT dimensions: (  45,  45,  45)

     Smooth grid:     4945 G-vectors     FFT dimensions: (  24,  24,  24)

     Largest allocated arrays     est. size (Mb)     dimensions
        Kohn-Sham Wavefunctions         0.50 Mb     (     627,   52)
        NL pseudopotentials             0.69 Mb     (     627,   72)
        Each V/rho on FFT grid          2.78 Mb     (   91125,   2)
        Each G-vector array             0.30 Mb     (   39127)
        G-vector shells                 0.02 Mb     (    2639)
     Largest temporary arrays     est. size (Mb)     dimensions
        Auxiliary wavefunctions         1.99 Mb     (     627,  208)
        Each subspace H/S matrix        0.66 Mb     (     208,  208)
        Each <psi_i|beta_j> matrix      0.06 Mb     (      72,   52)
        Arrays for rho mixing          11.12 Mb     (   91125,    8)

     Check: negative/imaginary core charge=   -0.000005    0.000000

     Initial potential from superposition of free atoms

     starting charge   39.99816, renormalised to   40.00000
     Starting wfc are   24 randomized atomic wfcs +   28 random wfc

     Writing output data file Ni-ferromag.save

     total cpu time spent up to now is      828.6 secs

     Self-consistent Calculation

     iteration #  1     ecut=    25.00 Ry     beta=0.20
     Davidson diagonalization with overlap
     ethr =  1.00E-06,  avg # of iterations = 12.2

     total cpu time spent up to now is      890.9 secs

     total energy              =    -342.90379869 Ry
     Harris-Foulkes estimate   =    -343.17447786 Ry
     estimated scf accuracy    <       2.41103115 Ry

     total magnetization       =     6.87 Bohr mag/cell
     absolute magnetization    =     6.87 Bohr mag/cell

     iteration #  2     ecut=    25.00 Ry     beta=0.20
     Davidson diagonalization with overlap
     ethr =  6.03E-03,  avg # of iterations =  1.0

     total cpu time spent up to now is      903.0 secs

     total energy              =    -343.20480009 Ry
     Harris-Foulkes estimate   =    -343.03785819 Ry
     estimated scf accuracy    <       0.77993370 Ry

     total magnetization       =     5.74 Bohr mag/cell
     absolute magnetization    =     5.83 Bohr mag/cell

     iteration #  3     ecut=    25.00 Ry     beta=0.20
     Davidson diagonalization with overlap
     ethr =  1.95E-03,  avg # of iterations =  1.3

     negative rho (up, down):  0.000E+00 1.416E-03

     total cpu time spent up to now is      915.3 secs

     total energy              =    -343.51497736 Ry
     Harris-Foulkes estimate   =    -343.27868882 Ry
     estimated scf accuracy    <       0.35782727 Ry

     total magnetization       =     4.50 Bohr mag/cell
     absolute magnetization    =     4.81 Bohr mag/cell

     iteration #  4     ecut=    25.00 Ry     beta=0.20
     Davidson diagonalization with overlap
     ethr =  8.95E-04,  avg # of iterations =  1.3

     negative rho (up, down):  0.000E+00 9.066E-04

     total cpu time spent up to now is      927.6 secs

     total energy              =    -343.60892653 Ry
     Harris-Foulkes estimate   =    -343.62616629 Ry
     estimated scf accuracy    <       0.11051328 Ry

     total magnetization       =     2.59 Bohr mag/cell
     absolute magnetization    =     3.20 Bohr mag/cell

     iteration #  5     ecut=    25.00 Ry     beta=0.20
     Davidson diagonalization with overlap
     ethr =  2.76E-04,  avg # of iterations =  1.0

     negative rho (up, down):  0.000E+00 5.010E-04

     total cpu time spent up to now is      939.7 secs

     total energy              =    -343.61363550 Ry
     Harris-Foulkes estimate   =    -343.61495802 Ry
     estimated scf accuracy    <       0.02328106 Ry

     total magnetization       =     2.63 Bohr mag/cell
     absolute magnetization    =     3.23 Bohr mag/cell

     iteration #  6     ecut=    25.00 Ry     beta=0.20
     Davidson diagonalization with overlap
     ethr =  5.82E-05,  avg # of iterations =  1.9

     negative rho (up, down):  0.000E+00 1.554E-04

     total cpu time spent up to now is      952.6 secs

     total energy              =    -343.62133232 Ry
     Harris-Foulkes estimate   =    -343.61729034 Ry
     estimated scf accuracy    <       0.00087375 Ry

     total magnetization       =     2.70 Bohr mag/cell
     absolute magnetization    =     3.28 Bohr mag/cell

     iteration #  7     ecut=    25.00 Ry     beta=0.20
     Davidson diagonalization with overlap
     ethr =  2.18E-06,  avg # of iterations =  4.5

     negative rho (up, down):  0.000E+00 9.079E-05

     total cpu time spent up to now is      968.6 secs

     total energy              =    -343.62485582 Ry
     Harris-Foulkes estimate   =    -343.62315637 Ry
     estimated scf accuracy    <       0.00190786 Ry

     total magnetization       =     3.00 Bohr mag/cell
     absolute magnetization    =     3.47 Bohr mag/cell

     iteration #  8     ecut=    25.00 Ry     beta=0.20
     Davidson diagonalization with overlap
     ethr =  2.18E-06,  avg # of iterations =  1.0

     negative rho (up, down):  0.000E+00 1.246E-05

     total cpu time spent up to now is      980.7 secs

     total energy              =    -343.62630364 Ry
     Harris-Foulkes estimate   =    -343.62515744 Ry
     estimated scf accuracy    <       0.00013204 Ry

     total magnetization       =     2.89 Bohr mag/cell
     absolute magnetization    =     3.34 Bohr mag/cell

     iteration #  9     ecut=    25.00 Ry     beta=0.20
     Davidson diagonalization with overlap
     ethr =  3.30E-07,  avg # of iterations =  1.0

     negative rho (up, down):  0.000E+00 4.307E-06

     total cpu time spent up to now is      992.8 secs

     total energy              =    -343.62685600 Ry
     Harris-Foulkes estimate   =    -343.62630537 Ry
     estimated scf accuracy    <       0.00009270 Ry

     total magnetization       =     2.89 Bohr mag/cell
     absolute magnetization    =     3.33 Bohr mag/cell

     iteration # 10     ecut=    25.00 Ry     beta=0.20
     Davidson diagonalization with overlap
     ethr =  2.32E-07,  avg # of iterations =  1.0

     total cpu time spent up to now is     1004.9 secs

     total energy              =    -343.62744728 Ry
     Harris-Foulkes estimate   =    -343.62692020 Ry
     estimated scf accuracy    <       0.00002712 Ry

     total magnetization       =     2.84 Bohr mag/cell
     absolute magnetization    =     3.26 Bohr mag/cell

     iteration # 11     ecut=    25.00 Ry     beta=0.20
     Davidson diagonalization with overlap
     ethr =  6.78E-08,  avg # of iterations =  1.0

     total cpu time spent up to now is     1016.9 secs

     total energy              =    -343.62780495 Ry
     Harris-Foulkes estimate   =    -343.62745078 Ry
     estimated scf accuracy    <       0.00000106 Ry

     total magnetization       =     2.84 Bohr mag/cell
     absolute magnetization    =     3.26 Bohr mag/cell

     iteration # 12     ecut=    25.00 Ry     beta=0.20
     Davidson diagonalization with overlap
     ethr =  2.66E-09,  avg # of iterations =  1.0

     total cpu time spent up to now is     1029.1 secs

     total energy              =    -343.62802542 Ry
     Harris-Foulkes estimate   =    -343.62780503 Ry
     estimated scf accuracy    <       0.00000197 Ry

     total magnetization       =     2.84 Bohr mag/cell
     absolute magnetization    =     3.26 Bohr mag/cell

     iteration # 13     ecut=    25.00 Ry     beta=0.20
     Davidson diagonalization with overlap
     ethr =  2.66E-09,  avg # of iterations =  1.0

     total cpu time spent up to now is     1041.1 secs

     total energy              =    -343.62814718 Ry
     Harris-Foulkes estimate   =    -343.62802547 Ry
     estimated scf accuracy    <       0.00000214 Ry

     total magnetization       =     2.84 Bohr mag/cell
     absolute magnetization    =     3.26 Bohr mag/cell

     iteration # 14     ecut=    25.00 Ry     beta=0.20
     Davidson diagonalization with overlap
     ethr =  2.66E-09,  avg # of iterations =  1.9

     total cpu time spent up to now is     1055.0 secs

     total energy              =    -343.62825119 Ry
     Harris-Foulkes estimate   =    -343.62814988 Ry
     estimated scf accuracy    <       0.00000057 Ry

     total magnetization       =     2.83 Bohr mag/cell
     absolute magnetization    =     3.24 Bohr mag/cell

     iteration # 15     ecut=    25.00 Ry     beta=0.20
     Davidson diagonalization with overlap
     ethr =  1.42E-09,  avg # of iterations =  1.0

     total cpu time spent up to now is     1067.3 secs

     total energy              =    -343.62831284 Ry
     Harris-Foulkes estimate   =    -343.62825158 Ry
     estimated scf accuracy    <       0.00000008 Ry

     total magnetization       =     2.83 Bohr mag/cell
     absolute magnetization    =     3.25 Bohr mag/cell

     iteration # 16     ecut=    25.00 Ry     beta=0.20
     Davidson diagonalization with overlap
     ethr =  2.03E-10,  avg # of iterations =  1.5

     total cpu time spent up to now is     1080.7 secs

     total energy              =    -343.62834938 Ry
     Harris-Foulkes estimate   =    -343.62831294 Ry
     estimated scf accuracy    <       0.00000005 Ry

     total magnetization       =     2.83 Bohr mag/cell
     absolute magnetization    =     3.25 Bohr mag/cell

     iteration # 17     ecut=    25.00 Ry     beta=0.20
     Davidson diagonalization with overlap
     ethr =  1.21E-10,  avg # of iterations =  1.5

     total cpu time spent up to now is     1094.0 secs

     total energy              =    -343.62837400 Ry
     Harris-Foulkes estimate   =    -343.62834944 Ry
     estimated scf accuracy    <       0.00000002 Ry

     total magnetization       =     2.83 Bohr mag/cell
     absolute magnetization    =     3.25 Bohr mag/cell

     iteration # 18     ecut=    25.00 Ry     beta=0.20
     Davidson diagonalization with overlap
     ethr =  5.02E-11,  avg # of iterations =  1.0

     total cpu time spent up to now is     1106.3 secs

     total energy              =    -343.62838953 Ry
     Harris-Foulkes estimate   =    -343.62837400 Ry
     estimated scf accuracy    <          2.4E-10 Ry

     total magnetization       =     2.83 Bohr mag/cell
     absolute magnetization    =     3.25 Bohr mag/cell

     iteration # 19     ecut=    25.00 Ry     beta=0.20
     Davidson diagonalization with overlap
     ethr =  5.89E-13,  avg # of iterations =  2.4

     total cpu time spent up to now is     1122.0 secs

     total energy              =    -343.62839947 Ry
     Harris-Foulkes estimate   =    -343.62838953 Ry
     estimated scf accuracy    <          1.0E-10 Ry

     total magnetization       =     2.83 Bohr mag/cell
     absolute magnetization    =     3.25 Bohr mag/cell

     iteration # 20     ecut=    25.00 Ry     beta=0.20
     Davidson diagonalization with overlap
     ethr =  2.61E-13,  avg # of iterations =  2.0

     total cpu time spent up to now is     1137.2 secs

     total energy              =    -343.62840583 Ry
     Harris-Foulkes estimate   =    -343.62839947 Ry
     estimated scf accuracy    <          2.3E-10 Ry

     total magnetization       =     2.83 Bohr mag/cell
     absolute magnetization    =     3.25 Bohr mag/cell

     iteration # 21     ecut=    25.00 Ry     beta=0.20
     Davidson diagonalization with overlap
     ethr =  2.61E-13,  avg # of iterations =  2.0

     total cpu time spent up to now is     1152.5 secs

     total energy              =    -343.62840989 Ry
     Harris-Foulkes estimate   =    -343.62840583 Ry
     estimated scf accuracy    <          2.6E-10 Ry

     total magnetization       =     2.83 Bohr mag/cell
     absolute magnetization    =     3.25 Bohr mag/cell

     iteration # 22     ecut=    25.00 Ry     beta=0.20
     Davidson diagonalization with overlap
     ethr =  2.61E-13,  avg # of iterations =  2.0

     Magnetic moment per site:
     atom:    1    charge:    3.0537    magn:    0.3400    constr:    0.0000
     atom:    2    charge:    3.0512    magn:    0.3397    constr:    0.0000
     atom:    3    charge:    3.0537    magn:    0.3400    constr:    0.0000
     atom:    4    charge:    3.0537    magn:    0.3400    constr:    0.0000

     total cpu time spent up to now is     1167.7 secs

     End of self-consistent calculation

 ------ SPIN UP ------------


          k = 0.0000 0.0000 0.0000 (   619 PWs)   bands (ev):

     5.4559   9.7442   9.7443   9.7443  10.1990  10.1990  10.1990  11.9835
    11.9835  11.9835  13.1661  13.1661  13.8868  13.8868  13.8868  13.9774
    13.9774  13.9774  13.9774  13.9774  13.9774  17.1132  17.1132  17.1132
    23.8737  23.8738  23.8738  29.6288  29.6288  29.6288  29.6289  29.6289
    29.6289  34.7278  34.7278  34.7278  38.0800  38.0801  38.0801  38.5556
    42.5483  42.5485  42.5485  46.1696  46.1698  46.1698  48.2558  55.2765
    55.2766  55.2766  57.9118  59.6907

          k =-0.0000-0.0000 0.0476 (   623 PWs)   bands (ev):

     5.8227   9.7662   9.9290   9.9290  10.3099  10.3257  10.3257  11.8545
    12.0864  12.0864  13.0480  13.2130  13.3203  13.3203  13.7328  13.7328
    13.8008  13.8008  13.8371  13.9777  13.9777  15.5121  18.0751  18.0751
    23.9692  23.9693  26.1236  27.8776  27.8776  28.5063  28.5063  30.1903
    30.1904  34.8454  36.8990  36.8990  37.9282  38.2101  40.0386  40.0387
    40.3322  40.3323  40.9919  47.5868  48.2185  48.2186  49.2465  51.6630
    56.3804  56.3804  56.7742  56.7742

          k =-0.0000-0.0000 0.0952 (   606 PWs)   bands (ev):

     6.8736   9.5373  10.3672  10.3672  10.6182  10.7100  10.7100  11.5092
    12.2611  12.2611  12.3841  12.3841  12.7591  13.3423  13.3461  13.3529
    13.3529  13.3605  13.3605  13.7024  13.9782  13.9782  20.0426  20.0426
    24.2851  24.2852  25.1013  25.1013  26.7402  26.7402  30.4274  31.7737
    31.7739  35.2038  36.8017  37.1068  37.1069  38.4217  38.7631  40.9455
    40.9455  44.2083  44.2084  44.2456  51.0210  51.1404  51.1405  51.1544
    51.1544  55.1432  56.1730  56.1730

          k = 0.0000 0.0000-0.1428 (   610 PWs)   bands (ev):

     8.3742   8.3753  10.6437  10.6437  11.0538  11.0554  11.3578  11.3578
    11.3594  11.3594  12.5801  12.5824  12.8373  12.8373  12.8385  12.8385
    13.1034  13.1034  13.5206  13.5215  13.9784  13.9784  22.4311  22.4311
    22.4339  22.4339  24.6550  24.6550  25.7970  25.7970  34.1566  34.1567
    34.1586  34.1587  34.9784  34.9826  35.8499  35.8509  40.3572  40.3639
    45.7495  45.7495  45.7553  45.7553  47.7123  47.7124  52.4334  52.4334
    54.2671  54.2672  54.2725  54.2725

          k =-0.0000 0.0476 0.0476 (   611 PWs)   bands (ev):

     6.1808   9.9653   9.9653  10.0926  10.4275  10.4275  10.4415  11.7943
    12.1315  12.1486  12.9729  13.0234  13.0317  13.0318  13.2084  13.6037
    13.7287  13.7287  13.7995  13.7995  13.8612  16.4478  16.4478  18.8470
    23.9615  25.1597  26.3109  26.3109  28.3567  28.3567  29.0003  29.0004
    30.7196  36.1171  36.1915  37.1080  37.1080  37.4083  40.2051  40.2052
    41.3433  42.6972  43.6140  45.3157  46.4628  49.8981  50.5464  53.2255
    53.7796  55.4664  55.4664  56.4029

          k =-0.0000 0.0476 0.0952 (   608 PWs)   bands (ev):

     7.2039   9.7739  10.4484  10.4976  10.7102  10.7634  10.7826  11.5123
    12.0216  12.1619  12.2778  12.3958  12.4210  12.8558  13.2787  13.3579
    13.3643  13.3882  13.5408  13.7962  13.8022  14.4801  18.0659  20.6341
    22.1354  24.6726  25.5634  26.5940  27.4677  29.6739  29.9675  30.0220
    31.0862  33.7960  34.5393  37.7595  38.7139  40.4675  40.6461  40.8376
    41.2011  44.1303  45.1313  47.1585  47.8752  48.6830  49.9953  51.4379
    53.0492  53.3519  54.9864  57.1978

          k = 0.0000 0.0476-0.1428 (   610 PWs)   bands (ev):

     8.6561   8.6571  10.7967  10.7968  11.1057  11.1073  11.2253  11.2266
    11.3724  11.3740  12.2058  12.2075  12.8381  12.8393  13.0682  13.0688
    13.0883  13.0884  13.7051  13.7051  13.7936  13.7939  19.9369  19.9384
    22.9317  22.9342  25.4735  25.4754  28.3752  28.3759  31.5663  31.5672
    32.0887  32.0893  35.9009  35.9057  38.9068  38.9071  42.3027  42.3069
    43.1993  43.2008  46.0266  46.0322  50.1860  50.1909  50.4508  50.4531
    52.7084  52.7103  53.3525  53.3540

          k =-0.0000 0.0952 0.0952 (   604 PWs)   bands (ev):

     8.1317  10.3626  10.3626  10.7299  10.9792  10.9792  10.9924  11.4423
    11.6902  11.6902  11.8452  12.1645  12.5270  12.7693  13.0619  13.2175
    13.2175  13.3585  13.3586  13.5292  13.7449  15.7286  15.7287  19.3514
    22.1638  25.2233  26.8393  26.8394  27.9604  27.9604  31.0545  31.7115
    31.7115  31.8055  33.6757  36.9184  41.6033  41.9642  41.9642  43.1651
    43.4866  43.8577  43.8577  47.2859  47.4292  48.5829  48.5829  51.7914
    52.2829  52.2839  53.3662  55.4504

          k = 0.0000 0.0952-0.1428 (   610 PWs)   bands (ev):

     9.3998   9.4007  10.8343  10.8353  11.2334  11.2349  11.2413  11.2414
    11.3912  11.3927  11.8991  11.9002  12.8751  12.8751  12.8756  12.8769
    12.9420  12.9422  13.3933  13.3940  14.4080  14.4082  17.2617  17.2628
    24.2907  24.2927  26.2901  26.2917  28.7177  28.7186  29.6044  29.6046
    33.0216  33.0220  36.8644  36.8691  40.4445  40.4454  43.1322  43.1331
    43.3010  43.3015  46.8285  46.8330  48.0266  48.0293  50.5229  50.5254
    51.8849  51.8889  53.6626  53.6636

          k = 0.0000-0.1428-0.1428 (   624 PWs)   bands (ev):

    10.2539  10.2546  10.2546  10.2553  11.3526  11.3540  11.3540  11.3554
    11.6629  11.6633  11.6634  11.6637  12.7284  12.7285  12.7285  12.7286
    13.0429  13.0440  13.0440  13.0452  15.4797  15.4802  15.4802  15.4808
    26.2684  26.2698  26.2698  26.2711  27.6426  27.6435  27.6436  27.6445
    37.9721  37.9734  37.9734  37.9747  38.5728  38.5743  38.5743  38.5758
    47.2602  47.2602  47.2603  47.2603  49.2911  49.2936  49.2937  49.2962
    51.9239  51.9241  51.9242  51.9244

          k = 0.0476 0.0476 0.0476 (   609 PWs)   bands (ev):

     6.5271  10.1267  10.1267  10.1267  10.5424  10.5424  10.5424  11.7592
    12.1684  12.1684  12.7266  12.7266  12.7266  13.1215  13.1215  13.3695
    13.3695  13.3695  13.9155  13.9155  13.9155  17.0766  17.0766  17.0766
    25.3848  25.3848  25.3848  26.6569  26.6570  26.6570  31.2366  31.2366
    31.2366  33.5539  36.2480  36.2480  36.2480  39.3191  41.2246  41.2246
    42.9022  42.9023  42.9023  46.6736  47.7426  47.7426  51.7590  51.7590
    55.3339  55.3340  55.3340  55.3395

          k = 0.0476 0.0476 0.0952 (   610 PWs)   bands (ev):

     7.5099   9.9328  10.5109  10.5109  10.8289  10.8568  10.8568  11.5490
    12.0120  12.0120  12.2081  12.2477  12.3083  12.9660  13.0368  13.1227
    13.1227  13.3619  13.8178  13.8178  13.8502  14.8423  18.4215  18.4215
    22.7634  22.7634  26.6814  27.3077  27.3077  30.4256  30.4256  30.8136
    31.0165  32.7199  36.7256  37.8459  37.9312  38.8718  38.8718  42.4457
    43.5946  44.5554  47.1161  47.1161  47.9806  49.1814  50.3056  50.3056
    50.7986  53.1190  53.1815  55.7764

          k = 0.0476 0.0476-0.1428 (   616 PWs)   bands (ev):

     8.8834   8.8844  10.8997  10.8997  10.9571  10.9571  11.2010  11.2025
    11.6168  11.6168  12.1098  12.1114  12.5821  12.5827  12.9543  12.9544
    13.5310  13.5321  13.6388  13.6391  13.7616  13.7616  19.5710  19.5710
    21.2018  21.2018  28.2707  28.2708  28.5113  28.5119  28.9952  28.9952
    35.0117  35.0133  35.4837  35.4870  38.1760  38.1794  42.2851  42.2852
    44.8479  44.8498  45.4622  45.4622  49.5684  49.5710  50.9975  50.9984
    52.2886  52.2886  53.8378  54.1477

          k = 0.0476 0.0952 0.0952 (   609 PWs)   bands (ev):

     8.3497  10.2515  10.2515  10.5384  11.1447  11.1912  11.1912  11.5942
    11.8075  11.8075  11.9409  12.1666  12.2931  12.7731  12.7731  12.7895
    13.0935  13.6503  13.7201  13.7353  13.7353  15.8590  15.8591  18.6724
    20.8598  23.9627  23.9627  28.0090  28.1182  31.2020  31.2021  32.1922
    32.1922  34.0888  35.3139  36.9864  39.4049  39.4049  40.2261  43.1292
    43.8251  44.8710  46.5542  46.5542  49.2986  49.2986  50.5113  50.6965
    51.0218  51.7253  52.4173  53.0228

          k = 0.0476 0.0952-0.1428 (   608 PWs)   bands (ev):

     9.4340   9.4346  10.4733  10.4735  11.3589  11.3590  11.5073  11.5085
    11.8140  11.8145  11.9349  11.9360  12.4427  12.4431  12.6542  12.6545
    13.3914  13.3919  13.6200  13.6205  14.3138  14.3140  17.2377  17.2386
    21.8760  21.8767  25.7259  25.7264  29.5022  29.5026  33.1098  33.1100
    33.3251  33.3255  36.9777  36.9815  40.2149  40.2157  40.5267  40.5274
    45.2839  45.2842  45.7782  45.7801  47.7937  47.7947  50.6787  50.6803
    51.8876  51.8885  54.0370  54.0382

          k = 0.0476-0.1428-0.1428 (   612 PWs)   bands (ev):

    10.0043  10.0045  10.0045  10.0048  11.7513  11.7516  11.7517  11.7520
    11.8378  11.8387  11.8387  11.8395  12.4138  12.4142  12.4142  12.4146
    13.3736  13.3743  13.3743  13.3750  15.3898  15.3903  15.3904  15.3909
    23.5117  23.5122  23.5122  23.5127  31.0417  31.0419  31.0419  31.0421
    38.2530  38.2541  38.2542  38.2553  38.4146  38.4159  38.4159  38.4173
    46.7447  46.7447  46.7448  46.7449  46.8526  46.8540  46.8540  46.8554
    54.9197  54.9208  54.9209  54.9220

          k = 0.0952 0.0952 0.0952 (   627 PWs)   bands (ev):

     8.8940  10.0861  10.0861  10.0861  11.5505  11.5505  11.5505  12.0658
    12.1273  12.1273  12.1273  12.1334  12.1334  12.4176  12.4176  12.4176
    13.4978  13.4978  13.8640  13.8640  13.8640  16.2364  16.2364  16.2364
    21.4681  21.4681  21.4681  25.2123  32.5687  32.5687  32.5687  35.3180
    35.3181  35.3181  37.3494  37.3494  37.3494  37.8544  40.0355  40.0355
    44.5363  44.5363  47.8735  48.1586  48.1586  48.1586  48.2364  48.2364
    48.2364  52.5518  52.5518  52.5518

          k = 0.0952 0.0952-0.1428 (   614 PWs)   bands (ev):

     9.5208   9.5210  10.0174  10.0174  11.6710  11.6710  11.9583  11.9592
    12.1763  12.1764  12.2970  12.2970  12.3100  12.3109  12.4109  12.4110
    13.7842  13.7843  13.7921  13.7921  14.2026  14.2026  16.5195  16.5196
    20.4395  20.4395  23.0276  23.0282  33.4835  33.4835  34.7024  34.7024
    36.3954  36.3970  37.3246  37.3254  39.0759  39.0786  39.5136  39.5136
    44.7472  44.7472  44.9933  44.9947  46.1119  46.1123  48.6448  48.6448
    49.7175  49.7180  53.1055  53.1055

          k = 0.0952-0.1428-0.1428 (   616 PWs)   bands (ev):

     9.6965   9.6965   9.6966   9.6966  11.9179  11.9181  11.9181  11.9184
    12.1083  12.1085  12.1086  12.1088  12.8582  12.8587  12.8587  12.8592
    13.7115  13.7119  13.7119  13.7123  15.0101  15.0107  15.0107  15.0114
    21.1529  21.1534  21.1534  21.1538  35.2239  35.2241  35.2242  35.2244
    38.2907  38.2914  38.2914  38.2921  39.0201  39.0208  39.0209  39.0215
    44.1855  44.1861  44.1862  44.1868  45.2527  45.2529  45.2529  45.2531
    50.5391  50.5394  50.5394  50.5397

          k =-0.1428-0.1428-0.1428 (   624 PWs)   bands (ev):

     9.5800   9.5800   9.5800   9.5800  11.9966  11.9966  11.9966  11.9967
    11.9967  11.9967  11.9967  11.9967  13.8399  13.8399  13.8399  13.8399
    13.8399  13.8399  13.8399  13.8399  14.3289  14.3290  14.3290  14.3290
    20.2723  20.2724  20.2724  20.2724  37.0105  37.0106  37.0106  37.0107
    39.6566  39.6566  39.6566  39.6567  39.6567  39.6567  39.6568  39.6568
    42.8945  42.8945  42.8945  42.8946  42.8946  42.8946  42.8946  42.8946
    48.8874  48.8874  48.8874  48.8874

          k =-0.0476 0.0000 0.0476 (   611 PWs)   bands (ev):

     6.1808   9.9653   9.9653  10.0926  10.4275  10.4275  10.4415  11.7944
    12.1315  12.1486  12.9729  13.0233  13.0317  13.0317  13.2084  13.6037
    13.7286  13.7286  13.7995  13.7995  13.8612  16.4478  16.4478  18.8470
    23.9615  25.1597  26.3109  26.3109  28.3566  28.3567  29.0003  29.0003
    30.7195  36.1170  36.1916  37.1080  37.1080  37.4084  40.2051  40.2052
    41.3432  42.6973  43.6139  45.3157  46.4627  49.8981  50.5465  53.2255
    53.7797  55.4665  55.4665  56.4029

          k =-0.0476-0.0000 0.0952 (   608 PWs)   bands (ev):

     7.2039   9.7739  10.4484  10.4976  10.7102  10.7634  10.7826  11.5123
    12.0216  12.1619  12.2778  12.3958  12.4210  12.8557  13.2787  13.3579
    13.3643  13.3882  13.5408  13.7962  13.8022  14.4801  18.0659  20.6341
    22.1355  24.6726  25.5634  26.5940  27.4677  29.6739  29.9674  30.0219
    31.0862  33.7961  34.5394  37.7595  38.7138  40.4674  40.6460  40.8376
    41.2011  44.1304  45.1313  47.1587  47.8752  48.6829  49.9954  51.4378
    53.0493  53.3520  54.9863  57.1978

          k =-0.0952 0.0000 0.0952 (   604 PWs)   bands (ev):

     8.1317  10.3626  10.3626  10.7300  10.9792  10.9792  10.9924  11.4423
    11.6901  11.6901  11.8452  12.1645  12.5270  12.7693  13.0619  13.2175
    13.2175  13.3586  13.3586  13.5292  13.7449  15.7286  15.7286  19.3515
    22.1638  25.2233  26.8393  26.8393  27.9604  27.9604  31.0546  31.7116
    31.7116  31.8055  33.6756  36.9183  41.6032  41.9642  41.9642  43.1650
    43.4865  43.8578  43.8578  47.2858  47.4291  48.5830  48.5830  51.7916
    52.2828  52.2839  53.3662  55.4505

          k = 0.0476-0.0476 0.0476 (   609 PWs)   bands (ev):

     6.5271  10.1267  10.1267  10.1267  10.5424  10.5424  10.5424  11.7593
    12.1684  12.1684  12.7266  12.7266  12.7266  13.1215  13.1215  13.3695
    13.3695  13.3695  13.9155  13.9155  13.9155  17.0766  17.0766  17.0766
    25.3848  25.3849  25.3849  26.6570  26.6570  26.6570  31.2365  31.2365
    31.2366  33.5541  36.2479  36.2479  36.2480  39.3190  41.2244  41.2246
    42.9023  42.9024  42.9024  46.6736  47.7425  47.7426  51.7589  51.7590
    55.3340  55.3340  55.3341  55.3395

          k = 0.0476-0.0476 0.0952 (   610 PWs)   bands (ev):

     7.5099   9.9328  10.5109  10.5109  10.8289  10.8568  10.8568  11.5490
    12.0120  12.0120  12.2081  12.2477  12.3083  12.9660  13.0368  13.1227
    13.1227  13.3619  13.8178  13.8178  13.8502  14.8423  18.4215  18.4215
    22.7634  22.7635  26.6814  27.3077  27.3077  30.4256  30.4257  30.8138
    31.0166  32.7198  36.7256  37.8458  37.9310  38.8716  38.8718  42.4456
    43.5948  44.5554  47.1161  47.1162  47.9805  49.1813  50.3056  50.3057
    50.7986  53.1191  53.1815  55.7763

          k =-0.0952 0.0476 0.0476 (   610 PWs)   bands (ev):

     7.5099   9.9328  10.5109  10.5109  10.8289  10.8568  10.8568  11.5490
    12.0120  12.0120  12.2081  12.2477  12.3083  12.9660  13.0368  13.1227
    13.1227  13.3619  13.8178  13.8178  13.8502  14.8423  18.4215  18.4215
    22.7635  22.7635  26.6813  27.3077  27.3077  30.4255  30.4255  30.8137
    31.0166  32.7200  36.7257  37.8459  37.9311  38.8717  38.8717  42.4456
    43.5947  44.5552  47.1163  47.1163  47.9804  49.1813  50.3056  50.3057
    50.7986  53.1191  53.1816  55.7764

          k = 0.0476-0.0476-0.1428 (   616 PWs)   bands (ev):

     8.8834   8.8844  10.8997  10.8997  10.9571  10.9571  11.2011  11.2025
    11.6167  11.6168  12.1098  12.1114  12.5821  12.5827  12.9543  12.9544
    13.5310  13.5321  13.6388  13.6391  13.7615  13.7615  19.5710  19.5710
    21.2018  21.2018  28.2707  28.2708  28.5114  28.5120  28.9952  28.9952
    35.0116  35.0132  35.4836  35.4869  38.1759  38.1794  42.2851  42.2852
    44.8481  44.8499  45.4621  45.4622  49.5684  49.5710  50.9974  50.9983
    52.2885  52.2887  53.8379  54.1477

          k = 0.0952-0.0476 0.0952 (   609 PWs)   bands (ev):

     8.3498  10.2515  10.2515  10.5384  11.1447  11.1912  11.1912  11.5942
    11.8075  11.8075  11.9409  12.1666  12.2931  12.7731  12.7731  12.7895
    13.0935  13.6503  13.7200  13.7353  13.7353  15.8590  15.8591  18.6724
    20.8597  23.9628  23.9628  28.0091  28.1183  31.2020  31.2021  32.1922
    32.1922  34.0888  35.3138  36.9864  39.4048  39.4048  40.2261  43.1292
    43.8251  44.8710  46.5542  46.5542  49.2987  49.2987  50.5114  50.6966
    51.0216  51.7254  52.4174  53.0229

          k =-0.0952 0.0476 0.0952 (   609 PWs)   bands (ev):

     8.3498  10.2515  10.2515  10.5384  11.1447  11.1912  11.1912  11.5942
    11.8075  11.8075  11.9409  12.1666  12.2931  12.7731  12.7731  12.7895
    13.0935  13.6503  13.7200  13.7353  13.7353  15.8590  15.8590  18.6724
    20.8598  23.9627  23.9628  28.0091  28.1182  31.2020  31.2021  32.1922
    32.1923  34.0887  35.3139  36.9863  39.4049  39.4050  40.2260  43.1291
    43.8250  44.8710  46.5543  46.5543  49.2987  49.2987  50.5113  50.6965
    51.0217  51.7252  52.4175  53.0229

          k = 0.0952-0.0476-0.1428 (   608 PWs)   bands (ev):

     9.4340   9.4346  10.4733  10.4735  11.3589  11.3590  11.5073  11.5085
    11.8140  11.8145  11.9349  11.9360  12.4427  12.4431  12.6542  12.6545
    13.3914  13.3919  13.6200  13.6205  14.3138  14.3140  17.2377  17.2386
    21.8759  21.8766  25.7260  25.7265  29.5022  29.5027  33.1097  33.1099
    33.3251  33.3255  36.9777  36.9815  40.2148  40.2157  40.5266  40.5273
    45.2839  45.2842  45.7782  45.7800  47.7938  47.7948  50.6788  50.6803
    51.8877  51.8886  54.0371  54.0382

          k = 0.0952-0.0952 0.0952 (   627 PWs)   bands (ev):

     8.8940  10.0861  10.0861  10.0861  11.5505  11.5505  11.5505  12.0658
    12.1273  12.1273  12.1273  12.1334  12.1335  12.4176  12.4176  12.4176
    13.4978  13.4978  13.8640  13.8640  13.8640  16.2363  16.2364  16.2364
    21.4680  21.4681  21.4681  25.2124  32.5687  32.5688  32.5688  35.3180
    35.3180  35.3181  37.3493  37.3494  37.3495  37.8543  40.0353  40.0354
    44.5362  44.5363  47.8735  48.1586  48.1587  48.1587  48.2364  48.2364
    48.2365  52.5519  52.5520  52.5520

          k = 0.0952-0.0952-0.1428 (   614 PWs)   bands (ev):

     9.5208   9.5210  10.0174  10.0174  11.6710  11.6710  11.9583  11.9592
    12.1763  12.1764  12.2970  12.2970  12.3100  12.3109  12.4109  12.4110
    13.7842  13.7843  13.7921  13.7921  14.2026  14.2026  16.5195  16.5196
    20.4394  20.4395  23.0277  23.0282  33.4835  33.4836  34.7024  34.7025
    36.3953  36.3970  37.3245  37.3253  39.0758  39.0785  39.5135  39.5137
    44.7471  44.7473  44.9933  44.9947  46.1119  46.1122  48.6449  48.6450
    49.7175  49.7180  53.1056  53.1057

 ------ SPIN DOWN ----------


          k = 0.0000 0.0000 0.0000 (   619 PWs)   bands (ev):

     5.4013  10.2056  10.2056  10.2056  10.9165  10.9165  10.9165  12.8633
    12.8634  12.8634  13.9457  13.9457  14.7005  14.7005  14.7005  14.9864
    14.9864  14.9864  14.9864  14.9864  14.9864  17.0343  17.0343  17.0343
    24.1792  24.1793  24.1793  29.6150  29.6150  29.6151  29.6151  29.6152
    29.6152  34.8914  34.8914  34.8914  38.2241  38.2243  38.2243  38.3493
    42.5182  42.5184  42.5184  46.2419  46.2421  46.2421  48.0963  55.4659
    55.4660  55.4660  58.4636  59.7040

          k =-0.0000-0.0000 0.0476 (   623 PWs)   bands (ev):

     5.7681  10.1811  10.4004  10.4004  11.0363  11.0406  11.0406  12.7210
    12.9703  12.9703  13.8180  13.9948  14.1393  14.1393  14.5328  14.5328
    14.6484  14.7930  14.7930  14.9867  14.9867  15.5820  18.1824  18.1824
    24.2597  24.2597  26.3256  27.9461  27.9461  28.5336  28.5337  30.1929
    30.1930  34.9962  36.9795  36.9795  37.7885  38.3518  40.1598  40.1599
    40.3733  40.3734  40.9214  47.6072  48.1918  48.1919  49.3170  51.6546
    56.5919  56.5920  56.7008  56.7008

          k =-0.0000-0.0000 0.0952 (   606 PWs)   bands (ev):

     6.8232   9.7452  10.8630  10.8630  11.3700  11.4196  11.4196  12.3415
    12.9896  12.9896  13.2812  13.2812  13.4962  13.7161  14.1195  14.1195
    14.1301  14.3165  14.3165  14.5071  14.9873  14.9873  20.2279  20.2279
    24.5312  24.5312  25.2420  25.2420  26.8385  26.8386  30.5228  31.8106
    31.8108  35.3171  36.7660  37.1779  37.1780  38.3309  38.9098  40.9503
    40.9503  44.3081  44.3082  44.4643  50.9763  51.0448  51.0449  51.0797
    51.0797  55.0348  56.4086  56.4087

          k = 0.0000 0.0000-0.1428 (   610 PWs)   bands (ev):

     8.3677   8.3688  11.1552  11.1552  11.8435  11.8453  12.0662  12.0662
    12.0679  12.0679  13.2273  13.2298  13.7585  13.7585  13.7598  13.7598
    13.8488  13.8489  14.3166  14.3175  14.9875  14.9875  22.6128  22.6128
    22.6157  22.6157  24.8517  24.8517  25.9546  25.9546  34.2215  34.2216
    34.2235  34.2236  34.9580  34.9623  35.9005  35.9016  40.5500  40.5568
    45.7043  45.7043  45.7102  45.7102  47.7864  47.7865  52.6241  52.6241
    54.1564  54.1564  54.1617  54.1618

          k =-0.0000 0.0476 0.0476 (   611 PWs)   bands (ev):

     6.1272  10.3928  10.3928  10.5829  11.1404  11.1508  11.1508  12.6472
    13.0207  13.0253  13.7369  13.7787  13.7788  13.7916  13.9951  14.3939
    14.5204  14.5204  14.7919  14.7919  14.8628  16.7627  16.7627  19.0131
    24.2197  25.2896  26.4995  26.4996  28.4394  28.4395  29.0415  29.0415
    30.7307  36.1822  36.2208  37.1781  37.1781  37.4253  40.3235  40.3236
    41.2622  42.7848  43.5823  45.2592  46.5231  50.0565  50.4713  53.3856
    53.7558  55.4251  55.4251  56.3433

          k =-0.0000 0.0476 0.0952 (   608 PWs)   bands (ev):

     7.1583   9.9962  10.9101  11.0290  11.4247  11.4574  11.4988  12.3336
    12.7122  12.8820  13.0765  13.1166  13.2974  13.6197  14.0432  14.1288
    14.1991  14.2856  14.3149  14.7890  14.7982  15.1892  18.4048  20.8384
    22.3340  24.9005  25.7151  26.7288  27.5931  29.7821  30.0290  30.0925
    31.1836  33.8736  34.5814  37.8009  38.7516  40.4183  40.5934  40.9579
    41.2001  44.2128  45.3361  47.2250  47.7972  48.6651  49.9789  51.3619
    53.0032  53.2609  55.2013  57.0893

          k = 0.0000 0.0476-0.1428 (   610 PWs)   bands (ev):

     8.6616   8.6627  11.2992  11.2994  11.8881  11.8898  11.9014  11.9026
    12.0836  12.0852  12.9460  12.9480  13.7619  13.7632  13.8373  13.8375
    13.8379  13.8383  14.5432  14.5432  14.7873  14.7876  20.2185  20.2200
    23.1249  23.1275  25.6450  25.6471  28.4922  28.4930  31.6802  31.6809
    32.1464  32.1469  35.9259  35.9307  38.9075  38.9077  42.4560  42.4603
    43.1919  43.1936  45.9779  45.9835  50.2508  50.2556  50.3823  50.3846
    52.6243  52.6262  53.5212  53.5227

          k =-0.0000 0.0952 0.0952 (   604 PWs)   bands (ev):

     8.1095  10.6353  10.6353  11.3935  11.4759  11.7142  11.7142  12.2356
    12.3827  12.3827  12.5567  12.9552  13.4419  13.5158  13.8149  13.9543
    13.9543  14.3190  14.3190  14.5095  14.5868  16.3338  16.3339  19.6592
    22.3832  25.4217  27.0061  27.0061  28.0616  28.0616  31.1852  31.8002
    31.8002  31.8728  33.7283  36.9538  41.5397  41.9454  41.9454  43.1990
    43.3686  43.9002  43.9003  47.4073  47.4580  48.6276  48.6276  51.8500
    52.1598  52.2368  53.5682  55.3527

          k = 0.0000 0.0952-0.1428 (   610 PWs)   bands (ev):

     9.4610   9.4619  11.2531  11.2541  11.8807  11.8808  11.9956  11.9972
    12.1110  12.1126  12.6353  12.6365  13.6089  13.6090  13.6828  13.6830
    13.8088  13.8101  14.3613  14.3621  15.2136  15.2139  17.7259  17.7270
    24.4959  24.4978  26.4418  26.4436  28.8799  28.8807  29.6944  29.6947
    33.0931  33.0937  36.8918  36.8965  40.4433  40.4441  43.0772  43.0780
    43.3194  43.3198  46.7658  46.7704  48.1086  48.1114  50.4697  50.4723
    52.0049  52.0089  53.5767  53.5777

          k = 0.0000-0.1428-0.1428 (   624 PWs)   bands (ev):

    10.4728  10.4736  10.4736  10.4744  12.0897  12.0912  12.0912  12.0927
    12.3315  12.3320  12.3320  12.3324  13.4655  13.4656  13.4656  13.4658
    13.9914  13.9927  13.9927  13.9939  16.1615  16.1619  16.1619  16.1623
    26.4635  26.4647  26.4647  26.4659  27.7660  27.7671  27.7672  27.7682
    38.0463  38.0475  38.0476  38.0488  38.5388  38.5402  38.5402  38.5416
    47.1394  47.1395  47.1396  47.1396  49.2796  49.2822  49.2823  49.2849
    52.0244  52.0247  52.0249  52.0252

          k = 0.0476 0.0476 0.0476 (   609 PWs)   bands (ev):

     6.4763  10.5812  10.5812  10.5812  11.2423  11.2423  11.2423  12.5920
    13.0460  13.0460  13.4364  13.4364  13.4364  13.9073  13.9073  14.2001
    14.2001  14.2001  14.8634  14.8634  14.8634  17.4179  17.4179  17.4179
    25.5163  25.5163  25.5163  26.8302  26.8302  26.8302  31.2585  31.2585
    31.2585  33.6201  36.3426  36.3426  36.3426  39.1631  41.2766  41.2766
    42.9866  42.9867  42.9867  46.5861  47.6990  47.6990  51.9253  51.9253
    55.2869  55.2870  55.2870  56.1880

          k = 0.0476 0.0476 0.0952 (   610 PWs)   bands (ev):

     7.4749  10.1951  11.0417  11.0417  11.4846  11.4846  11.5405  12.3440
    12.7136  12.7136  12.8798  13.0777  13.1681  13.8117  13.8462  13.9090
    13.9091  14.1838  14.7511  14.7807  14.7807  15.4725  18.7486  18.7486
    22.9737  22.9737  26.8256  27.4567  27.4567  30.5005  30.5005  30.9275
    31.1037  32.7664  36.7999  37.7511  38.0081  38.9018  38.9018  42.4525
    43.6752  44.5730  47.1600  47.1601  48.0221  49.1261  50.2939  50.2939
    50.8053  53.0469  53.1410  55.8909

          k = 0.0476 0.0476-0.1428 (   616 PWs)   bands (ev):

     8.9179   8.9189  11.4704  11.4704  11.5383  11.5383  11.9512  11.9528
    12.3300  12.3300  12.8588  12.8606  13.4323  13.4327  13.7175  13.7175
    14.3352  14.3364  14.4997  14.4998  14.7328  14.7328  19.8285  19.8285
    21.5058  21.5059  28.3855  28.3855  28.6531  28.6536  29.1100  29.1100
    35.0810  35.0826  35.4564  35.4598  38.2529  38.2564  42.2662  42.2663
    44.9350  44.9370  45.4505  45.4505  49.4886  49.4912  50.9510  50.9519
    52.3215  52.3216  54.0177  54.1885

          k = 0.0476 0.0952 0.0952 (   609 PWs)   bands (ev):

     8.3617  10.6437  10.6437  11.1561  11.6509  11.7924  11.7924  12.3202
    12.5270  12.5270  12.6520  12.9668  13.1168  13.5720  13.5720  13.5742
    13.9364  14.4988  14.6481  14.6481  14.6648  16.4123  16.4123  18.9474
    21.2037  24.1798  24.1798  28.1707  28.2458  31.2655  31.2656  32.2847
    32.2848  34.1434  35.3389  37.0114  39.4194  39.4194  40.1499  43.2427
    43.8163  44.8161  46.5478  46.5478  49.3531  49.3532  50.4423  50.6795
    50.9976  51.7974  52.4821  52.9495

          k = 0.0476 0.0952-0.1428 (   608 PWs)   bands (ev):

     9.5832   9.5840  11.0076  11.0079  11.9123  11.9125  12.1526  12.1539
    12.5070  12.5076  12.6946  12.6958  13.2463  13.2467  13.4282  13.4284
    14.2561  14.2568  14.5554  14.5559  15.1065  15.1067  17.6489  17.6497
    22.1763  22.1769  25.9260  25.9264  29.6025  29.6031  33.1663  33.1664
    33.3940  33.3945  36.9905  36.9943  40.1989  40.1997  40.5492  40.5499
    45.2707  45.2709  45.7693  45.7712  47.7741  47.7753  50.7163  50.7178
    51.8265  51.8273  54.1301  54.1313

          k = 0.0476-0.1428-0.1428 (   612 PWs)   bands (ev):

    10.3606  10.3610  10.3610  10.3615  12.3201  12.3207  12.3207  12.3214
    12.5408  12.5416  12.5416  12.5424  13.1905  13.1908  13.1908  13.1912
    14.2850  14.2858  14.2858  14.2867  16.0354  16.0359  16.0359  16.0364
    23.7696  23.7700  23.7700  23.7705  31.1240  31.1243  31.1244  31.1247
    38.3253  38.3263  38.3264  38.3275  38.3654  38.3667  38.3667  38.3679
    46.6757  46.6757  46.6758  46.6758  46.8777  46.8791  46.8792  46.8806
    54.9835  54.9846  54.9848  54.9859

          k = 0.0952 0.0952 0.0952 (   627 PWs)   bands (ev):

     9.0271  10.5952  10.5952  10.5953  12.1085  12.1086  12.1086  12.5878
    12.8062  12.8062  12.8062  12.9339  12.9339  13.2081  13.2082  13.2082
    14.3783  14.3783  14.7912  14.7912  14.7912  16.6631  16.6631  16.6631
    21.8068  21.8068  21.8069  25.4377  32.6148  32.6148  32.6148  35.3794
    35.3795  35.3795  37.3620  37.3621  37.3621  37.6831  40.1216  40.1216
    44.5451  44.5451  47.8881  48.1067  48.1067  48.1067  48.2373  48.2374
    48.2374  52.5824  52.5824  52.5824

          k = 0.0952 0.0952-0.1428 (   614 PWs)   bands (ev):

     9.8527   9.8530  10.5548  10.5548  12.3017  12.3017  12.6157  12.6166
    12.8637  12.8649  12.9678  12.9679  13.0099  13.0099  13.0752  13.0752
    14.6926  14.6928  14.7201  14.7201  14.9182  14.9184  16.8517  16.8518
    20.8764  20.8765  23.3172  23.3176  33.4909  33.4909  34.7885  34.7885
    36.2860  36.2878  37.3970  37.3978  39.1563  39.1590  39.4882  39.4882
    44.7733  44.7733  44.9701  44.9715  46.1198  46.1203  48.6042  48.6042
    49.7697  49.7703  53.2131  53.2131

          k = 0.0952-0.1428-0.1428 (   616 PWs)   bands (ev):

    10.1666  10.1667  10.1667  10.1668  12.6501  12.6503  12.6503  12.6505
    12.8835  12.8838  12.8838  12.8840  13.2971  13.2976  13.2977  13.2983
    14.6291  14.6296  14.6296  14.6300  15.5424  15.5430  15.5430  15.5435
    21.5458  21.5462  21.5462  21.5465  35.1970  35.1974  35.1975  35.1978
    38.2602  38.2608  38.2609  38.2615  39.0894  39.0900  39.0901  39.0907
    44.2170  44.2177  44.2178  44.2185  45.2448  45.2450  45.2451  45.2453
    50.6290  50.6293  50.6293  50.6296

          k =-0.1428-0.1428-0.1428 (   624 PWs)   bands (ev):

    10.0808  10.0808  10.0808  10.0808  12.7690  12.7690  12.7690  12.7690
    12.7690  12.7690  12.7690  12.7690  14.2296  14.2296  14.2297  14.2297
    14.7628  14.7628  14.7628  14.7628  14.7628  14.7628  14.7628  14.7628
    20.7545  20.7546  20.7546  20.7546  36.8260  36.8263  36.8263  36.8263
    39.7268  39.7268  39.7269  39.7269  39.7270  39.7270  39.7270  39.7270
    42.9243  42.9243  42.9243  42.9243  42.9244  42.9244  42.9244  42.9244
    49.0021  49.0021  49.0021  49.0021

          k =-0.0476 0.0000 0.0476 (   611 PWs)   bands (ev):

     6.1272  10.3928  10.3928  10.5829  11.1404  11.1508  11.1509  12.6472
    13.0207  13.0253  13.7369  13.7787  13.7788  13.7916  13.9951  14.3939
    14.5204  14.5204  14.7919  14.7919  14.8628  16.7627  16.7627  19.0131
    24.2198  25.2897  26.4995  26.4996  28.4394  28.4395  29.0414  29.0415
    30.7305  36.1823  36.2208  37.1781  37.1782  37.4254  40.3235  40.3236
    41.2621  42.7849  43.5822  45.2592  46.5230  50.0564  50.4714  53.3857
    53.7558  55.4253  55.4253  56.3433

          k =-0.0476-0.0000 0.0952 (   608 PWs)   bands (ev):

     7.1583   9.9962  10.9101  11.0290  11.4247  11.4574  11.4988  12.3336
    12.7122  12.8820  13.0765  13.1166  13.2974  13.6197  14.0432  14.1288
    14.1991  14.2856  14.3149  14.7890  14.7982  15.1892  18.4047  20.8384
    22.3341  24.9005  25.7151  26.7288  27.5931  29.7821  30.0290  30.0924
    31.1836  33.8737  34.5815  37.8010  38.7515  40.4182  40.5933  40.9580
    41.2002  44.2129  45.3360  47.2251  47.7971  48.6650  49.9790  51.3619
    53.0033  53.2610  55.2012  57.0894

          k =-0.0952 0.0000 0.0952 (   604 PWs)   bands (ev):

     8.1095  10.6353  10.6353  11.3936  11.4759  11.7142  11.7142  12.2356
    12.3827  12.3827  12.5567  12.9552  13.4418  13.5158  13.8149  13.9543
    13.9543  14.3190  14.3190  14.5095  14.5868  16.3338  16.3338  19.6592
    22.3832  25.4217  27.0060  27.0061  28.0615  28.0616  31.1852  31.8003
    31.8003  31.8728  33.7281  36.9537  41.5396  41.9454  41.9455  43.1990
    43.3685  43.9003  43.9004  47.4071  47.4579  48.6277  48.6277  51.8502
    52.1598  52.2367  53.5681  55.3528

          k = 0.0476-0.0476 0.0476 (   609 PWs)   bands (ev):

     6.4763  10.5812  10.5812  10.5812  11.2423  11.2423  11.2423  12.5921
    13.0460  13.0461  13.4364  13.4364  13.4364  13.9073  13.9073  14.2001
    14.2001  14.2001  14.8634  14.8634  14.8634  17.4178  17.4179  17.4179
    25.5163  25.5164  25.5164  26.8303  26.8303  26.8303  31.2584  31.2584
    31.2585  33.6203  36.3425  36.3425  36.3426  39.1630  41.2764  41.2765
    42.9866  42.9868  42.9868  46.5861  47.6989  47.6990  51.9252  51.9253
    55.2869  55.2870  55.2870  56.1881

          k = 0.0476-0.0476 0.0952 (   610 PWs)   bands (ev):

     7.4749  10.1951  11.0417  11.0417  11.4846  11.4846  11.5405  12.3440
    12.7136  12.7136  12.8798  13.0777  13.1681  13.8117  13.8462  13.9090
    13.9091  14.1838  14.7511  14.7807  14.7807  15.4725  18.7485  18.7486
    22.9737  22.9738  26.8256  27.4567  27.4567  30.5004  30.5005  30.9277
    31.1038  32.7663  36.7998  37.7510  38.0080  38.9016  38.9018  42.4525
    43.6754  44.5730  47.1601  47.1602  48.0221  49.1260  50.2939  50.2940
    50.8053  53.0470  53.1410  55.8908

          k =-0.0952 0.0476 0.0476 (   610 PWs)   bands (ev):

     7.4749  10.1951  11.0417  11.0417  11.4846  11.4846  11.5405  12.3440
    12.7136  12.7136  12.8798  13.0777  13.1681  13.8117  13.8462  13.9090
    13.9091  14.1838  14.7510  14.7807  14.7807  15.4725  18.7485  18.7486
    22.9738  22.9738  26.8255  27.4567  27.4567  30.5004  30.5004  30.9276
    31.1038  32.7664  36.7999  37.7510  38.0081  38.9017  38.9017  42.4524
    43.6753  44.5728  47.1602  47.1603  48.0220  49.1261  50.2940  50.2940
    50.8053  53.0470  53.1411  55.8909

          k = 0.0476-0.0476-0.1428 (   616 PWs)   bands (ev):

     8.9179   8.9189  11.4704  11.4704  11.5383  11.5383  11.9512  11.9528
    12.3300  12.3300  12.8588  12.8606  13.4323  13.4327  13.7175  13.7175
    14.3352  14.3364  14.4997  14.4998  14.7328  14.7328  19.8285  19.8285
    21.5058  21.5058  28.3855  28.3856  28.6532  28.6537  29.1100  29.1101
    35.0808  35.0825  35.4563  35.4598  38.2529  38.2563  42.2662  42.2663
    44.9351  44.9371  45.4504  45.4505  49.4886  49.4912  50.9510  50.9519
    52.3215  52.3217  54.0178  54.1885

          k = 0.0952-0.0476 0.0952 (   609 PWs)   bands (ev):

     8.3617  10.6437  10.6437  11.1561  11.6509  11.7924  11.7924  12.3202
    12.5270  12.5270  12.6520  12.9668  13.1168  13.5720  13.5720  13.5742
    13.9364  14.4988  14.6480  14.6481  14.6648  16.4123  16.4123  18.9474
    21.2036  24.1798  24.1799  28.1708  28.2459  31.2655  31.2656  32.2847
    32.2848  34.1434  35.3388  37.0114  39.4193  39.4193  40.1498  43.2426
    43.8162  44.8161  46.5478  46.5479  49.3532  49.3533  50.4424  50.6796
    50.9975  51.7974  52.4821  52.9496

          k =-0.0952 0.0476 0.0952 (   609 PWs)   bands (ev):

     8.3617  10.6437  10.6437  11.1561  11.6509  11.7924  11.7924  12.3202
    12.5270  12.5270  12.6520  12.9668  13.1168  13.5720  13.5720  13.5742
    13.9364  14.4988  14.6481  14.6481  14.6648  16.4123  16.4123  18.9474
    21.2037  24.1797  24.1799  28.1708  28.2459  31.2655  31.2656  32.2847
    32.2848  34.1433  35.3389  37.0113  39.4194  39.4195  40.1498  43.2426
    43.8162  44.8160  46.5479  46.5480  49.3532  49.3533  50.4423  50.6795
    50.9976  51.7973  52.4823  52.9496

          k = 0.0952-0.0476-0.1428 (   608 PWs)   bands (ev):

     9.5832   9.5840  11.0076  11.0079  11.9123  11.9125  12.1526  12.1539
    12.5070  12.5076  12.6946  12.6958  13.2463  13.2466  13.4282  13.4284
    14.2561  14.2568  14.5554  14.5559  15.1065  15.1067  17.6489  17.6497
    22.1763  22.1769  25.9260  25.9264  29.6026  29.6031  33.1662  33.1663
    33.3940  33.3945  36.9905  36.9943  40.1989  40.1997  40.5491  40.5498
    45.2706  45.2709  45.7692  45.7712  47.7742  47.7753  50.7164  50.7179
    51.8266  51.8274  54.1301  54.1313

          k = 0.0952-0.0952 0.0952 (   627 PWs)   bands (ev):

     9.0271  10.5952  10.5953  10.5953  12.1085  12.1086  12.1086  12.5878
    12.8062  12.8062  12.8062  12.9338  12.9339  13.2081  13.2081  13.2082
    14.3783  14.3783  14.7912  14.7912  14.7912  16.6631  16.6631  16.6631
    21.8068  21.8068  21.8069  25.4378  32.6148  32.6149  32.6149  35.3794
    35.3794  35.3795  37.3620  37.3620  37.3621  37.6830  40.1214  40.1215
    44.5450  44.5450  47.8880  48.1067  48.1068  48.1068  48.2373  48.2374
    48.2375  52.5825  52.5826  52.5826

          k = 0.0952-0.0952-0.1428 (   614 PWs)   bands (ev):

     9.8527   9.8530  10.5548  10.5548  12.3017  12.3017  12.6157  12.6166
    12.8638  12.8649  12.9678  12.9679  13.0098  13.0099  13.0751  13.0752
    14.6926  14.6928  14.7201  14.7201  14.9182  14.9184  16.8517  16.8518
    20.8764  20.8765  23.3173  23.3177  33.4909  33.4910  34.7885  34.7886
    36.2860  36.2878  37.3969  37.3977  39.1562  39.1589  39.4881  39.4883
    44.7732  44.7734  44.9701  44.9715  46.1197  46.1202  48.6043  48.6043
    49.7697  49.7703  53.2131  53.2132

     the Fermi energy is    14.5353 ev

!    total energy              =    -343.62841714 Ry
     Harris-Foulkes estimate   =    -343.62840989 Ry
     estimated scf accuracy    <          4.9E-11 Ry

     The total energy is the sum of the following terms:

     one-electron contribution =      -6.08222114 Ry
     hartree contribution      =      60.25755236 Ry
     xc contribution           =    -120.52173835 Ry
     ewald contribution        =    -277.23343753 Ry
     Dispersion Correction     =      -0.04798671 Ry
     smearing contrib. (-TS)   =      -0.00058576 Ry

     total magnetization       =     2.83 Bohr mag/cell
     absolute magnetization    =     3.25 Bohr mag/cell

     convergence has been achieved in  22 iterations

     Forces acting on atoms (Ry/au):

     atom    1 type  1   force =    -0.00011571   -0.00011571    0.00011621
     atom    2 type  1   force =     0.00011520    0.00011520    0.00011520
     atom    3 type  1   force =    -0.00011571    0.00011621   -0.00011571
     atom    4 type  1   force =     0.00011621   -0.00011571   -0.00011571

     Total force =     0.000401     Total SCF correction =     0.000002


     entering subroutine stress ...

          total   stress  (Ry/bohr**3)                   (kbar)     P=    0.15
   0.00000101  -0.00000005  -0.00000005          0.15     -0.01     -0.01
  -0.00000005   0.00000101  -0.00000005         -0.01      0.15     -0.01
  -0.00000005  -0.00000005   0.00000101         -0.01     -0.01      0.15


     Writing output data file Ni-ferromag.save

     init_run     :     13.86s CPU     14.27s WALL (       2 calls)
     electrons    :   1025.06s CPU   1066.38s WALL (       5 calls)
     update_pot   :     16.61s CPU     16.67s WALL (       3 calls)
     forces       :     24.27s CPU     24.49s WALL (       5 calls)
     stress       :     50.67s CPU     51.30s WALL (       5 calls)

     Called by init_run:
     wfcinit      :      7.73s CPU      8.05s WALL (       2 calls)
     potinit      :      1.80s CPU      1.83s WALL (       2 calls)

     Called by electrons:
     c_bands      :    844.68s CPU    876.53s WALL (      72 calls)
     sum_band     :    140.76s CPU    147.37s WALL (      72 calls)
     v_of_rho     :     21.69s CPU     22.58s WALL (      76 calls)
     newd         :     18.85s CPU     20.72s WALL (      76 calls)
     mix_rho      :      1.05s CPU      1.21s WALL (      72 calls)

     Called by c_bands:
     init_us_2    :      4.93s CPU      5.27s WALL (    9984 calls)
     cegterg      :    827.50s CPU    859.04s WALL (    4608 calls)

     Called by sum_band:
     sum_band:bec :      0.73s CPU      0.78s WALL (    4608 calls)
     addusdens    :     27.20s CPU     28.98s WALL (      72 calls)

     Called by *egterg:
     h_psi        :    424.08s CPU    443.16s WALL (   13477 calls)
     s_psi        :     50.61s CPU     50.69s WALL (   13477 calls)
     g_psi        :      2.16s CPU      2.17s WALL (    8741 calls)
     cdiaghg      :    140.16s CPU    140.21s WALL (   13093 calls)

     Called by h_psi:
     add_vuspsi   :     50.69s CPU     50.79s WALL (   13477 calls)

     General routines
     calbec       :     85.12s CPU     85.12s WALL (   19685 calls)
     fft          :      7.40s CPU      8.12s WALL (    2534 calls)
     ffts         :      0.12s CPU      0.12s WALL (     296 calls)
     fftw         :    309.11s CPU    332.01s WALL ( 1324918 calls)
     interpolate  :      1.06s CPU      1.29s WALL (     296 calls)

     Parallel routines
     fft_scatter  :     19.47s CPU     24.62s WALL ( 1327748 calls)

     PWSCF        : 18m52.26s CPU    19m35.11s WALL


   This run was terminated on:   0:34:10  27May2016            

=------------------------------------------------------------------------------=
   JOB DONE.
=------------------------------------------------------------------------------=
