
     Program PWSCF v.5.3.0 (svn rev. 11974) starts on 27May2016 at  5:25:41 

     This program is part of the open-source Quantum ESPRESSO suite
     for quantum simulation of materials; please cite
         "P. Giannozzi et al., J. Phys.:Condens. Matter 21 395502 (2009);
          URL http://www.quantum-espresso.org", 
     in publications or presentations arising from this work. More details at
     http://www.quantum-espresso.org/quote

     Parallel version (MPI), running on     1 processors
     Waiting for input...
     Reading input from standard input
     Message from routine read_cards :
     DEPRECATED: no units specified in CELL_PARAMETERS card

     Current dimensions of program PWSCF are:
     Max number of different atomic species (ntypx) = 10
     Max number of k-points (npk) =  40000
     Max angular momentum in pseudopotentials (lmaxx) =  3
               file Ni.pbe-nd-rrkjus.UPF: wavefunction(s)  4S renormalized

     -------------------------------------
     Parameters for Dispersion Correction:
     -------------------------------------
       atom      VdW radius       C_6     

        Ni1        3.014        159.927

     Subspace diagonalization in iterative solution of the eigenvalue problem:
     a serial algorithm will be used


     G-vector sticks info
     --------------------
     sticks:   dense  smooth     PW     G-vecs:    dense   smooth      PW
     Sum        1413     989    293                39847    23439    3887

     Generating pointlists ...
     new r_m :   0.4125 (alat units)  0.7795 (a.u.) for type    1

     Title: 
     Ni-ferro-mag                                                               


     bravais-lattice index     =            0
     lattice parameter (alat)  =       1.8897  a.u.
     unit-cell volume          =     295.0010 (a.u.)^3
     number of atoms/cell      =            4
     number of atomic types    =            1
     number of electrons       =        40.00
     number of Kohn-Sham states=           52
     kinetic-energy cutoff     =      70.0000  Ry
     charge density cutoff     =     400.0000  Ry
     convergence threshold     =      1.0E-08
     mixing beta               =       0.2000
     number of iterations used =            8  plain     mixing
     Exchange-correlation      =  SLA  PW   PBE  PBE ( 1  4  3  4 0 0)
     nstep                     =           50


     celldm(1)=   1.889726  celldm(2)=   0.000000  celldm(3)=   0.000000
     celldm(4)=   0.000000  celldm(5)=   0.000000  celldm(6)=   0.000000

     crystal axes: (cart. coord. in units of alat)
               a(1) = (   3.522700   0.000000   0.000000 )  
               a(2) = (   0.000000   3.522700   0.000000 )  
               a(3) = (   0.000000   0.000000   3.522700 )  

     reciprocal axes: (cart. coord. in units 2 pi/alat)
               b(1) = (  0.283873  0.000000  0.000000 )  
               b(2) = (  0.000000  0.283873  0.000000 )  
               b(3) = (  0.000000  0.000000  0.283873 )  


     PseudoPot. # 1 for Ni read from file:
     /home/eliot/pseudo/Ni.pbe-nd-rrkjus.UPF
     MD5 check sum: 8081f0a005c9a5470caab1a58e82ecb2
     Pseudo is Ultrasoft + core correction, Zval = 10.0
     Generated by new atomic code, or converted to UPF format
     Using radial grid of 1203 points,  6 beta functions with: 
                l(1) =   0
                l(2) =   0
                l(3) =   1
                l(4) =   1
                l(5) =   2
                l(6) =   2
     Q(r) pseudized with 0 coefficients 


     atomic species   valence    mass     pseudopotential
        Ni1           10.00    58.69340     Ni( 1.00)

     Starting magnetic structure 
     atomic species   magnetization
        Ni1          0.500

      6 Sym. Ops. (no inversion) found



   Cartesian axes

     site n.     atom                  positions (alat units)
         1           Ni1 tau(   1) = (   1.7691699   1.7691699   0.0000000  )
         2           Ni1 tau(   2) = (   0.0000000   0.0000000   0.0000000  )
         3           Ni1 tau(   3) = (   1.7691699   0.0000000   1.7691699  )
         4           Ni1 tau(   4) = (   0.0000000   1.7691699   1.7691699  )

     number of k points=    32  Methfessel-Paxton smearing, width (Ry)=  0.0500
                       cart. coord. in units 2pi/alat
        k(    1) = (   0.0000000   0.0000000   0.0000000), wk =   0.0046296
        k(    2) = (   0.0000000   0.0000000   0.0473122), wk =   0.0277778
        k(    3) = (   0.0000000   0.0000000   0.0946244), wk =   0.0277778
        k(    4) = (   0.0000000   0.0000000  -0.1419366), wk =   0.0138889
        k(    5) = (   0.0000000   0.0473122   0.0473122), wk =   0.0277778
        k(    6) = (   0.0000000   0.0473122   0.0946244), wk =   0.0555556
        k(    7) = (   0.0000000   0.0473122  -0.1419366), wk =   0.0555556
        k(    8) = (   0.0000000   0.0946244   0.0946244), wk =   0.0277778
        k(    9) = (   0.0000000   0.0946244  -0.1419366), wk =   0.0555556
        k(   10) = (   0.0000000  -0.1419366  -0.1419366), wk =   0.0138889
        k(   11) = (   0.0473122   0.0473122   0.0473122), wk =   0.0092593
        k(   12) = (   0.0473122   0.0473122   0.0946244), wk =   0.0277778
        k(   13) = (   0.0473122   0.0473122  -0.1419366), wk =   0.0277778
        k(   14) = (   0.0473122   0.0946244   0.0946244), wk =   0.0277778
        k(   15) = (   0.0473122   0.0946244  -0.1419366), wk =   0.0555556
        k(   16) = (   0.0473122  -0.1419366  -0.1419366), wk =   0.0277778
        k(   17) = (   0.0946244   0.0946244   0.0946244), wk =   0.0092593
        k(   18) = (   0.0946244   0.0946244  -0.1419366), wk =   0.0277778
        k(   19) = (   0.0946244  -0.1419366  -0.1419366), wk =   0.0277778
        k(   20) = (  -0.1419366  -0.1419366  -0.1419366), wk =   0.0046296
        k(   21) = (  -0.0473122   0.0000000   0.0473122), wk =   0.0277778
        k(   22) = (  -0.0473122   0.0000000   0.0946244), wk =   0.0555556
        k(   23) = (  -0.0946244   0.0000000   0.0946244), wk =   0.0277778
        k(   24) = (   0.0473122  -0.0473122   0.0473122), wk =   0.0277778
        k(   25) = (   0.0473122  -0.0473122   0.0946244), wk =   0.0555556
        k(   26) = (  -0.0946244   0.0473122   0.0473122), wk =   0.0277778
        k(   27) = (   0.0473122  -0.0473122  -0.1419366), wk =   0.0277778
        k(   28) = (   0.0946244  -0.0473122   0.0946244), wk =   0.0277778
        k(   29) = (  -0.0946244   0.0473122   0.0946244), wk =   0.0555556
        k(   30) = (   0.0946244  -0.0473122  -0.1419366), wk =   0.0555556
        k(   31) = (   0.0946244  -0.0946244   0.0946244), wk =   0.0277778
        k(   32) = (   0.0946244  -0.0946244  -0.1419366), wk =   0.0277778

     Dense  grid:    39847 G-vectors     FFT dimensions: (  45,  45,  45)

     Smooth grid:    23439 G-vectors     FFT dimensions: (  36,  36,  36)

     Largest allocated arrays     est. size (Mb)     dimensions
        Kohn-Sham Wavefunctions         2.35 Mb     (    2968,   52)
        NL pseudopotentials             3.26 Mb     (    2968,   72)
        Each V/rho on FFT grid          2.78 Mb     (   91125,   2)
        Each G-vector array             0.30 Mb     (   39847)
        G-vector shells                 0.30 Mb     (   39847)
     Largest temporary arrays     est. size (Mb)     dimensions
        Auxiliary wavefunctions         9.42 Mb     (    2968,  208)
        Each subspace H/S matrix        0.66 Mb     (     208,  208)
        Each <psi_i|beta_j> matrix      0.06 Mb     (      72,   52)
        Arrays for rho mixing          11.12 Mb     (   91125,    8)

     Check: negative/imaginary core charge=   -0.000005    0.000000

     Initial potential from superposition of free atoms

     starting charge   39.99816, renormalised to   40.00000
     Starting wfc are   24 randomized atomic wfcs +   28 random wfc

     total cpu time spent up to now is       20.2 secs

     Self-consistent Calculation

     iteration #  1     ecut=    70.00 Ry     beta=0.20
     Davidson diagonalization with overlap
     ethr =  1.00E-02,  avg # of iterations =  6.4

     total cpu time spent up to now is      124.6 secs

     total energy              =    -342.90144252 Ry
     Harris-Foulkes estimate   =    -343.18551338 Ry
     estimated scf accuracy    <       2.43744689 Ry

     total magnetization       =     6.91 Bohr mag/cell
     absolute magnetization    =     6.92 Bohr mag/cell

     iteration #  2     ecut=    70.00 Ry     beta=0.20
     Davidson diagonalization with overlap
     ethr =  6.09E-03,  avg # of iterations =  1.0

     total cpu time spent up to now is      166.5 secs

     total energy              =    -343.20641076 Ry
     Harris-Foulkes estimate   =    -343.04088257 Ry
     estimated scf accuracy    <       0.77205600 Ry

     total magnetization       =     5.77 Bohr mag/cell
     absolute magnetization    =     5.87 Bohr mag/cell

     iteration #  3     ecut=    70.00 Ry     beta=0.20
     Davidson diagonalization with overlap
     ethr =  1.93E-03,  avg # of iterations =  1.6

     total cpu time spent up to now is      209.3 secs

     total energy              =    -343.53592230 Ry
     Harris-Foulkes estimate   =    -343.27850623 Ry
     estimated scf accuracy    <       0.36092826 Ry

     total magnetization       =     4.53 Bohr mag/cell
     absolute magnetization    =     4.85 Bohr mag/cell

     iteration #  4     ecut=    70.00 Ry     beta=0.20
     Davidson diagonalization with overlap
     ethr =  9.02E-04,  avg # of iterations =  1.7

     total cpu time spent up to now is      252.2 secs

     total energy              =    -343.61693991 Ry
     Harris-Foulkes estimate   =    -343.65312836 Ry
     estimated scf accuracy    <       0.12756812 Ry

     total magnetization       =     2.54 Bohr mag/cell
     absolute magnetization    =     3.17 Bohr mag/cell

     iteration #  5     ecut=    70.00 Ry     beta=0.20
     Davidson diagonalization with overlap
     ethr =  3.19E-04,  avg # of iterations =  1.1

     total cpu time spent up to now is      294.2 secs

     total energy              =    -343.62335028 Ry
     Harris-Foulkes estimate   =    -343.62765800 Ry
     estimated scf accuracy    <       0.01460269 Ry

     total magnetization       =     2.62 Bohr mag/cell
     absolute magnetization    =     3.23 Bohr mag/cell

     iteration #  6     ecut=    70.00 Ry     beta=0.20
     Davidson diagonalization with overlap
     ethr =  3.65E-05,  avg # of iterations =  3.9

     total cpu time spent up to now is      341.1 secs

     total energy              =    -343.62632330 Ry
     Harris-Foulkes estimate   =    -343.62742512 Ry
     estimated scf accuracy    <       0.00223273 Ry

     total magnetization       =     2.72 Bohr mag/cell
     absolute magnetization    =     3.31 Bohr mag/cell

     iteration #  7     ecut=    70.00 Ry     beta=0.20
     Davidson diagonalization with overlap
     ethr =  5.58E-06,  avg # of iterations =  3.2

     total cpu time spent up to now is      386.5 secs

     total energy              =    -343.62921897 Ry
     Harris-Foulkes estimate   =    -343.62815478 Ry
     estimated scf accuracy    <       0.00168914 Ry

     total magnetization       =     3.03 Bohr mag/cell
     absolute magnetization    =     3.52 Bohr mag/cell

     iteration #  8     ecut=    70.00 Ry     beta=0.20
     Davidson diagonalization with overlap
     c_bands:  1 eigenvalues not converged
     ethr =  4.22E-06,  avg # of iterations =  1.7

     total cpu time spent up to now is      429.2 secs

     total energy              =    -343.62959278 Ry
     Harris-Foulkes estimate   =    -343.62956443 Ry
     estimated scf accuracy    <       0.00007145 Ry

     total magnetization       =     2.91 Bohr mag/cell
     absolute magnetization    =     3.37 Bohr mag/cell

     iteration #  9     ecut=    70.00 Ry     beta=0.20
     Davidson diagonalization with overlap
     ethr =  1.79E-07,  avg # of iterations =  1.8

     total cpu time spent up to now is      472.2 secs

     total energy              =    -343.62960651 Ry
     Harris-Foulkes estimate   =    -343.62962673 Ry
     estimated scf accuracy    <       0.00004150 Ry

     total magnetization       =     2.87 Bohr mag/cell
     absolute magnetization    =     3.32 Bohr mag/cell

     iteration # 10     ecut=    70.00 Ry     beta=0.20
     Davidson diagonalization with overlap
     ethr =  1.04E-07,  avg # of iterations =  1.0

     total cpu time spent up to now is      514.0 secs

     total energy              =    -343.62963086 Ry
     Harris-Foulkes estimate   =    -343.62962108 Ry
     estimated scf accuracy    <       0.00001612 Ry

     total magnetization       =     2.89 Bohr mag/cell
     absolute magnetization    =     3.33 Bohr mag/cell

     iteration # 11     ecut=    70.00 Ry     beta=0.20
     Davidson diagonalization with overlap
     ethr =  4.03E-08,  avg # of iterations =  1.0

     total cpu time spent up to now is      555.9 secs

     total energy              =    -343.62963837 Ry
     Harris-Foulkes estimate   =    -343.62963733 Ry
     estimated scf accuracy    <       0.00000235 Ry

     total magnetization       =     2.88 Bohr mag/cell
     absolute magnetization    =     3.31 Bohr mag/cell

     iteration # 12     ecut=    70.00 Ry     beta=0.20
     Davidson diagonalization with overlap
     ethr =  5.87E-09,  avg # of iterations =  1.0

     total cpu time spent up to now is      597.8 secs

     total energy              =    -343.62963970 Ry
     Harris-Foulkes estimate   =    -343.62963974 Ry
     estimated scf accuracy    <       0.00000033 Ry

     total magnetization       =     2.87 Bohr mag/cell
     absolute magnetization    =     3.30 Bohr mag/cell

     iteration # 13     ecut=    70.00 Ry     beta=0.20
     Davidson diagonalization with overlap
     ethr =  8.33E-10,  avg # of iterations =  1.6

     Magnetic moment per site:
     atom:    1    charge:    3.0543    magn:    0.3439    constr:    0.0000
     atom:    2    charge:    3.0526    magn:    0.3438    constr:    0.0000
     atom:    3    charge:    3.0543    magn:    0.3439    constr:    0.0000
     atom:    4    charge:    3.0543    magn:    0.3439    constr:    0.0000

     total cpu time spent up to now is      640.4 secs

     End of self-consistent calculation

 ------ SPIN UP ------------


          k = 0.0000 0.0000 0.0000 (  2945 PWs)   bands (ev):

     5.2289   9.4936   9.4936   9.4936   9.9340   9.9346   9.9346  11.6677
    11.6677  11.6677  12.8174  12.8174  13.5173  13.5173  13.5173  13.6029
    13.6029  13.6029  13.6031  13.6031  13.6031  16.7428  16.7430  16.7430
    23.3388  23.3388  23.3388  29.0912  29.0913  29.0913  29.0915  29.0915
    29.0915  34.1013  34.1013  34.1017  37.3457  37.3458  37.3458  38.0319
    41.8749  41.8749  41.8749  45.3829  45.3829  45.3829  47.5696  54.3399
    54.3399  54.3400  57.2492  58.5582

          k = 0.0000 0.0000 0.0473 (  2910 PWs)   bands (ev):

     5.5905   9.5130   9.6740   9.6740  10.0422  10.0573  10.0577  11.5427
    11.7675  11.7675  12.7022  12.8624  12.9701  12.9703  13.3675  13.3675
    13.4325  13.4325  13.4691  13.6034  13.6034  15.1468  17.6790  17.6792
    23.4377  23.4378  25.5825  27.3492  27.3494  27.9635  27.9635  29.6428
    29.6428  34.2199  36.2632  36.2635  37.3768  37.4763  39.2923  39.2924
    39.6484  39.6484  40.3559  46.8117  47.4726  47.4726  48.4054  50.8785
    55.3991  55.3991  55.9779  55.9783

          k = 0.0000 0.0000 0.0946 (  2910 PWs)   bands (ev):

     6.6279   9.2771  10.1018  10.1019  10.3422  10.4306  10.4313  11.2083
    11.9398  11.9406  12.0566  12.0566  12.4232  12.9884  12.9902  12.9902
    13.0032  13.0150  13.0150  13.3385  13.6039  13.6039  19.6088  19.6090
    23.7661  23.7661  24.5995  24.5996  26.1890  26.1890  29.8633  31.1977
    31.1977  34.5898  36.2199  36.4512  36.4512  37.8319  38.0182  40.2797
    40.2801  43.3962  43.4273  43.4273  50.2418  50.3920  50.3921  50.4106
    50.4106  54.3346  55.2812  55.2812

          k = 0.0000 0.0000-0.1419 (  2906 PWs)   bands (ev):

     8.1033   8.1260  10.3722  10.3722  10.7498  10.7816  11.0466  11.0468
    11.0782  11.0785  12.2292  12.2737  12.4848  12.4848  12.5086  12.5086
    12.7597  12.7598  13.1533  13.1709  13.6042  13.6042  21.9355  21.9356
    21.9917  21.9918  24.1630  24.1630  25.2226  25.2226  33.5224  33.5224
    33.5624  33.5624  34.3675  34.4497  35.2394  35.2580  39.5035  39.6342
    44.9892  44.9894  45.1024  45.1027  46.9027  46.9027  51.5752  51.5753
    53.4702  53.4702  53.5753  53.5753

          k = 0.0000 0.0473 0.0473 (  2911 PWs)   bands (ev):

     5.9439   9.7074   9.7075   9.8335  10.1563  10.1568  10.1701  11.4846
    11.8114  11.8280  12.6326  12.6668  12.6891  12.7014  12.8589  13.2432
    13.3640  13.3641  13.4308  13.4310  13.4908  16.0553  16.0553  18.4343
    23.4480  24.6341  25.7735  25.7737  27.8188  27.8188  28.4464  28.4470
    30.1617  35.4701  35.5989  36.4719  36.4723  36.7719  39.4614  39.4619
    40.7142  41.9444  42.9234  44.6223  45.6796  49.0061  49.8069  52.2829
    53.0104  54.6580  54.6591  55.6127

          k = 0.0000 0.0473 0.0946 (  2916 PWs)   bands (ev):

     6.9541   9.5094  10.1800  10.2278  10.4312  10.4836  10.5016  11.2115
    11.7068  11.8430  11.9546  12.0679  12.0954  12.5172  12.9283  12.9942
    13.0175  13.0347  13.1834  13.4266  13.4345  14.1032  17.6423  20.1895
    21.6670  24.1308  25.0541  26.0845  26.8876  29.1157  29.4123  29.4654
    30.4852  33.2001  33.9302  37.1243  38.0544  39.8309  40.0103  40.0861
    40.5346  43.3645  44.2793  46.3626  47.1621  47.9207  49.2225  50.6745
    52.2581  52.6002  54.0632  55.5548

          k = 0.0000 0.0473-0.1419 (  2906 PWs)   bands (ev):

     8.3824   8.4037  10.5202  10.5216  10.7999  10.8306  10.9204  10.9463
    11.0613  11.0921  11.8704  11.9032  12.4853  12.5096  12.7169  12.7276
    12.7449  12.7464  13.3410  13.3413  13.4229  13.4277  19.4746  19.5033
    22.4301  22.4808  24.9248  24.9619  27.8056  27.8173  30.9768  30.9945
    31.5013  31.5140  35.2388  35.3342  38.2672  38.2750  41.4783  41.5580
    42.4879  42.5166  45.2668  45.3738  49.3002  49.3976  49.6795  49.7249
    51.9262  51.9611  52.4862  52.5161

          k = 0.0000 0.0946 0.0946 (  2918 PWs)   bands (ev):

     7.8714  10.0871  10.0874  10.4490  10.6915  10.6929  10.7103  11.1441
    11.3845  11.3846  11.5356  11.8463  12.1950  12.4333  12.7183  12.8680
    12.8685  13.0037  13.0041  13.1692  13.3798  15.3278  15.3278  18.9091
    21.6945  24.6819  26.3093  26.3094  27.4155  27.4161  30.4793  31.1093
    31.1156  31.2274  33.0655  36.2829  40.9616  41.2935  41.2938  42.4381
    42.8504  43.1210  43.1211  46.4563  46.6543  47.7835  47.7844  50.9477
    51.5031  51.5321  52.4682  54.6551

          k = 0.0000 0.0946-0.1419 (  2914 PWs)   bands (ev):

     9.1196   9.1371  10.5388  10.5588  10.9221  10.9414  10.9569  10.9640
    11.0809  11.1096  11.5790  11.6005  12.5194  12.5354  12.5369  12.5432
    12.6036  12.6068  13.0302  13.0448  14.0250  14.0288  16.8296  16.8521
    23.7738  23.8125  25.7332  25.7632  28.1574  28.1764  29.0385  29.0415
    32.4123  32.4195  36.1862  36.2787  39.7703  39.7895  42.4547  42.4730
    42.5825  42.5912  46.0737  46.1610  47.1853  47.2378  49.7377  49.7861
    50.9647  51.0452  52.8755  52.8971

          k = 0.0000-0.1419-0.1419 (  2968 PWs)   bands (ev):

     9.9596   9.9746   9.9746   9.9892  11.0298  11.0571  11.0572  11.0842
    11.3544  11.3623  11.3623  11.3699  12.3909  12.3933  12.3933  12.3964
    12.6760  12.6985  12.6985  12.7208  15.0692  15.0798  15.0798  15.0906
    25.7168  25.7440  25.7440  25.7708  27.0758  27.0934  27.0934  27.1119
    37.2709  37.2967  37.2967  37.3237  37.9210  37.9542  37.9542  37.9829
    46.5750  46.5750  46.5763  46.5767  48.4718  48.5205  48.5205  48.5688
    51.0305  51.0339  51.0339  51.0366

          k = 0.0473 0.0473 0.0473 (  2905 PWs)   bands (ev):

     6.2857   9.8647   9.8649   9.8649  10.2680  10.2688  10.2688  11.4509
    11.8471  11.8471  12.3929  12.3929  12.3931  12.7741  12.7741  13.0152
    13.0157  13.0157  13.5437  13.5437  13.5439  16.6710  16.6711  16.6711
    24.8800  24.8803  24.8803  26.1044  26.1044  26.1047  30.6689  30.6692
    30.6692  32.9596  35.6021  35.6021  35.6025  38.7560  40.5180  40.5180
    42.1510  42.1510  42.1510  45.9790  47.0115  47.0115  50.8222  50.8222
    54.4865  54.5254  54.5262  54.5263

          k = 0.0473 0.0473 0.0946 (  2919 PWs)   bands (ev):

     7.2569   9.6657  10.2382  10.2385  10.5468  10.5760  10.5762  11.2474
    11.6973  11.6974  11.8833  11.9301  11.9840  12.6226  12.6905  12.7761
    12.7782  13.0081  13.4488  13.4489  13.4810  14.4606  17.9948  17.9949
    22.2748  22.2749  26.1511  26.7611  26.7612  29.8502  29.8504  30.2388
    30.4433  32.1271  36.0784  37.2593  37.2724  38.2137  38.2137  41.7453
    42.8373  43.8280  46.3352  46.3353  47.1844  48.4368  49.5252  49.5253
    50.0022  52.3480  52.3813  54.8104

          k = 0.0473 0.0473-0.1419 (  2922 PWs)   bands (ev):

     8.6091   8.6280  10.6121  10.6134  10.6768  10.6771  10.8956  10.9243
    11.3140  11.3140  11.7775  11.8096  12.2445  12.2555  12.6128  12.6133
    13.1630  13.1856  13.2739  13.2788  13.3944  13.3945  19.1395  19.1396
    20.7158  20.7159  27.7370  27.7415  27.9497  27.9658  28.4072  28.4140
    34.3664  34.4001  34.8808  34.9458  37.4625  37.5305  41.6078  41.6079
    44.0542  44.0894  44.7339  44.7343  48.8115  48.8619  50.2181  50.2358
    51.4392  51.4395  52.9807  52.9914

          k = 0.0473 0.0946 0.0946 (  2911 PWs)   bands (ev):

     8.0889   9.9780   9.9784  10.2610  10.8588  10.9015  10.9020  11.2917
    11.4980  11.4983  11.6289  11.8480  11.9695  12.4356  12.4361  12.4527
    12.7478  13.2878  13.3525  13.3696  13.3715  15.4603  15.4603  18.2542
    20.3727  23.4549  23.4549  27.4481  27.5767  30.6436  30.6438  31.5789
    31.5793  33.4733  34.7088  36.3563  38.7458  38.7461  39.6112  42.3602
    43.1181  44.1742  45.8093  45.8094  48.4877  48.4882  49.7489  49.9106
    50.2275  50.8619  51.5906  52.2446

          k = 0.0473 0.0946-0.1419 (  2908 PWs)   bands (ev):

     9.1597   9.1716  10.1937  10.1973  11.0661  11.0672  11.1970  11.2202
    11.5012  11.5108  11.6137  11.6349  12.1112  12.1192  12.3188  12.3239
    13.0324  13.0414  13.2531  13.2624  13.9349  13.9383  16.8166  16.8350
    21.3768  21.3915  25.1922  25.2029  28.9391  28.9468  32.5178  32.5227
    32.7132  32.7200  36.3138  36.3902  39.5531  39.5704  39.8410  39.8540
    44.5550  44.5615  45.0252  45.0607  47.0320  47.0505  49.8439  49.8741
    51.1000  51.1182  53.1375  53.1674

          k = 0.0473-0.1419-0.1419 (  2936 PWs)   bands (ev):

     9.7273   9.7327   9.7327   9.7373  11.4376  11.4454  11.4455  11.4525
    11.5176  11.5329  11.5329  11.5487  12.0801  12.0878  12.0878  12.0957
    13.0051  13.0192  13.0192  13.0335  14.9845  14.9962  14.9962  15.0080
    22.9923  23.0038  23.0038  23.0153  30.4661  30.4683  30.4683  30.4710
    37.5515  37.5722  37.5722  37.5981  37.7770  37.8081  37.8081  37.8311
    46.0259  46.0259  46.0301  46.0338  46.0616  46.0929  46.0929  46.1127
    54.0014  54.0193  54.0196  54.0443

          k = 0.0946 0.0946 0.0946 (  2941 PWs)   bands (ev):

     8.6326   9.8164   9.8170   9.8170  11.2524  11.2530  11.2530  11.7523
    11.8037  11.8037  11.8137  11.8226  11.8226  12.0909  12.0909  12.0914
    13.1393  13.1393  13.4939  13.4939  13.4941  15.8439  15.8440  15.8440
    20.9742  20.9742  20.9743  24.6860  31.9916  31.9916  31.9920  34.6847
    34.6850  34.6850  36.7183  36.7183  36.7189  37.3226  39.3287  39.3287
    43.8077  43.8077  47.0932  47.4185  47.4185  47.4202  47.4658  47.4660
    47.4660  51.6982  51.6988  51.6988

          k = 0.0946 0.0946-0.1419 (  2944 PWs)   bands (ev):

     9.2558   9.2591   9.7496   9.7500  11.3682  11.3686  11.6376  11.6552
    11.8552  11.8577  11.9695  11.9743  11.9869  12.0045  12.0910  12.0917
    13.4152  13.4171  13.4241  13.4256  13.8340  13.8354  16.1347  16.1348
    19.9442  19.9443  22.5145  22.5255  32.9194  32.9195  34.0586  34.0591
    35.8357  35.8671  36.6517  36.6699  38.3528  38.4067  38.8754  38.8756
    44.0027  44.0030  44.2645  44.2909  45.3588  45.3647  47.8924  47.8924
    48.8839  48.8955  52.2397  52.2416

          k = 0.0946-0.1419-0.1419 (  2936 PWs)   bands (ev):

     9.4335   9.4342   9.4343   9.4343  11.6018  11.6066  11.6066  11.6109
    11.7860  11.7908  11.7908  11.7960  12.5209  12.5309  12.5309  12.5410
    13.3389  13.3466  13.3466  13.3544  14.6262  14.6395  14.6395  14.6527
    20.6464  20.6556  20.6556  20.6649  34.6421  34.6453  34.6454  34.6488
    37.6578  37.6718  37.6718  37.6867  38.3182  38.3340  38.3340  38.3471
    43.4384  43.4501  43.4501  43.4612  44.5163  44.5190  44.5190  44.5212
    49.6868  49.6917  49.6917  49.6979

          k =-0.1419-0.1419-0.1419 (  2872 PWs)   bands (ev):

     9.3208   9.3215   9.3215   9.3215  11.6818  11.6818  11.6818  11.6820
    11.6820  11.6825  11.6825  11.6825  13.4697  13.4697  13.4697  13.4706
    13.4706  13.4707  13.4707  13.4707  14.0047  14.0055  14.0055  14.0055
    19.7737  19.7737  19.7738  19.7739  36.4960  36.4962  36.4962  36.4962
    38.9594  38.9594  38.9595  38.9596  38.9596  38.9604  38.9604  38.9605
    42.1752  42.1752  42.1754  42.1754  42.1755  42.1758  42.1759  42.1759
    48.0449  48.0449  48.0449  48.0453

          k =-0.0473 0.0000 0.0473 (  2911 PWs)   bands (ev):

     5.9439   9.7074   9.7075   9.8335  10.1563  10.1568  10.1701  11.4846
    11.8114  11.8280  12.6326  12.6668  12.6891  12.7014  12.8589  13.2432
    13.3640  13.3641  13.4308  13.4311  13.4908  16.0553  16.0553  18.4343
    23.4480  24.6341  25.7734  25.7738  27.8188  27.8188  28.4464  28.4470
    30.1617  35.4701  35.5989  36.4719  36.4723  36.7719  39.4613  39.4620
    40.7142  41.9444  42.9234  44.6223  45.6796  49.0061  49.8069  52.2829
    53.0105  54.6580  54.6591  55.6127

          k =-0.0473 0.0000 0.0946 (  2916 PWs)   bands (ev):

     6.9541   9.5094  10.1800  10.2278  10.4312  10.4836  10.5016  11.2115
    11.7068  11.8430  11.9546  12.0679  12.0954  12.5172  12.9283  12.9942
    13.0175  13.0347  13.1834  13.4266  13.4345  14.1032  17.6423  20.1895
    21.6670  24.1308  25.0541  26.0845  26.8876  29.1157  29.4123  29.4654
    30.4852  33.2001  33.9302  37.1243  38.0544  39.8309  40.0103  40.0861
    40.5346  43.3645  44.2793  46.3626  47.1621  47.9207  49.2225  50.6745
    52.2581  52.6003  54.0632  55.5549

          k =-0.0946 0.0000 0.0946 (  2918 PWs)   bands (ev):

     7.8714  10.0872  10.0873  10.4490  10.6915  10.6929  10.7103  11.1441
    11.3845  11.3846  11.5356  11.8463  12.1950  12.4333  12.7183  12.8680
    12.8685  13.0037  13.0041  13.1692  13.3798  15.3278  15.3278  18.9091
    21.6945  24.6819  26.3093  26.3094  27.4155  27.4161  30.4793  31.1093
    31.1155  31.2274  33.0655  36.2829  40.9616  41.2936  41.2938  42.4381
    42.8504  43.1210  43.1210  46.4563  46.6543  47.7835  47.7844  50.9477
    51.5031  51.5321  52.4682  54.6587

          k = 0.0473-0.0473 0.0473 (  2905 PWs)   bands (ev):

     6.2857   9.8647   9.8649   9.8649  10.2680  10.2688  10.2688  11.4509
    11.8471  11.8471  12.3929  12.3929  12.3931  12.7741  12.7741  13.0152
    13.0157  13.0157  13.5437  13.5437  13.5439  16.6710  16.6711  16.6711
    24.8800  24.8803  24.8803  26.1044  26.1044  26.1047  30.6689  30.6692
    30.6692  32.9596  35.6021  35.6021  35.6025  38.7560  40.5180  40.5180
    42.1509  42.1510  42.1510  45.9790  47.0115  47.0115  50.8222  50.8222
    54.4865  54.5253  54.5262  54.5264

          k = 0.0473-0.0473 0.0946 (  2919 PWs)   bands (ev):

     7.2569   9.6657  10.2382  10.2385  10.5468  10.5760  10.5762  11.2474
    11.6973  11.6974  11.8833  11.9301  11.9840  12.6226  12.6905  12.7761
    12.7782  13.0081  13.4488  13.4489  13.4810  14.4606  17.9948  17.9949
    22.2748  22.2749  26.1511  26.7611  26.7612  29.8502  29.8504  30.2388
    30.4433  32.1271  36.0784  37.2593  37.2724  38.2137  38.2138  41.7453
    42.8373  43.8280  46.3352  46.3353  47.1844  48.4368  49.5252  49.5253
    50.0022  52.3480  52.3813  54.8102

          k =-0.0946 0.0473 0.0473 (  2919 PWs)   bands (ev):

     7.2569   9.6657  10.2382  10.2385  10.5468  10.5760  10.5762  11.2474
    11.6973  11.6974  11.8833  11.9301  11.9840  12.6226  12.6905  12.7761
    12.7782  13.0081  13.4488  13.4489  13.4810  14.4606  17.9948  17.9949
    22.2748  22.2749  26.1511  26.7611  26.7612  29.8502  29.8504  30.2388
    30.4433  32.1271  36.0784  37.2593  37.2724  38.2137  38.2137  41.7453
    42.8373  43.8280  46.3352  46.3353  47.1844  48.4368  49.5252  49.5253
    50.0022  52.3480  52.3813  54.8102

          k = 0.0473-0.0473-0.1419 (  2922 PWs)   bands (ev):

     8.6091   8.6280  10.6121  10.6134  10.6768  10.6771  10.8956  10.9243
    11.3139  11.3140  11.7775  11.8096  12.2445  12.2555  12.6128  12.6132
    13.1630  13.1856  13.2739  13.2788  13.3944  13.3945  19.1395  19.1396
    20.7158  20.7159  27.7370  27.7415  27.9497  27.9658  28.4072  28.4140
    34.3664  34.4001  34.8808  34.9458  37.4625  37.5305  41.6078  41.6080
    44.0542  44.0894  44.7339  44.7343  48.8114  48.8619  50.2181  50.2358
    51.4392  51.4395  52.9808  52.9913

          k = 0.0946-0.0473 0.0946 (  2911 PWs)   bands (ev):

     8.0889   9.9780   9.9784  10.2610  10.8588  10.9015  10.9020  11.2917
    11.4980  11.4983  11.6289  11.8480  11.9695  12.4356  12.4361  12.4527
    12.7478  13.2878  13.3525  13.3696  13.3715  15.4603  15.4603  18.2542
    20.3727  23.4549  23.4549  27.4481  27.5767  30.6436  30.6438  31.5789
    31.5793  33.4733  34.7088  36.3563  38.7458  38.7461  39.6112  42.3602
    43.1181  44.1742  45.8093  45.8094  48.4877  48.4882  49.7489  49.9106
    50.2274  50.8619  51.5906  52.2445

          k =-0.0946 0.0473 0.0946 (  2911 PWs)   bands (ev):

     8.0889   9.9780   9.9784  10.2610  10.8588  10.9015  10.9020  11.2917
    11.4980  11.4983  11.6289  11.8480  11.9695  12.4356  12.4361  12.4527
    12.7478  13.2878  13.3525  13.3696  13.3715  15.4603  15.4603  18.2542
    20.3727  23.4549  23.4549  27.4481  27.5767  30.6436  30.6438  31.5789
    31.5793  33.4733  34.7088  36.3563  38.7458  38.7462  39.6112  42.3602
    43.1181  44.1742  45.8093  45.8093  48.4877  48.4882  49.7489  49.9106
    50.2274  50.8619  51.5906  52.2442

          k = 0.0946-0.0473-0.1419 (  2908 PWs)   bands (ev):

     9.1597   9.1716  10.1937  10.1973  11.0661  11.0672  11.1970  11.2202
    11.5012  11.5108  11.6137  11.6349  12.1112  12.1192  12.3188  12.3239
    13.0324  13.0414  13.2531  13.2624  13.9349  13.9383  16.8166  16.8350
    21.3768  21.3915  25.1922  25.2029  28.9391  28.9468  32.5178  32.5227
    32.7132  32.7200  36.3138  36.3902  39.5531  39.5704  39.8410  39.8540
    44.5550  44.5615  45.0252  45.0607  47.0320  47.0505  49.8439  49.8741
    51.1000  51.1182  53.1372  53.1657

          k = 0.0946-0.0946 0.0946 (  2941 PWs)   bands (ev):

     8.6326   9.8164   9.8170   9.8170  11.2525  11.2530  11.2530  11.7523
    11.8037  11.8037  11.8137  11.8226  11.8226  12.0909  12.0909  12.0914
    13.1393  13.1393  13.4939  13.4939  13.4941  15.8439  15.8440  15.8440
    20.9742  20.9742  20.9743  24.6860  31.9916  31.9916  31.9920  34.6847
    34.6850  34.6850  36.7183  36.7183  36.7189  37.3226  39.3287  39.3287
    43.8077  43.8077  47.0932  47.4185  47.4185  47.4203  47.4658  47.4660
    47.4660  51.6982  51.6989  51.6990

          k = 0.0946-0.0946-0.1419 (  2944 PWs)   bands (ev):

     9.2558   9.2591   9.7496   9.7500  11.3682  11.3686  11.6376  11.6552
    11.8552  11.8577  11.9695  11.9743  11.9869  12.0045  12.0910  12.0917
    13.4153  13.4171  13.4241  13.4255  13.8340  13.8354  16.1347  16.1347
    19.9442  19.9443  22.5145  22.5255  32.9194  32.9195  34.0586  34.0591
    35.8357  35.8671  36.6517  36.6699  38.3528  38.4067  38.8754  38.8756
    44.0027  44.0030  44.2645  44.2909  45.3588  45.3647  47.8924  47.8924
    48.8839  48.8955  52.2397  52.2415

 ------ SPIN DOWN ----------


          k = 0.0000 0.0000 0.0000 (  2945 PWs)   bands (ev):

     5.1725   9.9642   9.9642   9.9642  10.6612  10.6620  10.6620  12.5574
    12.5574  12.5574  13.6082  13.6082  14.3423  14.3423  14.3423  14.6215
    14.6215  14.6215  14.6219  14.6219  14.6219  16.6616  16.6619  16.6619
    23.6461  23.6461  23.6461  29.0763  29.0763  29.0763  29.0766  29.0766
    29.0767  34.2633  34.2633  34.2636  37.4880  37.4882  37.4882  37.8217
    41.8475  41.8475  41.8475  45.4539  45.4539  45.4539  47.4057  54.5234
    54.5234  54.5234  57.7732  58.5863

          k = 0.0000 0.0000 0.0473 (  2910 PWs)   bands (ev):

     5.5342   9.9356  10.1548  10.1548  10.7783  10.7820  10.7825  12.4191
    12.6613  12.6613  13.4832  13.6550  13.8006  13.8011  14.1795  14.1795
    14.2917  14.4340  14.4340  14.6221  14.6221  15.2180  17.7821  17.7824
    23.7297  23.7297  25.7842  27.4165  27.4168  27.9900  27.9901  29.6443
    29.6443  34.3692  36.3420  36.3422  37.2351  37.6161  39.4105  39.4106
    39.6920  39.6920  40.2867  46.8291  47.4447  47.4447  48.4826  50.8546
    55.6060  55.6060  55.9013  55.9019

          k = 0.0000 0.0000 0.0946 (  2910 PWs)   bands (ev):

     6.5758   9.4861  10.6077  10.6077  11.1039  11.1497  11.1506  12.0506
    12.6784  12.6793  12.9635  12.9635  13.1698  13.3835  13.7774  13.7774
    13.7874  13.9717  13.9717  14.1545  14.6227  14.6227  19.7915  19.7917
    24.0130  24.0130  24.7387  24.7387  26.2867  26.2867  29.9585  31.2335
    31.2335  34.7013  36.1828  36.5224  36.5224  37.7403  38.1618  40.2832
    40.2836  43.5249  43.5250  43.6137  50.1935  50.3124  50.3124  50.3163
    50.3164  54.2234  55.5007  55.5007

          k = 0.0000 0.0000-0.1419 (  2906 PWs)   bands (ev):

     8.0946   8.1180  10.8940  10.8941  11.5480  11.5821  11.7644  11.7651
    11.7969  11.7975  12.8859  12.9346  13.4135  13.4135  13.4384  13.4384
    13.5202  13.5203  13.9603  13.9786  14.6230  14.6230  22.1146  22.1148
    22.1721  22.1722  24.3586  24.3586  25.3811  25.3812  33.5866  33.5866
    33.6266  33.6266  34.3451  34.4296  35.2864  35.3089  39.6934  39.8263
    44.9414  44.9417  45.0574  45.0577  46.9759  46.9760  51.7533  51.7534
    53.3562  53.3562  53.4614  53.4614

          k = 0.0000 0.0473 0.0473 (  2911 PWs)   bands (ev):

     5.8884  10.1430  10.1430  10.3335  10.8786  10.8894  10.8900  12.3474
    12.7105  12.7146  13.4075  13.4313  13.4472  13.4741  13.6569  14.0448
    14.1676  14.1677  14.4327  14.4328  14.5022  16.3699  16.3700  18.5967
    23.7095  24.7612  25.9619  25.9622  27.9003  27.9003  28.4866  28.4873
    30.1717  35.5717  35.5917  36.5404  36.5409  36.7904  39.5776  39.5781
    40.6300  42.0295  42.8947  44.5612  45.7387  49.1612  49.7288  52.4581
    52.9595  54.6143  54.6154  55.5500

          k = 0.0000 0.0473 0.0946 (  2916 PWs)   bands (ev):

     6.9068   9.7334  10.6506  10.7698  11.1537  11.1883  11.2275  12.0429
    12.4072  12.5735  12.7563  12.8082  12.9793  13.2923  13.7042  13.7859
    13.8547  13.9403  13.9701  14.4293  14.4401  14.8198  17.9814  20.3912
    21.8643  24.3597  25.2040  26.2178  27.0132  29.2225  29.4741  29.5332
    30.5830  33.2771  33.9731  37.1643  38.0910  39.7808  39.9552  40.2033
    40.5323  43.4455  44.4845  46.4264  47.0809  47.9004  49.2035  50.5975
    52.2103  52.5056  54.2676  55.7839

          k = 0.0000 0.0473-0.1419 (  2906 PWs)   bands (ev):

     8.3858   8.4081  11.0320  11.0349  11.5834  11.6136  11.6140  11.6415
    11.7821  11.8138  12.6191  12.6570  13.4166  13.4411  13.4962  13.5023
    13.5105  13.5133  14.1895  14.1906  14.4260  14.4315  19.7555  19.7847
    22.6211  22.6722  25.0945  25.1346  27.9209  27.9349  31.0900  31.1059
    31.5597  31.5708  35.2632  35.3584  38.2679  38.2737  41.6276  41.7101
    42.4782  42.5101  45.2156  45.3253  49.3646  49.4603  49.6093  49.6550
    51.8388  51.8751  52.6418  52.6713

          k = 0.0000 0.0946 0.0946 (  2918 PWs)   bands (ev):

     7.8475  10.3634  10.3635  11.1216  11.2037  11.4362  11.4377  11.9475
    12.0875  12.0875  12.2570  12.6476  13.1195  13.1912  13.4829  13.6168
    13.6174  13.9735  13.9737  14.1593  14.2324  15.9386  15.9387  19.2170
    21.9116  24.8805  26.4741  26.4742  27.5161  27.5167  30.6086  31.1967
    31.2037  31.2956  33.1172  36.3173  40.8949  41.2737  41.2740  42.4751
    42.7306  43.1629  43.1630  46.5742  46.6818  47.8244  47.8253  51.0026
    51.4071  51.4554  52.6579  54.5588

          k = 0.0000 0.0946-0.1419 (  2914 PWs)   bands (ev):

     9.1791   9.1982  10.9649  10.9848  11.5984  11.6000  11.6984  11.7285
    11.8105  11.8405  12.3249  12.3488  13.2811  13.2817  13.3503  13.3537
    13.4668  13.4925  14.0074  14.0232  14.8400  14.8448  17.2967  17.3187
    23.9773  24.0152  25.8832  25.9160  28.3188  28.3358  29.1273  29.1319
    32.4823  32.4916  36.2132  36.3060  39.7689  39.7859  42.3997  42.4167
    42.6004  42.6082  46.0093  46.0984  47.2630  47.3180  49.6816  49.7312
    51.0808  51.1608  52.7880  52.8083

          k = 0.0000-0.1419-0.1419 (  2968 PWs)   bands (ev):

    10.1784  10.1953  10.1953  10.2118  11.7746  11.8039  11.8039  11.8326
    12.0329  12.0419  12.0420  12.0509  13.1393  13.1421  13.1421  13.1456
    13.6330  13.6567  13.6567  13.6803  15.7597  15.7688  15.7688  15.7777
    25.9113  25.9369  25.9370  25.9620  27.1969  27.2165  27.2166  27.2373
    37.3454  37.3702  37.3702  37.3970  37.8872  37.9187  37.9188  37.9451
    46.4529  46.4529  46.4529  46.4560  48.4578  48.5077  48.5077  48.5573
    51.1283  51.1344  51.1344  51.1396

          k = 0.0473 0.0473 0.0473 (  2905 PWs)   bands (ev):

     6.2331  10.3276  10.3277  10.3277  10.9774  10.9784  10.9784  12.2938
    12.7345  12.7345  13.1132  13.1132  13.1132  13.5712  13.5712  13.8567
    13.8573  13.8573  14.5017  14.5017  14.5021  17.0124  17.0127  17.0127
    25.0099  25.0101  25.0101  26.2778  26.2778  26.2781  30.6896  30.6901
    30.6901  33.0256  35.6956  35.6956  35.6960  38.5974  40.5716  40.5716
    42.2328  42.2329  42.2329  45.8877  46.9653  46.9653  50.9884  50.9884
    54.4764  54.4776  54.4777  54.8090

          k = 0.0473 0.0473 0.0946 (  2919 PWs)   bands (ev):

     7.2200   9.9301  10.7789  10.7791  11.2120  11.2128  11.2687  12.0526
    12.4089  12.4089  12.5684  12.7673  12.8539  13.4789  13.5098  13.5736
    13.5767  13.8410  14.3920  14.4216  14.4222  15.0978  18.3220  18.3222
    22.4839  22.4840  26.2939  26.9095  26.9096  29.9241  29.9244  30.3517
    30.5303  32.1725  36.1514  37.1767  37.3361  38.2428  38.2428  41.7554
    42.9152  43.8418  46.3779  46.3779  47.2243  48.3810  49.5104  49.5107
    50.0037  52.2722  52.3404  54.9241

          k = 0.0473 0.0473-0.1419 (  2922 PWs)   bands (ev):

     8.6412   8.6618  11.2001  11.2002  11.2600  11.2612  11.6544  11.6857
    12.0370  12.0374  12.5355  12.5714  13.1060  13.1150  13.3872  13.3876
    13.9767  14.0010  14.1466  14.1492  14.3755  14.3757  19.3957  19.3958
    21.0199  21.0200  27.8506  27.8548  28.0903  28.1055  28.5218  28.5292
    34.4352  34.4684  34.8513  34.9185  37.5398  37.6083  41.5879  41.5880
    44.1367  44.1750  44.7216  44.7220  48.7285  48.7791  50.1714  50.1893
    51.4711  51.4713  53.1387  53.1559

          k = 0.0473 0.0946 0.0946 (  2911 PWs)   bands (ev):

     8.0989  10.3744  10.3747  10.8871  11.3754  11.5123  11.5131  12.0280
    12.2277  12.2281  12.3500  12.6586  12.8038  13.2441  13.2458  13.2497
    13.6013  14.1471  14.2906  14.2926  14.3115  16.0183  16.0185  18.5278
    20.7173  23.6706  23.6706  27.6047  27.7077  30.7060  30.7062  31.6712
    31.6717  33.5272  34.7352  36.3801  38.7593  38.7596  39.5302  42.4757
    43.1075  44.1187  45.8024  45.8024  48.5384  48.5389  49.6798  49.8932
    50.2033  50.9322  51.6474  52.1693

          k = 0.0473 0.0946-0.1419 (  2908 PWs)   bands (ev):

     9.3062   9.3217  10.7331  10.7400  11.6294  11.6326  11.8507  11.8773
    12.2030  12.2152  12.3823  12.4061  12.9265  12.9326  13.1042  13.1085
    13.9055  13.9186  14.1980  14.2086  14.7364  14.7411  17.2297  17.2473
    21.6770  21.6902  25.3915  25.4007  29.0378  29.0477  32.5756  32.5782
    32.7802  32.7892  36.3265  36.4021  39.5366  39.5525  39.8616  39.8756
    44.5413  44.5469  45.0149  45.0524  47.0100  47.0312  49.8787  49.9089
    51.0381  51.0556  53.2149  53.2472

          k = 0.0473-0.1419-0.1419 (  2936 PWs)   bands (ev):

    10.0818  10.0916  10.0916  10.1007  12.0138  12.0270  12.0270  12.0398
    12.2283  12.2439  12.2439  12.2595  12.8686  12.8753  12.8753  12.8825
    13.9247  13.9409  13.9409  13.9574  15.6382  15.6481  15.6481  15.6577
    23.2505  23.2603  23.2603  23.2700  30.5460  30.5504  30.5504  30.5552
    37.6243  37.6402  37.6402  37.6695  37.7274  37.7608  37.7608  37.7780
    45.9589  45.9590  45.9607  45.9629  46.0845  46.1144  46.1144  46.1395
    54.0622  54.0810  54.0811  54.1082

          k = 0.0946 0.0946 0.0946 (  2941 PWs)   bands (ev):

     8.7638  10.3315  10.3322  10.3322  11.8213  11.8218  11.8218  12.2853
    12.4991  12.4991  12.5010  12.6267  12.6267  12.8922  12.8922  12.8927
    14.0303  14.0303  14.4314  14.4314  14.4318  16.2724  16.2727  16.2727
    21.3126  21.3126  21.3126  24.9101  32.0380  32.0380  32.0384  34.7454
    34.7459  34.7459  36.7289  36.7289  36.7295  37.1477  39.4148  39.4148
    43.8163  43.8163  47.1068  47.3641  47.3641  47.3661  47.4665  47.4669
    47.4669  51.7276  51.7283  51.7283

          k = 0.0946 0.0946-0.1419 (  2944 PWs)   bands (ev):

     9.5871   9.5947  10.2939  10.2943  12.0104  12.0108  12.3065  12.3240
    12.5450  12.5671  12.6573  12.6592  12.7000  12.7001  12.7631  12.7632
    14.3340  14.3368  14.3621  14.3632  14.5559  14.5597  16.4646  16.4647
    20.3833  20.3834  22.8037  22.8132  32.9264  32.9265  34.1444  34.1450
    35.7239  35.7572  36.7243  36.7413  38.4331  38.4867  38.8479  38.8480
    44.0282  44.0285  44.2388  44.2654  45.3659  45.3732  47.8499  47.8500
    48.9358  48.9471  52.3405  52.3424

          k = 0.0946-0.1419-0.1419 (  2936 PWs)   bands (ev):

     9.9069   9.9095   9.9095   9.9114  12.3454  12.3499  12.3500  12.3543
    12.5723  12.5768  12.5768  12.5818  12.9687  12.9805  12.9806  12.9924
    14.2659  14.2746  14.2746  14.2835  15.1612  15.1721  15.1721  15.1826
    21.0410  21.0488  21.0488  21.0567  34.6158  34.6214  34.6215  34.6274
    37.6231  37.6357  37.6357  37.6492  38.3881  38.4032  38.4032  38.4156
    43.4680  43.4811  43.4811  43.4937  44.5065  44.5098  44.5099  44.5129
    49.7732  49.7783  49.7783  49.7847

          k =-0.1419-0.1419-0.1419 (  2872 PWs)   bands (ev):

     9.8276   9.8284   9.8284   9.8284  12.4648  12.4648  12.4648  12.4652
    12.4652  12.4655  12.4655  12.4655  13.9019  13.9019  13.9019  13.9029
    14.4038  14.4038  14.4042  14.4042  14.4042  14.4046  14.4046  14.4046
    20.2588  20.2588  20.2589  20.2589  36.3077  36.3079  36.3079  36.3079
    39.0298  39.0298  39.0298  39.0299  39.0299  39.0308  39.0308  39.0309
    42.2044  42.2044  42.2045  42.2046  42.2046  42.2050  42.2050  42.2050
    48.1558  48.1558  48.1558  48.1562

          k =-0.0473 0.0000 0.0473 (  2911 PWs)   bands (ev):

     5.8884  10.1430  10.1430  10.3335  10.8786  10.8894  10.8900  12.3474
    12.7105  12.7146  13.4075  13.4313  13.4472  13.4741  13.6569  14.0448
    14.1676  14.1677  14.4327  14.4328  14.5022  16.3699  16.3700  18.5967
    23.7095  24.7612  25.9619  25.9622  27.9002  27.9003  28.4866  28.4873
    30.1717  35.5717  35.5917  36.5404  36.5409  36.7904  39.5775  39.5783
    40.6300  42.0295  42.8947  44.5612  45.7387  49.1612  49.7288  52.4581
    52.9595  54.6143  54.6154  55.5500

          k =-0.0473 0.0000 0.0946 (  2916 PWs)   bands (ev):

     6.9068   9.7334  10.6506  10.7698  11.1537  11.1883  11.2275  12.0429
    12.4072  12.5735  12.7563  12.8082  12.9793  13.2923  13.7042  13.7859
    13.8547  13.9403  13.9701  14.4293  14.4401  14.8198  17.9814  20.3912
    21.8643  24.3597  25.2040  26.2178  27.0132  29.2225  29.4741  29.5332
    30.5830  33.2771  33.9731  37.1643  38.0910  39.7808  39.9552  40.2033
    40.5323  43.4455  44.4845  46.4264  47.0809  47.9004  49.2035  50.5975
    52.2103  52.5056  54.2676  55.7841

          k =-0.0946 0.0000 0.0946 (  2918 PWs)   bands (ev):

     7.8475  10.3634  10.3635  11.1216  11.2037  11.4362  11.4377  11.9475
    12.0875  12.0875  12.2570  12.6476  13.1195  13.1912  13.4829  13.6168
    13.6174  13.9735  13.9737  14.1593  14.2324  15.9386  15.9387  19.2170
    21.9116  24.8805  26.4741  26.4743  27.5160  27.5168  30.6086  31.1967
    31.2037  31.2956  33.1172  36.3173  40.8949  41.2737  41.2740  42.4751
    42.7306  43.1629  43.1630  46.5742  46.6818  47.8244  47.8253  51.0026
    51.4071  51.4554  52.6579  54.5623

          k = 0.0473-0.0473 0.0473 (  2905 PWs)   bands (ev):

     6.2331  10.3276  10.3277  10.3277  10.9774  10.9784  10.9784  12.2938
    12.7345  12.7345  13.1132  13.1132  13.1132  13.5712  13.5712  13.8568
    13.8573  13.8573  14.5017  14.5017  14.5021  17.0124  17.0127  17.0127
    25.0099  25.0101  25.0101  26.2778  26.2778  26.2781  30.6896  30.6900
    30.6901  33.0256  35.6956  35.6956  35.6960  38.5974  40.5716  40.5716
    42.2328  42.2329  42.2329  45.8877  46.9653  46.9653  50.9884  50.9884
    54.4766  54.4776  54.4776  54.8091

          k = 0.0473-0.0473 0.0946 (  2919 PWs)   bands (ev):

     7.2200   9.9301  10.7789  10.7791  11.2120  11.2128  11.2687  12.0526
    12.4089  12.4089  12.5684  12.7673  12.8539  13.4789  13.5098  13.5736
    13.5767  13.8410  14.3920  14.4216  14.4222  15.0978  18.3220  18.3222
    22.4839  22.4840  26.2939  26.9095  26.9096  29.9241  29.9244  30.3517
    30.5303  32.1725  36.1514  37.1767  37.3361  38.2427  38.2428  41.7554
    42.9152  43.8418  46.3778  46.3780  47.2243  48.3810  49.5104  49.5107
    50.0037  52.2722  52.3404  54.9240

          k =-0.0946 0.0473 0.0473 (  2919 PWs)   bands (ev):

     7.2200   9.9301  10.7789  10.7791  11.2120  11.2128  11.2687  12.0526
    12.4089  12.4089  12.5684  12.7673  12.8539  13.4789  13.5098  13.5736
    13.5767  13.8410  14.3920  14.4216  14.4222  15.0978  18.3220  18.3222
    22.4839  22.4840  26.2939  26.9095  26.9096  29.9241  29.9244  30.3517
    30.5303  32.1725  36.1514  37.1767  37.3361  38.2428  38.2428  41.7554
    42.9152  43.8418  46.3779  46.3779  47.2243  48.3810  49.5104  49.5107
    50.0037  52.2722  52.3404  54.9242

          k = 0.0473-0.0473-0.1419 (  2922 PWs)   bands (ev):

     8.6412   8.6618  11.2001  11.2002  11.2600  11.2612  11.6544  11.6857
    12.0370  12.0374  12.5355  12.5714  13.1060  13.1150  13.3871  13.3876
    13.9767  14.0010  14.1466  14.1492  14.3755  14.3757  19.3957  19.3958
    21.0200  21.0200  27.8507  27.8548  28.0902  28.1055  28.5218  28.5292
    34.4352  34.4684  34.8513  34.9185  37.5398  37.6083  41.5879  41.5881
    44.1367  44.1750  44.7217  44.7220  48.7285  48.7791  50.1714  50.1893
    51.4710  51.4713  53.1388  53.1566

          k = 0.0946-0.0473 0.0946 (  2911 PWs)   bands (ev):

     8.0989  10.3744  10.3747  10.8871  11.3754  11.5123  11.5131  12.0280
    12.2277  12.2281  12.3500  12.6586  12.8038  13.2441  13.2458  13.2497
    13.6013  14.1471  14.2906  14.2926  14.3115  16.0183  16.0185  18.5278
    20.7173  23.6706  23.6706  27.6047  27.7077  30.7060  30.7062  31.6712
    31.6717  33.5272  34.7352  36.3801  38.7593  38.7596  39.5302  42.4757
    43.1075  44.1187  45.8024  45.8024  48.5384  48.5389  49.6798  49.8932
    50.2033  50.9322  51.6474  52.1686

          k =-0.0946 0.0473 0.0946 (  2911 PWs)   bands (ev):

     8.0989  10.3744  10.3747  10.8871  11.3754  11.5123  11.5131  12.0280
    12.2277  12.2281  12.3500  12.6586  12.8038  13.2441  13.2458  13.2497
    13.6013  14.1471  14.2906  14.2926  14.3115  16.0183  16.0185  18.5278
    20.7173  23.6706  23.6706  27.6047  27.7077  30.7060  30.7062  31.6713
    31.6717  33.5272  34.7352  36.3801  38.7593  38.7596  39.5302  42.4757
    43.1075  44.1186  45.8024  45.8024  48.5384  48.5389  49.6798  49.8932
    50.2033  50.9322  51.6474  52.1692

          k = 0.0946-0.0473-0.1419 (  2908 PWs)   bands (ev):

     9.3062   9.3217  10.7331  10.7400  11.6294  11.6326  11.8507  11.8773
    12.2030  12.2152  12.3823  12.4061  12.9265  12.9326  13.1042  13.1085
    13.9055  13.9186  14.1980  14.2086  14.7364  14.7411  17.2297  17.2473
    21.6770  21.6902  25.3915  25.4007  29.0378  29.0477  32.5756  32.5782
    32.7802  32.7892  36.3265  36.4021  39.5366  39.5525  39.8616  39.8756
    44.5413  44.5468  45.0149  45.0524  47.0100  47.0312  49.8787  49.9089
    51.0381  51.0556  53.2149  53.2472

          k = 0.0946-0.0946 0.0946 (  2941 PWs)   bands (ev):

     8.7638  10.3315  10.3322  10.3322  11.8213  11.8218  11.8218  12.2853
    12.4991  12.4991  12.5010  12.6267  12.6267  12.8921  12.8922  12.8927
    14.0303  14.0303  14.4313  14.4314  14.4318  16.2724  16.2727  16.2727
    21.3126  21.3126  21.3126  24.9101  32.0379  32.0380  32.0384  34.7455
    34.7458  34.7459  36.7288  36.7289  36.7295  37.1477  39.4148  39.4148
    43.8163  43.8163  47.1068  47.3641  47.3641  47.3661  47.4665  47.4668
    47.4669  51.7276  51.7283  51.7283

          k = 0.0946-0.0946-0.1419 (  2944 PWs)   bands (ev):

     9.5871   9.5947  10.2938  10.2943  12.0104  12.0108  12.3065  12.3240
    12.5450  12.5671  12.6573  12.6592  12.7001  12.7001  12.7630  12.7632
    14.3340  14.3368  14.3621  14.3632  14.5559  14.5597  16.4646  16.4647
    20.3834  20.3834  22.8037  22.8132  32.9264  32.9265  34.1444  34.1450
    35.7239  35.7572  36.7243  36.7413  38.4331  38.4867  38.8478  38.8481
    44.0282  44.0285  44.2388  44.2654  45.3659  45.3732  47.8499  47.8500
    48.9358  48.9471  52.3405  52.3424

     the Fermi energy is    14.1793 ev

!    total energy              =    -343.62963985 Ry
     Harris-Foulkes estimate   =    -343.62963984 Ry
     estimated scf accuracy    <          7.6E-09 Ry

     The total energy is the sum of the following terms:

     one-electron contribution =      -8.69995436 Ry
     hartree contribution      =      61.07846084 Ry
     xc contribution           =    -120.47469894 Ry
     ewald contribution        =    -275.48620515 Ry
     Dispersion Correction     =      -0.04675218 Ry
     smearing contrib. (-TS)   =      -0.00049007 Ry

     total magnetization       =     2.87 Bohr mag/cell
     absolute magnetization    =     3.30 Bohr mag/cell

     convergence has been achieved in  13 iterations

     Forces acting on atoms (Ry/au):

     atom    1 type  1   force =    -0.00230187   -0.00230187    0.00230374
     atom    2 type  1   force =     0.00229999    0.00229999    0.00229999
     atom    3 type  1   force =    -0.00230187    0.00230374   -0.00230187
     atom    4 type  1   force =     0.00230374   -0.00230187   -0.00230187

     Total force =     0.007974     Total SCF correction =     0.000030


     entering subroutine stress ...

          total   stress  (Ry/bohr**3)                   (kbar)     P=  -32.22
  -0.00021900   0.00000000   0.00000000        -32.22      0.00      0.00
   0.00000000  -0.00021900   0.00000000          0.00    -32.22      0.00
   0.00000000   0.00000000  -0.00021900          0.00      0.00    -32.22


     BFGS Geometry Optimization

     number of scf cycles    =   1
     number of bfgs steps    =   0

     enthalpy new            =    -343.6296398464 Ry

     new trust radius        =       0.0188070653 bohr
     new conv_thr            =       0.0000000100 Ry

     new unit-cell volume =    290.18210 a.u.^3 (    43.00055 Ang^3 )

CELL_PARAMETERS (alat=  1.88972590)
   3.503413430   0.000000076   0.000000076
   0.000000076   3.503413430   0.000000076
   0.000000076   0.000000076   3.503413430

ATOMIC_POSITIONS (alat)
Ni1      1.758272461   1.758272461   0.001212491
Ni1      0.001210437   0.001210437   0.001210437
Ni1      1.758272461   0.001212491   1.758272461
Ni1      0.001212491   1.758272461   1.758272461



     Writing output data file Ni-ferromag.save
     NEW-OLD atomic charge density approx. for the potential

     Check: negative/imaginary core charge=   -0.000005    0.000000
     extrapolated charge   39.33578, renormalised to   40.00000

     total cpu time spent up to now is      676.1 secs

     Self-consistent Calculation

     iteration #  1     ecut=    70.00 Ry     beta=0.20
     Davidson diagonalization with overlap
     c_bands:  2 eigenvalues not converged
     c_bands:  3 eigenvalues not converged
     c_bands:  2 eigenvalues not converged
     ethr =  1.00E-06,  avg # of iterations =  7.1

     total cpu time spent up to now is      782.0 secs

     total energy              =    -343.54249550 Ry
     Harris-Foulkes estimate   =    -344.36252860 Ry
     estimated scf accuracy    <       0.14392828 Ry

     total magnetization       =     2.55 Bohr mag/cell
     absolute magnetization    =     2.97 Bohr mag/cell

     iteration #  2     ecut=    70.00 Ry     beta=0.20
     Davidson diagonalization with overlap
     ethr =  3.60E-04,  avg # of iterations =  3.3

     total cpu time spent up to now is      828.4 secs

     total energy              =    -343.63317381 Ry
     Harris-Foulkes estimate   =    -343.64374600 Ry
     estimated scf accuracy    <       0.05423495 Ry

     total magnetization       =     2.94 Bohr mag/cell
     absolute magnetization    =     3.35 Bohr mag/cell

     iteration #  3     ecut=    70.00 Ry     beta=0.20
     Davidson diagonalization with overlap
     ethr =  1.36E-04,  avg # of iterations =  1.2

     total cpu time spent up to now is      870.5 secs

     total energy              =    -343.62653622 Ry
     Harris-Foulkes estimate   =    -343.63490535 Ry
     estimated scf accuracy    <       0.01875890 Ry

     total magnetization       =     2.90 Bohr mag/cell
     absolute magnetization    =     3.32 Bohr mag/cell

     iteration #  4     ecut=    70.00 Ry     beta=0.20
     Davidson diagonalization with overlap
     ethr =  4.69E-05,  avg # of iterations =  2.8

     total cpu time spent up to now is      915.0 secs

     total energy              =    -343.63034963 Ry
     Harris-Foulkes estimate   =    -343.63024509 Ry
     estimated scf accuracy    <       0.00008544 Ry

     total magnetization       =     2.84 Bohr mag/cell
     absolute magnetization    =     3.26 Bohr mag/cell

     iteration #  5     ecut=    70.00 Ry     beta=0.20
     Davidson diagonalization with overlap
     c_bands:  2 eigenvalues not converged
     ethr =  2.14E-07,  avg # of iterations =  4.3

     total cpu time spent up to now is      970.7 secs

     total energy              =    -343.63064697 Ry
     Harris-Foulkes estimate   =    -343.63041986 Ry
     estimated scf accuracy    <       0.00076522 Ry

     total magnetization       =     2.83 Bohr mag/cell
     absolute magnetization    =     3.25 Bohr mag/cell

     iteration #  6     ecut=    70.00 Ry     beta=0.20
     Davidson diagonalization with overlap
     ethr =  2.14E-07,  avg # of iterations =  2.0

     total cpu time spent up to now is     1013.8 secs

     total energy              =    -343.63030365 Ry
     Harris-Foulkes estimate   =    -343.63068860 Ry
     estimated scf accuracy    <       0.00184926 Ry

     total magnetization       =     2.82 Bohr mag/cell
     absolute magnetization    =     3.24 Bohr mag/cell

     iteration #  7     ecut=    70.00 Ry     beta=0.20
     Davidson diagonalization with overlap
     ethr =  2.14E-07,  avg # of iterations =  1.9

     total cpu time spent up to now is     1057.8 secs

     total energy              =    -343.63020658 Ry
     Harris-Foulkes estimate   =    -343.63036977 Ry
     estimated scf accuracy    <       0.00055473 Ry

     total magnetization       =     2.83 Bohr mag/cell
     absolute magnetization    =     3.25 Bohr mag/cell

     iteration #  8     ecut=    70.00 Ry     beta=0.20
     Davidson diagonalization with overlap
     ethr =  2.14E-07,  avg # of iterations =  1.9

     total cpu time spent up to now is     1100.9 secs

     total energy              =    -343.63026613 Ry
     Harris-Foulkes estimate   =    -343.63024925 Ry
     estimated scf accuracy    <       0.00006314 Ry

     total magnetization       =     2.84 Bohr mag/cell
     absolute magnetization    =     3.25 Bohr mag/cell

     iteration #  9     ecut=    70.00 Ry     beta=0.20
     Davidson diagonalization with overlap
     ethr =  1.58E-07,  avg # of iterations =  1.0

     total cpu time spent up to now is     1142.7 secs

     total energy              =    -343.63024264 Ry
     Harris-Foulkes estimate   =    -343.63026902 Ry
     estimated scf accuracy    <       0.00014210 Ry

     total magnetization       =     2.83 Bohr mag/cell
     absolute magnetization    =     3.25 Bohr mag/cell

     iteration # 10     ecut=    70.00 Ry     beta=0.20
     Davidson diagonalization with overlap
     ethr =  1.58E-07,  avg # of iterations =  1.0

     total cpu time spent up to now is     1184.5 secs

     total energy              =    -343.63022517 Ry
     Harris-Foulkes estimate   =    -343.63024661 Ry
     estimated scf accuracy    <       0.00005108 Ry

     total magnetization       =     2.83 Bohr mag/cell
     absolute magnetization    =     3.25 Bohr mag/cell

     iteration # 11     ecut=    70.00 Ry     beta=0.20
     Davidson diagonalization with overlap
     ethr =  1.28E-07,  avg # of iterations =  1.0

     Magnetic moment per site:
     atom:    1    charge:    3.0062    magn:    0.3351    constr:    0.0000
     atom:    2    charge:    3.0044    magn:    0.3350    constr:    0.0000
     atom:    3    charge:    3.0062    magn:    0.3351    constr:    0.0000
     atom:    4    charge:    3.0062    magn:    0.3351    constr:    0.0000

     total cpu time spent up to now is     1226.2 secs

     End of self-consistent calculation

 ------ SPIN UP ------------


          k = 0.0000 0.0000 0.0000 (  2945 PWs)   bands (ev):

     5.4275   9.7107   9.7107   9.7107  10.1634  10.1636  10.1636  11.9418
    11.9418  11.9418  13.1200  13.1200  13.8377  13.8377  13.8377  13.9274
    13.9274  13.9274  13.9276  13.9276  13.9276  17.0666  17.0667  17.0667
    23.8020  23.8020  23.8020  29.5605  29.5605  29.5605  29.5606  29.5606
    29.5606  34.6362  34.6362  34.6363  37.9798  37.9799  37.9799  38.4887
    42.4627  42.4627  42.4627  46.0578  46.0578  46.0578  48.1639  55.1548
    55.1548  55.1548  57.6036  59.0259

          k =-0.0000-0.0000 0.0476 (  2910 PWs)   bands (ev):

     5.7936   9.7328   9.8948   9.8948  10.2740  10.2897  10.2899  11.8132
    12.0441  12.0441  13.0019  13.1664  13.2742  13.2743  13.6841  13.6841
    13.7519  13.7519  13.7882  13.9278  13.9278  15.4658  18.0248  18.0249
    23.8980  23.8980  26.0512  27.8087  27.8088  28.4367  28.4367  30.1208
    30.1208  34.7524  36.8090  36.8091  37.8524  38.1117  39.9359  39.9360
    40.2415  40.2415  40.9079  47.4781  48.1159  48.1159  49.1371  51.5464
    56.2497  56.2497  56.6626  56.6628

          k =-0.0000-0.0000 0.0951 (  2910 PWs)   bands (ev):

     6.8427   9.5035  10.3316  10.3316  10.5814  10.6726  10.6729  11.4694
    12.2183  12.2186  12.3406  12.3406  12.7146  13.2953  13.3004  13.3004
    13.3021  13.3189  13.3189  13.6542  13.9284  13.9284  19.9866  19.9867
    24.2155  24.2155  25.0355  25.0356  26.6684  26.6684  30.3507  31.6995
    31.6995  35.1159  36.7189  37.0199  37.0199  38.3405  38.6639  40.8529
    40.8530  44.1009  44.1010  44.1328  50.9140  51.0373  51.0373  51.0400
    51.0401  55.0240  55.9278  55.9279

          k = 0.0000 0.0000-0.1427 (  2906 PWs)   bands (ev):

     8.3341   8.3495  10.6076  10.6076  11.0047  11.0271  11.3083  11.3084
    11.3305  11.3306  12.5221  12.5535  12.7838  12.7838  12.8006  12.8006
    13.0584  13.0584  13.4672  13.4795  13.9286  13.9286  22.3522  22.3523
    22.3911  22.3912  24.5891  24.5891  25.7226  25.7226  34.0630  34.0630
    34.0903  34.0903  34.8718  34.9292  35.7571  35.7706  40.2111  40.3030
    45.6138  45.6139  45.6938  45.6940  47.6062  47.6063  52.2779  52.2780
    54.1285  54.1285  54.2024  54.2024

          k =-0.0000 0.0476 0.0476 (  2911 PWs)   bands (ev):

     6.1511   9.9310   9.9311  10.0579  10.3912  10.3914  10.4052  11.7533
    12.0891  12.1061  12.9279  12.9695  12.9864  12.9945  13.1622  13.5558
    13.6801  13.6801  13.7504  13.7505  13.8120  16.3974  16.3974  18.7943
    23.8925  25.0912  26.2387  26.2388  28.2859  28.2859  28.9291  28.9294
    30.6482  36.0252  36.1104  37.0175  37.0177  37.3233  40.1049  40.1051
    41.2622  42.5927  43.5215  45.2217  46.3510  49.7747  50.4445  53.0795
    53.6580  55.3386  55.3392  56.2928

          k =-0.0000 0.0476 0.0951 (  2916 PWs)   bands (ev):

     7.1725   9.7395  10.4129  10.4614  10.6728  10.7261  10.7452  11.4726
    11.9800  12.1193  12.2350  12.3522  12.3782  12.8110  13.2322  13.3050
    13.3221  13.3417  13.4936  13.7466  13.7537  14.4308  18.0111  20.5765
    22.0741  24.6004  25.4967  26.5259  27.3924  29.5995  29.8906  29.9511
    31.0067  33.7151  34.4582  37.6699  38.6223  40.3809  40.5595  40.7369
    41.1087  44.0286  45.0201  47.0461  47.7752  48.5765  49.8825  51.3247
    52.9290  53.2502  54.8045  56.1912

          k = 0.0000 0.0476-0.1427 (  2906 PWs)   bands (ev):

     8.6160   8.6304  10.7596  10.7606  11.0564  11.0780  11.1785  11.1967
    11.3231  11.3448  12.1528  12.1760  12.7844  12.8016  13.0183  13.0259
    13.0432  13.0442  13.6568  13.6570  13.7431  13.7465  19.8694  19.8891
    22.8532  22.8882  25.3909  25.4176  28.2967  28.3055  31.4828  31.4945
    32.0082  32.0163  35.7868  35.8529  38.8165  38.8216  42.1731  42.2297
    43.0940  43.1151  45.8921  45.9677  50.0359  50.1035  50.3284  50.3602
    52.5891  52.6143  53.1810  53.2014

          k =-0.0000 0.0951 0.0951 (  2918 PWs)   bands (ev):

     8.0988  10.3268  10.3269  10.6924  10.9403  10.9409  10.9549  11.4030
    11.6496  11.6497  11.8041  12.1227  12.4828  12.7247  13.0164  13.1707
    13.1709  13.3115  13.3117  13.4816  13.6965  15.6763  15.6763  19.2939
    22.1026  25.1510  26.7686  26.7687  27.8888  27.8891  30.9766  31.6287
    31.6321  31.7315  33.5955  36.8289  41.5185  41.8705  41.8706  43.0647
    43.4036  43.7612  43.7613  47.1771  47.3182  48.4632  48.4637  51.6621
    52.1668  52.1798  53.1883  55.3356

          k = 0.0000 0.0951-0.1427 (  2914 PWs)   bands (ev):

     9.3597   9.3715  10.7904  10.8043  11.1819  11.1954  11.2064  11.2116
    11.3427  11.3629  11.8511  11.8663  12.8205  12.8295  12.8305  12.8377
    12.8974  12.9000  13.3413  13.3516  14.3564  14.3591  17.1996  17.2151
    24.2129  24.2394  26.2080  26.2297  28.6385  28.6511  29.5286  29.5313
    32.9378  32.9436  36.7497  36.8141  40.3489  40.3617  43.0341  43.0465
    43.2038  43.2097  46.6995  46.7610  47.8938  47.9311  50.3993  50.4336
    51.7217  51.7768  53.5450  53.5595

          k = 0.0000-0.1427-0.1427 (  2968 PWs)   bands (ev):

    10.2084  10.2186  10.2186  10.2285  11.2950  11.3143  11.3143  11.3334
    11.6182  11.6237  11.6237  11.6291  12.6819  12.6837  12.6837  12.6859
    12.9825  12.9984  12.9984  13.0142  15.4205  15.4277  15.4277  15.4350
    26.1812  26.1996  26.1996  26.2177  27.5584  27.5713  27.5714  27.5848
    37.8652  37.8828  37.8828  37.9011  38.4700  38.4922  38.4923  38.5122
    47.1685  47.1685  47.1690  47.1695  49.1446  49.1793  49.1793  49.2139
    51.8027  51.8057  51.8057  51.8084

          k = 0.0476 0.0476 0.0476 (  2905 PWs)   bands (ev):

     6.4968  10.0918  10.0919  10.0919  10.5055  10.5059  10.5059  11.7185
    12.1257  12.1257  12.6825  12.6825  12.6826  13.0752  13.0752  13.3224
    13.3227  13.3227  13.8660  13.8660  13.8660  17.0242  17.0243  17.0243
    25.3182  25.3183  25.3183  26.5836  26.5836  26.5837  31.1632  31.1634
    31.1634  33.4738  36.1567  36.1567  36.1568  39.2451  41.1276  41.1276
    42.7999  42.8000  42.8000  46.5828  47.6376  47.6376  51.6288  51.6288
    55.0978  55.2167  55.2173  55.2173

          k = 0.0476 0.0476 0.0951 (  2919 PWs)   bands (ev):

     7.4781   9.8981  10.4747  10.4748  10.7910  10.8194  10.8196  11.5092
    11.9703  11.9704  12.1635  12.2074  12.2654  12.9202  12.9902  13.0766
    13.0776  13.3151  13.7687  13.7687  13.8011  14.7925  18.3662  18.3662
    22.6996  22.6996  26.6113  27.2350  27.2350  30.3499  30.3500  30.7366
    30.9396  32.6425  36.6358  37.7684  37.8407  38.7810  38.7810  42.3505
    43.4921  44.4594  47.0089  47.0089  47.8707  49.0728  50.1892  50.1893
    50.6842  53.0061  53.0664  55.6419

          k = 0.0476 0.0476-0.1427 (  2922 PWs)   bands (ev):

     8.8438   8.8566  10.8611  10.8617  10.9198  10.9200  11.1530  11.1733
    11.5768  11.5769  12.0573  12.0801  12.5343  12.5421  12.9089  12.9091
    13.4764  13.4924  13.5891  13.5925  13.7128  13.7129  19.5149  19.5149
    21.1384  21.1384  28.1977  28.1997  28.4330  28.4423  28.9185  28.9216
    34.9180  34.9409  35.3845  35.4298  38.0612  38.1087  42.1946  42.1947
    44.7321  44.7577  45.3587  45.3588  49.4520  49.4877  50.8821  50.8944
    52.1726  52.1727  53.6652  53.6698

          k = 0.0476 0.0951 0.0951 (  2911 PWs)   bands (ev):

     8.3167  10.2156  10.2157  10.5016  11.1067  11.1526  11.1528  11.5543
    11.7666  11.7667  11.8997  12.1247  12.2502  12.7280  12.7282  12.7448
    13.0478  13.6022  13.6705  13.6867  13.6877  15.8070  15.8071  18.6182
    20.7960  23.8959  23.8959  27.9304  28.0501  31.1263  31.1263  32.1115
    32.1117  34.0084  35.2328  36.8999  39.3151  39.3152  40.1460  43.0263
    43.7250  44.7744  46.4522  46.4522  49.1799  49.1801  50.4066  50.5844
    50.9129  51.6053  52.2894  52.9153

          k = 0.0476 0.0951-0.1427 (  2908 PWs)   bands (ev):

     9.3958   9.4037  10.4355  10.4379  11.3197  11.3204  11.4602  11.4767
    11.7699  11.7768  11.8870  11.9020  12.3966  12.4022  12.6083  12.6119
    13.3414  13.3478  13.5688  13.5754  14.2629  14.2654  17.1782  17.1908
    21.8068  21.8166  25.6527  25.6597  29.4247  29.4307  33.0296  33.0322
    33.2420  33.2474  36.8695  36.9223  40.1225  40.1342  40.4317  40.4412
    45.1800  45.1843  45.6612  45.6866  47.6865  47.7001  50.5499  50.5710
    51.7734  51.7857  53.8638  53.8864

          k = 0.0476-0.1427-0.1427 (  2936 PWs)   bands (ev):

     9.9657   9.9691   9.9691   9.9721  11.7054  11.7108  11.7108  11.7158
    11.7877  11.7988  11.7988  11.8102  12.3654  12.3709  12.3709  12.3764
    13.3172  13.3272  13.3272  13.3372  15.3308  15.3387  15.3387  15.3468
    23.4377  23.4453  23.4453  23.4528  30.9627  30.9650  30.9650  30.9676
    38.1478  38.1617  38.1618  38.1795  38.3166  38.3377  38.3377  38.3536
    46.6436  46.6436  46.6442  46.6467  46.7280  46.7485  46.7485  46.7655
    54.7818  54.7953  54.7954  54.8127

          k = 0.0951 0.0951 0.0951 (  2941 PWs)   bands (ev):

     8.8605  10.0505  10.0508  10.0508  11.5109  11.5112  11.5112  12.0244
    12.0814  12.0814  12.0869  12.0957  12.0957  12.3742  12.3742  12.3745
    13.4502  13.4502  13.8147  13.8147  13.8148  16.1854  16.1855  16.1855
    21.4032  21.4032  21.4033  25.1428  32.4918  32.4918  32.4920  35.2353
    35.2354  35.2354  37.2651  37.2651  37.2653  37.7848  39.9418  39.9418
    44.4348  44.4348  47.7618  48.0552  48.0552  48.0561  48.1290  48.1291
    48.1291  52.4363  52.4367  52.4367

          k = 0.0951 0.0951-0.1427 (  2944 PWs)   bands (ev):

     9.4854   9.4875   9.9821   9.9823  11.6308  11.6310  11.9111  11.9235
    12.1330  12.1348  12.2513  12.2543  12.2643  12.2768  12.3691  12.3694
    13.7344  13.7357  13.7431  13.7438  14.1539  14.1547  16.4699  16.4699
    20.3742  20.3743  22.9572  22.9645  33.4078  33.4078  34.6184  34.6187
    36.3120  36.3341  37.2313  37.2432  38.9665  39.0041  39.4313  39.4313
    44.6414  44.6415  44.8837  44.9024  46.0039  46.0089  48.5403  48.5403
    49.5906  49.5984  52.9654  52.9663

          k = 0.0951-0.1427-0.1427 (  2936 PWs)   bands (ev):

     9.6618   9.6621   9.6621   9.6621  11.8735  11.8768  11.8768  11.8799
    12.0630  12.0664  12.0664  12.0700  12.8088  12.8159  12.8159  12.8231
    13.6579  13.6633  13.6634  13.6689  14.9534  14.9625  14.9625  14.9716
    21.0815  21.0876  21.0877  21.0938  35.1443  35.1472  35.1473  35.1504
    38.2013  38.2110  38.2110  38.2210  38.9209  38.9312  38.9312  38.9403
    44.0749  44.0836  44.0836  44.0921  45.1446  45.1469  45.1469  45.1490
    50.4046  50.4082  50.4082  50.4124

          k =-0.1427-0.1427-0.1427 (  2872 PWs)   bands (ev):

     9.5459   9.5462   9.5462   9.5462  11.9548  11.9548  11.9548  11.9549
    11.9549  11.9552  11.9552  11.9552  13.7902  13.7902  13.7902  13.7907
    13.7907  13.7908  13.7908  13.7908  14.2882  14.2886  14.2887  14.2887
    20.2064  20.2064  20.2065  20.2065  36.9438  36.9440  36.9440  36.9440
    39.5670  39.5670  39.5671  39.5671  39.5671  39.5675  39.5675  39.5676
    42.7923  42.7923  42.7924  42.7924  42.7925  42.7926  42.7927  42.7927
    48.7620  48.7620  48.7620  48.7622

          k =-0.0476 0.0000 0.0476 (  2911 PWs)   bands (ev):

     6.1511   9.9311   9.9311  10.0579  10.3912  10.3914  10.4052  11.7533
    12.0891  12.1061  12.9279  12.9695  12.9864  12.9945  13.1622  13.5558
    13.6801  13.6801  13.7504  13.7505  13.8120  16.3974  16.3974  18.7943
    23.8925  25.0912  26.2386  26.2388  28.2858  28.2859  28.9291  28.9294
    30.6482  36.0252  36.1104  37.0175  37.0177  37.3233  40.1048  40.1052
    41.2622  42.5927  43.5215  45.2217  46.3510  49.7747  50.4445  53.0795
    53.6580  55.3386  55.3392  56.2928

          k =-0.0476-0.0000 0.0951 (  2916 PWs)   bands (ev):

     7.1725   9.7395  10.4129  10.4614  10.6728  10.7261  10.7452  11.4726
    11.9800  12.1193  12.2350  12.3522  12.3782  12.8110  13.2322  13.3050
    13.3221  13.3417  13.4936  13.7466  13.7537  14.4308  18.0111  20.5765
    22.0741  24.6004  25.4967  26.5259  27.3924  29.5995  29.8906  29.9511
    31.0067  33.7151  34.4582  37.6699  38.6223  40.3809  40.5595  40.7369
    41.1087  44.0286  45.0201  47.0461  47.7752  48.5765  49.8825  51.3247
    52.9290  53.2502  54.8045  56.1912

          k =-0.0951 0.0000 0.0951 (  2918 PWs)   bands (ev):

     8.0988  10.3268  10.3268  10.6924  10.9403  10.9410  10.9549  11.4030
    11.6496  11.6497  11.8041  12.1227  12.4828  12.7247  13.0164  13.1707
    13.1709  13.3115  13.3117  13.4816  13.6965  15.6763  15.6763  19.2939
    22.1026  25.1510  26.7686  26.7687  27.8888  27.8891  30.9766  31.6287
    31.6320  31.7315  33.5955  36.8289  41.5185  41.8705  41.8706  43.0647
    43.4036  43.7612  43.7613  47.1771  47.3182  48.4633  48.4637  51.6621
    52.1668  52.1798  53.1883  55.3365

          k = 0.0476-0.0476 0.0476 (  2905 PWs)   bands (ev):

     6.4968  10.0919  10.0919  10.0919  10.5055  10.5059  10.5059  11.7185
    12.1257  12.1257  12.6825  12.6825  12.6826  13.0752  13.0752  13.3224
    13.3227  13.3227  13.8660  13.8660  13.8660  17.0243  17.0243  17.0243
    25.3182  25.3183  25.3183  26.5836  26.5836  26.5838  31.1632  31.1634
    31.1634  33.4738  36.1566  36.1567  36.1569  39.2451  41.1276  41.1276
    42.7999  42.8000  42.8000  46.5828  47.6376  47.6376  51.6288  51.6288
    55.0978  55.2168  55.2173  55.2173

          k = 0.0476-0.0476 0.0951 (  2919 PWs)   bands (ev):

     7.4781   9.8981  10.4747  10.4748  10.7910  10.8194  10.8196  11.5092
    11.9703  11.9704  12.1635  12.2074  12.2654  12.9202  12.9902  13.0766
    13.0776  13.3151  13.7687  13.7687  13.8011  14.7925  18.3662  18.3662
    22.6996  22.6996  26.6113  27.2350  27.2350  30.3499  30.3500  30.7366
    30.9396  32.6425  36.6358  37.7684  37.8407  38.7810  38.7810  42.3505
    43.4921  44.4594  47.0089  47.0089  47.8707  49.0728  50.1892  50.1893
    50.6842  53.0061  53.0664  55.6419

          k =-0.0951 0.0476 0.0476 (  2919 PWs)   bands (ev):

     7.4781   9.8981  10.4747  10.4748  10.7910  10.8194  10.8196  11.5092
    11.9703  11.9704  12.1635  12.2074  12.2654  12.9202  12.9902  13.0766
    13.0776  13.3151  13.7687  13.7687  13.8011  14.7925  18.3662  18.3662
    22.6996  22.6996  26.6113  27.2350  27.2350  30.3499  30.3500  30.7366
    30.9396  32.6425  36.6358  37.7684  37.8407  38.7810  38.7810  42.3505
    43.4921  44.4594  47.0089  47.0089  47.8707  49.0728  50.1892  50.1893
    50.6842  53.0061  53.0664  55.6419

          k = 0.0476-0.0476-0.1427 (  2922 PWs)   bands (ev):

     8.8438   8.8566  10.8611  10.8617  10.9199  10.9200  11.1530  11.1733
    11.5768  11.5769  12.0573  12.0801  12.5343  12.5421  12.9089  12.9091
    13.4764  13.4924  13.5891  13.5925  13.7128  13.7129  19.5149  19.5149
    21.1384  21.1384  28.1977  28.1996  28.4330  28.4423  28.9185  28.9216
    34.9180  34.9409  35.3845  35.4298  38.0612  38.1087  42.1946  42.1947
    44.7321  44.7577  45.3587  45.3588  49.4520  49.4877  50.8821  50.8944
    52.1726  52.1727  53.6652  53.6698

          k = 0.0951-0.0476 0.0951 (  2911 PWs)   bands (ev):

     8.3167  10.2156  10.2157  10.5016  11.1067  11.1526  11.1528  11.5543
    11.7666  11.7667  11.8997  12.1247  12.2502  12.7280  12.7282  12.7448
    13.0478  13.6022  13.6705  13.6867  13.6877  15.8070  15.8071  18.6182
    20.7960  23.8959  23.8959  27.9304  28.0501  31.1263  31.1263  32.1115
    32.1117  34.0084  35.2328  36.8999  39.3151  39.3152  40.1460  43.0263
    43.7250  44.7744  46.4522  46.4522  49.1799  49.1801  50.4066  50.5844
    50.9129  51.6053  52.2894  52.9154

          k =-0.0951 0.0476 0.0951 (  2911 PWs)   bands (ev):

     8.3167  10.2156  10.2157  10.5016  11.1067  11.1526  11.1528  11.5543
    11.7666  11.7667  11.8997  12.1247  12.2502  12.7280  12.7282  12.7448
    13.0478  13.6022  13.6705  13.6867  13.6877  15.8071  15.8071  18.6182
    20.7960  23.8959  23.8959  27.9304  28.0501  31.1262  31.1263  32.1115
    32.1117  34.0084  35.2328  36.8999  39.3151  39.3153  40.1460  43.0263
    43.7250  44.7744  46.4522  46.4522  49.1799  49.1801  50.4066  50.5844
    50.9129  51.6053  52.2894  52.9152

          k = 0.0951-0.0476-0.1427 (  2908 PWs)   bands (ev):

     9.3958   9.4037  10.4355  10.4379  11.3197  11.3204  11.4602  11.4767
    11.7699  11.7768  11.8870  11.9020  12.3966  12.4022  12.6083  12.6119
    13.3414  13.3478  13.5688  13.5754  14.2629  14.2654  17.1782  17.1908
    21.8068  21.8166  25.6527  25.6597  29.4247  29.4307  33.0296  33.0322
    33.2420  33.2474  36.8695  36.9223  40.1225  40.1342  40.4317  40.4412
    45.1800  45.1843  45.6612  45.6866  47.6865  47.7001  50.5499  50.5711
    51.7734  51.7857  53.8641  53.8873

          k = 0.0951-0.0951 0.0951 (  2941 PWs)   bands (ev):

     8.8605  10.0505  10.0508  10.0508  11.5109  11.5112  11.5112  12.0244
    12.0814  12.0814  12.0869  12.0957  12.0957  12.3742  12.3742  12.3745
    13.4502  13.4502  13.8147  13.8148  13.8148  16.1855  16.1855  16.1855
    21.4032  21.4033  21.4033  25.1428  32.4918  32.4918  32.4920  35.2353
    35.2354  35.2354  37.2650  37.2650  37.2653  37.7848  39.9418  39.9418
    44.4348  44.4348  47.7618  48.0552  48.0552  48.0562  48.1290  48.1291
    48.1291  52.4363  52.4367  52.4367

          k = 0.0951-0.0951-0.1427 (  2944 PWs)   bands (ev):

     9.4854   9.4875   9.9821   9.9823  11.6308  11.6310  11.9111  11.9235
    12.1330  12.1348  12.2513  12.2543  12.2643  12.2768  12.3691  12.3694
    13.7344  13.7357  13.7431  13.7438  14.1540  14.1547  16.4699  16.4699
    20.3742  20.3742  22.9572  22.9645  33.4077  33.4078  34.6184  34.6187
    36.3120  36.3341  37.2313  37.2432  38.9665  39.0041  39.4312  39.4313
    44.6413  44.6415  44.8837  44.9024  46.0039  46.0089  48.5403  48.5403
    49.5906  49.5984  52.9654  52.9663

 ------ SPIN DOWN ----------


          k = 0.0000 0.0000 0.0000 (  2945 PWs)   bands (ev):

     5.3727  10.1730  10.1730  10.1730  10.8819  10.8823  10.8823  12.8228
    12.8228  12.8228  13.9005  13.9005  14.6523  14.6523  14.6523  14.9374
    14.9374  14.9374  14.9376  14.9376  14.9376  16.9877  16.9878  16.9878
    24.1077  24.1077  24.1077  29.5466  29.5466  29.5466  29.5468  29.5468
    29.5468  34.8004  34.8004  34.8005  38.1232  38.1234  38.1234  38.2830
    42.4334  42.4334  42.4334  46.1302  46.1302  46.1302  48.0042  55.3438
    55.3438  55.3438  58.1239  59.5433

          k =-0.0000-0.0000 0.0476 (  2910 PWs)   bands (ev):

     5.7388  10.1486  10.3672  10.3672  11.0014  11.0058  11.0061  12.6809
    12.9291  12.9291  13.7727  13.9489  14.0948  14.0950  14.4853  14.4853
    14.6004  14.7450  14.7450  14.9379  14.9379  15.5360  18.1315  18.1316
    24.1886  24.1886  26.2531  27.8772  27.8774  28.4639  28.4639  30.1233
    30.1233  34.9041  36.8899  36.8900  37.7136  38.2527  40.0558  40.0559
    40.2839  40.2839  40.8379  47.4985  48.0896  48.0896  49.2089  51.5369
    56.4609  56.4609  56.5889  56.5892

          k =-0.0000-0.0000 0.0951 (  2910 PWs)   bands (ev):

     6.7922   9.7117  10.8285  10.8285  11.3343  11.3833  11.3837  12.3029
    12.9480  12.9485  13.2387  13.2387  13.4517  13.6737  14.0733  14.0733
    14.0839  14.2706  14.2706  14.4598  14.9385  14.9385  20.1716  20.1718
    24.4617  24.4617  25.1762  25.1762  26.7664  26.7665  30.4463  31.7363
    31.7363  35.2298  36.6841  37.0913  37.0913  38.2502  38.8097  40.8582
    40.8584  44.2002  44.2002  44.3509  50.8694  50.9423  50.9423  50.9664
    50.9665  54.9194  56.1683  56.1683

          k = 0.0000 0.0000-0.1427 (  2906 PWs)   bands (ev):

     8.3272   8.3431  11.1201  11.1201  11.7947  11.8187  12.0177  12.0180
    12.0405  12.0408  13.1689  13.2033  13.7048  13.7048  13.7223  13.7223
    13.8067  13.8067  14.2639  14.2767  14.9388  14.9388  22.5334  22.5334
    22.5732  22.5732  24.7857  24.7857  25.8799  25.8799  34.1280  34.1280
    34.1553  34.1553  34.8510  34.9102  35.8071  35.8233  40.4023  40.4957
    45.5683  45.5684  45.6502  45.6504  47.6801  47.6802  52.4668  52.4668
    54.0180  54.0180  54.0919  54.0919

          k =-0.0000 0.0476 0.0476 (  2911 PWs)   bands (ev):

     6.0973  10.3594  10.3594  10.5491  11.1053  11.1156  11.1159  12.6073
    12.9795  12.9839  13.6934  13.7251  13.7350  13.7564  13.9498  14.3470
    14.4729  14.4730  14.7438  14.7438  14.8147  16.7119  16.7119  18.9599
    24.1513  25.2208  26.4273  26.4275  28.3687  28.3687  28.9701  28.9704
    30.6592  36.1015  36.1298  37.0880  37.0883  37.3407  40.2226  40.2228
    41.1813  42.6799  43.4906  45.1651  46.4116  49.9333  50.3698  53.2521
    53.6232  55.3004  55.3010  56.2330

          k =-0.0000 0.0476 0.0951 (  2916 PWs)   bands (ev):

     7.1268   9.9621  10.8755  10.9938  11.3885  11.4211  11.4625  12.2951
    12.6719  12.8407  13.0323  13.0773  13.2548  13.5759  13.9976  14.0823
    14.1528  14.2397  14.2690  14.7405  14.7507  15.1403  18.3498  20.7805
    22.2726  24.8284  25.6483  26.6606  27.5176  29.7079  29.9528  30.0211
    31.1040  33.7932  34.5006  37.7119  38.6601  40.3324  40.5070  40.8565
    41.1082  44.1107  45.2245  47.1125  47.6974  48.5588  49.8665  51.2498
    52.8844  53.1594  55.0239  56.4434

          k = 0.0000 0.0476-0.1427 (  2906 PWs)   bands (ev):

     8.6212   8.6362  11.2627  11.2646  11.8351  11.8571  11.8601  11.8787
    12.0353  12.0576  12.8925  12.9191  13.7080  13.7256  13.7874  13.7914
    13.7967  13.7994  14.4956  14.4963  14.7376  14.7414  20.1507  20.1707
    23.0462  23.0815  25.5614  25.5901  28.4128  28.4233  31.5974  31.6078
    32.0666  32.0736  35.8120  35.8780  38.8185  38.8221  42.3247  42.3833
    43.0858  43.1092  45.8432  45.9206  50.1019  50.1682  50.2606  50.2927
    52.5049  52.5312  53.3487  53.3689

          k =-0.0000 0.0951 0.0951 (  2918 PWs)   bands (ev):

     8.0766  10.6001  10.6002  11.3571  11.4394  11.6764  11.6771  12.1974
    12.3433  12.3433  12.5168  12.9144  13.3986  13.4721  13.7705  13.9087
    13.9090  14.2728  14.2729  14.4629  14.5394  16.2818  16.2819  19.6015
    22.3218  25.3494  26.9354  26.9354  27.9900  27.9903  31.1075  31.7169
    31.7208  31.7995  33.6479  36.8646  41.4548  41.8523  41.8525  43.0994
    43.2861  43.8035  43.8036  47.2982  47.3474  48.5080  48.5085  51.7214
    52.0567  52.1214  53.3913  55.2398

          k = 0.0000 0.0951-0.1427 (  2914 PWs)   bands (ev):

     9.4205   9.4333  11.2105  11.2242  11.8417  11.8429  11.9480  11.9694
    12.0635  12.0847  12.5876  12.6045  13.5647  13.5651  13.6365  13.6391
    13.7568  13.7751  14.3099  14.3211  15.1626  15.1660  17.6641  17.6792
    24.4183  24.4443  26.3587  26.3824  28.8014  28.8127  29.6181  29.6219
    33.0088  33.0160  36.7772  36.8418  40.3485  40.3598  42.9803  42.9918
    43.2224  43.2276  46.6371  46.6998  47.9751  48.0141  50.3460  50.3812
    51.8425  51.8975  53.4600  53.4737

          k = 0.0000-0.1427-0.1427 (  2968 PWs)   bands (ev):

    10.4266  10.4380  10.4380  10.4492  12.0319  12.0525  12.0525  12.0728
    12.2871  12.2935  12.2935  12.2999  13.4199  13.4220  13.4220  13.4244
    13.9312  13.9479  13.9479  13.9646  16.1038  16.1100  16.1100  16.1161
    26.3773  26.3945  26.3946  26.4115  27.6805  27.6949  27.6950  27.7099
    37.9397  37.9567  37.9567  37.9749  38.4373  38.4584  38.4585  38.4768
    47.0480  47.0485  47.0486  47.0505  49.1328  49.1684  49.1684  49.2039
    51.9021  51.9068  51.9069  51.9112

          k = 0.0476 0.0476 0.0476 (  2905 PWs)   bands (ev):

     6.4458  10.5472  10.5473  10.5473  11.2065  11.2070  11.2070  12.5524
    13.0043  13.0043  13.3937  13.3937  13.3937  13.8621  13.8621  14.1540
    14.1543  14.1543  14.8148  14.8148  14.8150  17.3653  17.3654  17.3654
    25.4497  25.4498  25.4498  26.7569  26.7569  26.7570  31.1849  31.1852
    31.1852  33.5403  36.2516  36.2516  36.2517  39.0895  41.1802  41.1802
    42.8839  42.8840  42.8840  46.4952  47.5947  47.5947  51.7955  51.7955
    55.1698  55.1704  55.1704  55.4349

          k = 0.0476 0.0476 0.0951 (  2919 PWs)   bands (ev):

     7.4429  10.1608  11.0066  11.0067  11.4480  11.4484  11.5040  12.3054
    12.6732  12.6732  12.8380  13.0368  13.1263  13.7669  13.8001  13.8639
    13.8655  14.1379  14.7027  14.7325  14.7328  15.4232  18.6931  18.6932
    22.9098  22.9098  26.7555  27.3840  27.3840  30.4247  30.4249  30.8507
    31.0270  32.6889  36.7102  37.6742  37.9178  38.8112  38.8113  42.3581
    43.5723  44.4767  47.0530  47.0530  47.9126  49.0184  50.1780  50.1781
    50.6910  52.9353  53.0264  55.7567

          k = 0.0476 0.0476-0.1427 (  2922 PWs)   bands (ev):

     8.8777   8.8916  11.4341  11.4342  11.5011  11.5017  11.9033  11.9254
    12.2913  12.2914  12.8062  12.8315  13.3862  13.3925  13.6730  13.6732
    14.2810  14.2982  14.4516  14.4534  14.6851  14.6852  19.7722  19.7723
    21.4424  21.4424  28.3126  28.3145  28.5751  28.5836  29.0331  29.0365
    34.9875  35.0100  35.3569  35.4038  38.1383  38.1861  42.1759  42.1759
    44.8178  44.8456  45.3476  45.3478  49.3724  49.4081  50.8363  50.8487
    52.2060  52.2061  53.8412  53.8490

          k = 0.0476 0.0951 0.0951 (  2911 PWs)   bands (ev):

     8.3286  10.6086  10.6087  11.1204  11.6142  11.7546  11.7551  12.2814
    12.4871  12.4873  12.6120  12.9259  13.0750  13.5271  13.5281  13.5313
    13.8916  14.4517  14.5993  14.6004  14.6184  16.3606  16.3607  18.8929
    21.1400  24.1129  24.1129  28.0900  28.1800  31.1900  31.1900  32.2040
    32.2043  34.0629  35.2583  36.9250  39.3298  39.3299  40.0695  43.1399
    43.7166  44.7201  46.4461  46.4462  49.2345  49.2347  50.3382  50.5680
    50.8892  51.6778  52.3547  52.8424

          k = 0.0476 0.0951-0.1427 (  2908 PWs)   bands (ev):

     9.5441   9.5544  10.9697  10.9743  11.8737  11.8759  12.1054  12.1241
    12.4635  12.4720  12.6468  12.6636  13.2018  13.2061  13.3835  13.3865
    14.2057  14.2150  14.5048  14.5122  15.0559  15.0592  17.5897  17.6017
    22.1075  22.1163  25.8532  25.8591  29.5244  29.5320  33.0872  33.0881
    33.3102  33.3171  36.8827  36.9350  40.1071  40.1179  40.4539  40.4640
    45.1674  45.1711  45.6522  45.6791  47.6664  47.6818  50.5880  50.6092
    51.7130  51.7249  53.9456  53.9678

          k = 0.0476-0.1427-0.1427 (  2936 PWs)   bands (ev):

    10.3198  10.3262  10.3262  10.3322  12.2726  12.2817  12.2817  12.2907
    12.4911  12.5022  12.5022  12.5133  13.1436  13.1484  13.1484  13.1534
    14.2282  14.2397  14.2397  14.2513  15.9780  15.9847  15.9847  15.9914
    23.6966  23.7030  23.7030  23.7093  31.0439  31.0477  31.0477  31.0517
    38.2205  38.2288  38.2288  38.2512  38.2686  38.2935  38.2936  38.3031
    46.5760  46.5760  46.5763  46.5779  46.7524  46.7734  46.7734  46.7925
    54.8450  54.8593  54.8593  55.0760

          k = 0.0951 0.0951 0.0951 (  2941 PWs)   bands (ev):

     8.9936  10.5605  10.5608  10.5608  12.0703  12.0705  12.0705  12.5479
    12.7654  12.7654  12.7664  12.8932  12.8932  13.1657  13.1657  13.1660
    14.3316  14.3316  14.7429  14.7429  14.7431  16.6121  16.6122  16.6122
    21.7419  21.7419  21.7419  25.3682  32.5382  32.5382  32.5383  35.2966
    35.2969  35.2969  37.2777  37.2777  37.2779  37.6137  40.0279  40.0279
    44.4440  44.4440  47.7767  48.0036  48.0036  48.0046  48.1303  48.1305
    48.1305  52.4675  52.4678  52.4678

          k = 0.0951 0.0951-0.1427 (  2944 PWs)   bands (ev):

     9.8165   9.8213  10.5205  10.5207  12.2628  12.2630  12.5701  12.5824
    12.8159  12.8315  12.9257  12.9269  12.9696  12.9696  13.0334  13.0334
    14.6436  14.6456  14.6719  14.6725  14.8691  14.8719  16.8014  16.8015
    20.8114  20.8114  23.2471  23.2534  33.4155  33.4155  34.7043  34.7047
    36.2026  36.2260  37.3041  37.3152  39.0469  39.0841  39.4057  39.4058
    44.6678  44.6680  44.8607  44.8797  46.0117  46.0177  48.5000  48.5001
    49.6440  49.6518  53.0742  53.0751

          k = 0.0951-0.1427-0.1427 (  2936 PWs)   bands (ev):

    10.1315  10.1331  10.1331  10.1342  12.6069  12.6101  12.6101  12.6132
    12.8395  12.8427  12.8427  12.8461  13.2483  13.2566  13.2566  13.2649
    14.5759  14.5820  14.5820  14.5882  15.4867  15.4942  15.4942  15.5015
    21.4753  21.4805  21.4805  21.4856  35.1167  35.1213  35.1214  35.1261
    38.1712  38.1799  38.1799  38.1890  38.9905  39.0003  39.0003  39.0089
    44.1059  44.1156  44.1157  44.1251  45.1367  45.1395  45.1396  45.1422
    50.4948  50.4985  50.4985  50.5028

          k =-0.1427-0.1427-0.1427 (  2872 PWs)   bands (ev):

    10.0475  10.0478  10.0478  10.0478  12.7282  12.7282  12.7282  12.7284
    12.7284  12.7285  12.7285  12.7285  14.1883  14.1884  14.1884  14.1888
    14.7146  14.7146  14.7148  14.7148  14.7148  14.7150  14.7150  14.7150
    20.6889  20.6889  20.6889  20.6890  36.7595  36.7598  36.7598  36.7598
    39.6371  39.6371  39.6371  39.6372  39.6372  39.6376  39.6376  39.6376
    42.8227  42.8227  42.8228  42.8228  42.8228  42.8230  42.8230  42.8230
    48.8760  48.8760  48.8760  48.8762

          k =-0.0476 0.0000 0.0476 (  2911 PWs)   bands (ev):

     6.0973  10.3594  10.3594  10.5491  11.1053  11.1156  11.1159  12.6073
    12.9795  12.9839  13.6934  13.7251  13.7350  13.7564  13.9498  14.3470
    14.4730  14.4730  14.7438  14.7438  14.8147  16.7119  16.7119  18.9599
    24.1513  25.2208  26.4273  26.4275  28.3687  28.3688  28.9700  28.9704
    30.6592  36.1015  36.1298  37.0881  37.0883  37.3407  40.2225  40.2230
    41.1813  42.6799  43.4906  45.1651  46.4116  49.9333  50.3698  53.2521
    53.6232  55.3004  55.3010  56.2330

          k =-0.0476-0.0000 0.0951 (  2916 PWs)   bands (ev):

     7.1268   9.9621  10.8755  10.9938  11.3885  11.4211  11.4625  12.2951
    12.6718  12.8407  13.0323  13.0773  13.2548  13.5759  13.9976  14.0823
    14.1528  14.2397  14.2690  14.7405  14.7507  15.1403  18.3498  20.7805
    22.2726  24.8284  25.6483  26.6606  27.5176  29.7079  29.9528  30.0211
    31.1040  33.7932  34.5006  37.7119  38.6601  40.3324  40.5070  40.8565
    41.1082  44.1107  45.2245  47.1125  47.6974  48.5588  49.8665  51.2498
    52.8844  53.1594  55.0239  56.4434

          k =-0.0951 0.0000 0.0951 (  2918 PWs)   bands (ev):

     8.0766  10.6001  10.6002  11.3571  11.4394  11.6764  11.6771  12.1974
    12.3433  12.3433  12.5168  12.9144  13.3986  13.4721  13.7705  13.9087
    13.9090  14.2728  14.2729  14.4629  14.5394  16.2818  16.2818  19.6015
    22.3218  25.3494  26.9353  26.9355  27.9899  27.9903  31.1075  31.7169
    31.7208  31.7995  33.6479  36.8646  41.4548  41.8523  41.8524  43.0994
    43.2861  43.8035  43.8036  47.2982  47.3474  48.5080  48.5085  51.7214
    52.0567  52.1214  53.3913  55.2417

          k = 0.0476-0.0476 0.0476 (  2905 PWs)   bands (ev):

     6.4458  10.5472  10.5473  10.5473  11.2065  11.2070  11.2070  12.5524
    13.0043  13.0043  13.3937  13.3937  13.3937  13.8621  13.8621  14.1540
    14.1543  14.1543  14.8148  14.8148  14.8150  17.3653  17.3654  17.3654
    25.4497  25.4498  25.4498  26.7568  26.7569  26.7570  31.1850  31.1851
    31.1852  33.5403  36.2515  36.2516  36.2518  39.0895  41.1802  41.1802
    42.8839  42.8840  42.8840  46.4952  47.5947  47.5947  51.7955  51.7955
    55.1699  55.1704  55.1704  55.4348

          k = 0.0476-0.0476 0.0951 (  2919 PWs)   bands (ev):

     7.4429  10.1608  11.0066  11.0067  11.4480  11.4484  11.5040  12.3054
    12.6732  12.6732  12.8380  13.0368  13.1263  13.7669  13.8001  13.8639
    13.8654  14.1379  14.7027  14.7325  14.7328  15.4232  18.6931  18.6932
    22.9098  22.9098  26.7555  27.3840  27.3840  30.4247  30.4248  30.8507
    31.0270  32.6889  36.7102  37.6742  37.9178  38.8112  38.8113  42.3581
    43.5723  44.4767  47.0530  47.0531  47.9126  49.0184  50.1779  50.1781
    50.6910  52.9353  53.0264  55.7564

          k =-0.0951 0.0476 0.0476 (  2919 PWs)   bands (ev):

     7.4429  10.1608  11.0066  11.0067  11.4480  11.4484  11.5040  12.3054
    12.6732  12.6732  12.8380  13.0368  13.1263  13.7669  13.8001  13.8639
    13.8655  14.1379  14.7027  14.7325  14.7328  15.4232  18.6931  18.6932
    22.9098  22.9098  26.7555  27.3840  27.3840  30.4247  30.4249  30.8507
    31.0270  32.6889  36.7102  37.6742  37.9178  38.8112  38.8113  42.3581
    43.5723  44.4767  47.0530  47.0530  47.9126  49.0184  50.1780  50.1781
    50.6910  52.9353  53.0264  55.7567

          k = 0.0476-0.0476-0.1427 (  2922 PWs)   bands (ev):

     8.8777   8.8916  11.4341  11.4341  11.5011  11.5017  11.9033  11.9254
    12.2913  12.2914  12.8062  12.8315  13.3862  13.3925  13.6730  13.6733
    14.2810  14.2982  14.4516  14.4534  14.6851  14.6852  19.7722  19.7722
    21.4424  21.4424  28.3127  28.3145  28.5751  28.5836  29.0331  29.0365
    34.9875  35.0100  35.3569  35.4038  38.1383  38.1861  42.1758  42.1759
    44.8178  44.8456  45.3476  45.3478  49.3724  49.4081  50.8363  50.8487
    52.2060  52.2062  53.8414  53.8490

          k = 0.0951-0.0476 0.0951 (  2911 PWs)   bands (ev):

     8.3286  10.6086  10.6087  11.1204  11.6142  11.7546  11.7551  12.2814
    12.4871  12.4873  12.6120  12.9259  13.0750  13.5271  13.5281  13.5313
    13.8916  14.4517  14.5993  14.6004  14.6184  16.3606  16.3607  18.8929
    21.1400  24.1129  24.1129  28.0900  28.1800  31.1900  31.1900  32.2040
    32.2043  34.0629  35.2583  36.9250  39.3298  39.3299  40.0695  43.1399
    43.7166  44.7201  46.4461  46.4462  49.2345  49.2347  50.3382  50.5680
    50.8892  51.6778  52.3547  52.8421

          k =-0.0951 0.0476 0.0951 (  2911 PWs)   bands (ev):

     8.3286  10.6086  10.6087  11.1204  11.6142  11.7546  11.7551  12.2814
    12.4871  12.4873  12.6120  12.9259  13.0750  13.5271  13.5281  13.5313
    13.8916  14.4517  14.5993  14.6004  14.6184  16.3606  16.3607  18.8929
    21.1400  24.1129  24.1129  28.0900  28.1800  31.1899  31.1901  32.2041
    32.2043  34.0629  35.2583  36.9250  39.3298  39.3300  40.0695  43.1399
    43.7166  44.7201  46.4461  46.4462  49.2345  49.2347  50.3382  50.5680
    50.8892  51.6778  52.3547  52.8424

          k = 0.0951-0.0476-0.1427 (  2908 PWs)   bands (ev):

     9.5441   9.5544  10.9697  10.9743  11.8737  11.8759  12.1054  12.1241
    12.4635  12.4720  12.6468  12.6636  13.2018  13.2061  13.3835  13.3865
    14.2057  14.2150  14.5048  14.5122  15.0559  15.0592  17.5897  17.6017
    22.1075  22.1163  25.8532  25.8591  29.5244  29.5320  33.0872  33.0881
    33.3102  33.3171  36.8827  36.9350  40.1071  40.1179  40.4539  40.4640
    45.1674  45.1711  45.6522  45.6791  47.6664  47.6818  50.5880  50.6092
    51.7130  51.7249  53.9456  53.9678

          k = 0.0951-0.0951 0.0951 (  2941 PWs)   bands (ev):

     8.9936  10.5605  10.5608  10.5608  12.0703  12.0705  12.0705  12.5479
    12.7654  12.7654  12.7664  12.8932  12.8932  13.1657  13.1657  13.1660
    14.3316  14.3316  14.7429  14.7429  14.7431  16.6121  16.6122  16.6122
    21.7419  21.7419  21.7419  25.3682  32.5381  32.5382  32.5384  35.2967
    35.2968  35.2969  37.2776  37.2777  37.2780  37.6137  40.0279  40.0279
    44.4440  44.4440  47.7767  48.0035  48.0036  48.0047  48.1303  48.1305
    48.1305  52.4675  52.4678  52.4678

          k = 0.0951-0.0951-0.1427 (  2944 PWs)   bands (ev):

     9.8165   9.8213  10.5205  10.5207  12.2628  12.2630  12.5701  12.5824
    12.8159  12.8315  12.9257  12.9269  12.9696  12.9696  13.0334  13.0335
    14.6436  14.6456  14.6719  14.6725  14.8691  14.8719  16.8015  16.8015
    20.8114  20.8114  23.2471  23.2534  33.4155  33.4156  34.7044  34.7046
    36.2026  36.2260  37.3041  37.3152  39.0469  39.0841  39.4057  39.4058
    44.6678  44.6680  44.8607  44.8797  46.0117  46.0177  48.5000  48.5001
    49.6440  49.6518  53.0742  53.0751

     the Fermi energy is    14.4878 ev

!    total energy              =    -343.63023410 Ry
     Harris-Foulkes estimate   =    -343.63023410 Ry
     estimated scf accuracy    <          1.9E-09 Ry

     The total energy is the sum of the following terms:

     one-electron contribution =      -6.42413090 Ry
     hartree contribution      =      60.36272956 Ry
     xc contribution           =    -120.51364833 Ry
     ewald contribution        =    -277.00678309 Ry
     Dispersion Correction     =      -0.04782768 Ry
     smearing contrib. (-TS)   =      -0.00057367 Ry

     total magnetization       =     2.84 Bohr mag/cell
     absolute magnetization    =     3.25 Bohr mag/cell

     convergence has been achieved in  11 iterations

     Forces acting on atoms (Ry/au):

     atom    1 type  1   force =    -0.00171010   -0.00171010    0.00171033
     atom    2 type  1   force =     0.00170988    0.00170988    0.00170988
     atom    3 type  1   force =    -0.00171010    0.00171033   -0.00171010
     atom    4 type  1   force =     0.00171033   -0.00171010   -0.00171010

     Total force =     0.005924     Total SCF correction =     0.000028


     entering subroutine stress ...

          total   stress  (Ry/bohr**3)                   (kbar)     P=   -0.40
  -0.00000270  -0.00000001  -0.00000001         -0.40     -0.00     -0.00
  -0.00000001  -0.00000270  -0.00000001         -0.00     -0.40     -0.00
  -0.00000001  -0.00000001  -0.00000270         -0.00     -0.00     -0.40


     number of scf cycles    =   2
     number of bfgs steps    =   1

     enthalpy old            =    -343.6296398464 Ry
     enthalpy new            =    -343.6302341034 Ry

     CASE: enthalpy_new < enthalpy_old

     new trust radius        =       0.0032193260 bohr
     new conv_thr            =       0.0000000002 Ry

     new unit-cell volume =    289.96973 a.u.^3 (    42.96908 Ang^3 )

CELL_PARAMETERS (alat=  1.88972590)
   3.502558563  -0.000000495  -0.000000495
  -0.000000495   3.502558563  -0.000000495
  -0.000000495  -0.000000495   3.502558563

ATOMIC_POSITIONS (alat)
Ni1      1.756859859   1.756859859   0.002195055
Ni1      0.002193266   0.002193266   0.002193266
Ni1      1.756859859   0.002195055   1.756859859
Ni1      0.002195055   1.756859859   1.756859859



     Writing output data file Ni-ferromag.save
     NEW-OLD atomic charge density approx. for the potential

     Check: negative/imaginary core charge=   -0.000005    0.000000
     extrapolated charge   39.97071, renormalised to   40.00000

     total cpu time spent up to now is     1262.6 secs

     Self-consistent Calculation

     iteration #  1     ecut=    70.00 Ry     beta=0.20
     Davidson diagonalization with overlap
     ethr =  1.00E-06,  avg # of iterations =  2.6

     total cpu time spent up to now is     1328.7 secs

     total energy              =    -343.63006463 Ry
     Harris-Foulkes estimate   =    -343.66107979 Ry
     estimated scf accuracy    <       0.00027890 Ry

     total magnetization       =     2.82 Bohr mag/cell
     absolute magnetization    =     3.24 Bohr mag/cell

     iteration #  2     ecut=    70.00 Ry     beta=0.20
     Davidson diagonalization with overlap
     ethr =  6.97E-07,  avg # of iterations =  1.9

     total cpu time spent up to now is     1372.0 secs

     total energy              =    -343.63024112 Ry
     Harris-Foulkes estimate   =    -343.63026227 Ry
     estimated scf accuracy    <       0.00011080 Ry

     total magnetization       =     2.84 Bohr mag/cell
     absolute magnetization    =     3.26 Bohr mag/cell

     iteration #  3     ecut=    70.00 Ry     beta=0.20
     Davidson diagonalization with overlap
     ethr =  2.77E-07,  avg # of iterations =  1.0

     total cpu time spent up to now is     1414.0 secs

     total energy              =    -343.63021640 Ry
     Harris-Foulkes estimate   =    -343.63024471 Ry
     estimated scf accuracy    <       0.00003863 Ry

     total magnetization       =     2.84 Bohr mag/cell
     absolute magnetization    =     3.25 Bohr mag/cell

     iteration #  4     ecut=    70.00 Ry     beta=0.20
     Davidson diagonalization with overlap
     ethr =  9.66E-08,  avg # of iterations =  2.0

     total cpu time spent up to now is     1459.0 secs

     total energy              =    -343.63023950 Ry
     Harris-Foulkes estimate   =    -343.63025131 Ry
     estimated scf accuracy    <       0.00006433 Ry

     total magnetization       =     2.83 Bohr mag/cell
     absolute magnetization    =     3.25 Bohr mag/cell

     iteration #  5     ecut=    70.00 Ry     beta=0.20
     Davidson diagonalization with overlap
     ethr =  9.66E-08,  avg # of iterations =  1.0

     total cpu time spent up to now is     1501.0 secs

     total energy              =    -343.63023793 Ry
     Harris-Foulkes estimate   =    -343.63024127 Ry
     estimated scf accuracy    <       0.00002376 Ry

     total magnetization       =     2.83 Bohr mag/cell
     absolute magnetization    =     3.25 Bohr mag/cell

     iteration #  6     ecut=    70.00 Ry     beta=0.20
     Davidson diagonalization with overlap
     ethr =  5.94E-08,  avg # of iterations =  1.0

     total cpu time spent up to now is     1542.9 secs

     total energy              =    -343.63023329 Ry
     Harris-Foulkes estimate   =    -343.63023830 Ry
     estimated scf accuracy    <       0.00001168 Ry

     total magnetization       =     2.83 Bohr mag/cell
     absolute magnetization    =     3.25 Bohr mag/cell

     iteration #  7     ecut=    70.00 Ry     beta=0.20
     Davidson diagonalization with overlap
     ethr =  2.92E-08,  avg # of iterations =  1.0

     total cpu time spent up to now is     1584.9 secs

     total energy              =    -343.63023544 Ry
     Harris-Foulkes estimate   =    -343.63023543 Ry
     estimated scf accuracy    <          8.9E-09 Ry

     total magnetization       =     2.84 Bohr mag/cell
     absolute magnetization    =     3.25 Bohr mag/cell

     iteration #  8     ecut=    70.00 Ry     beta=0.20
     Davidson diagonalization with overlap
     ethr =  2.23E-11,  avg # of iterations =  2.1

     total cpu time spent up to now is     1636.9 secs

     total energy              =    -343.63023555 Ry
     Harris-Foulkes estimate   =    -343.63023557 Ry
     estimated scf accuracy    <       0.00000056 Ry

     total magnetization       =     2.84 Bohr mag/cell
     absolute magnetization    =     3.25 Bohr mag/cell

     iteration #  9     ecut=    70.00 Ry     beta=0.20
     Davidson diagonalization with overlap
     ethr =  2.23E-11,  avg # of iterations =  1.0

     total cpu time spent up to now is     1678.8 secs

     total energy              =    -343.63023564 Ry
     Harris-Foulkes estimate   =    -343.63023555 Ry
     estimated scf accuracy    <       0.00000048 Ry

     total magnetization       =     2.84 Bohr mag/cell
     absolute magnetization    =     3.25 Bohr mag/cell

     iteration # 10     ecut=    70.00 Ry     beta=0.20
     Davidson diagonalization with overlap
     ethr =  2.23E-11,  avg # of iterations =  2.0

     total cpu time spent up to now is     1726.2 secs

     total energy              =    -343.63023527 Ry
     Harris-Foulkes estimate   =    -343.63023565 Ry
     estimated scf accuracy    <       0.00000090 Ry

     total magnetization       =     2.84 Bohr mag/cell
     absolute magnetization    =     3.25 Bohr mag/cell

     iteration # 11     ecut=    70.00 Ry     beta=0.20
     Davidson diagonalization with overlap
     ethr =  2.23E-11,  avg # of iterations =  2.8

     Magnetic moment per site:
     atom:    1    charge:    3.0039    magn:    0.3347    constr:    0.0000
     atom:    2    charge:    3.0021    magn:    0.3345    constr:    0.0000
     atom:    3    charge:    3.0039    magn:    0.3347    constr:    0.0000
     atom:    4    charge:    3.0039    magn:    0.3347    constr:    0.0000

     total cpu time spent up to now is     1779.6 secs

     End of self-consistent calculation

 ------ SPIN UP ------------


          k = 0.0000 0.0000 0.0000 (  2945 PWs)   bands (ev):

     5.4364   9.7205   9.7205   9.7205  10.1739  10.1740  10.1740  11.9543
    11.9543  11.9543  13.1338  13.1338  13.8522  13.8522  13.8522  13.9422
    13.9422  13.9422  13.9423  13.9423  13.9423  17.0810  17.0811  17.0811
    23.8229  23.8229  23.8229  29.5813  29.5814  29.5814  29.5814  29.5814
    29.5814  34.6602  34.6602  34.6603  38.0084  38.0085  38.0085  38.5088
    42.4887  42.4887  42.4887  46.0882  46.0882  46.0882  48.1906  55.1912
    55.1912  55.1912  57.6192  59.0405

          k = 0.0000 0.0000 0.0476 (  2910 PWs)   bands (ev):

     5.8027   9.7427   9.9048   9.9048  10.2845  10.3004  10.3005  11.8255
    12.0567  12.0567  13.0157  13.1804  13.2878  13.2879  13.6985  13.6985
    13.7662  13.7663  13.8026  13.9425  13.9425  15.4800  18.0402  18.0403
    23.9187  23.9187  26.0723  27.8292  27.8292  28.4578  28.4578  30.1419
    30.1419  34.7764  36.8335  36.8335  37.8734  38.1404  39.9656  39.9657
    40.2672  40.2672  40.9323  47.5080  48.1447  48.1447  49.1698  51.5764
    56.2878  56.2878  56.6930  56.6931

          k = 0.0000 0.0000 0.0952 (  2910 PWs)   bands (ev):

     6.8523   9.5137  10.3420  10.3420  10.5924  10.6838  10.6839  11.4812
    12.2310  12.2312  12.3535  12.3535  12.7278  13.3092  13.3153  13.3170
    13.3170  13.3300  13.3300  13.6684  13.9431  13.9431  20.0035  20.0036
    24.2357  24.2357  25.0550  25.0550  26.6898  26.6898  30.3726  31.7217
    31.7218  35.1395  36.7411  37.0453  37.0453  38.3633  38.6929  40.8786
    40.8786  44.1312  44.1312  44.1655  50.9442  51.0653  51.0653  51.0688
    51.0688  55.0547  55.9562  55.9562

          k =-0.0000-0.0000-0.1428 (  2906 PWs)   bands (ev):

     8.3471   8.3568  10.6183  10.6183  11.0204  11.0346  11.3240  11.3240
    11.3381  11.3381  12.5407  12.5606  12.8005  12.8005  12.8111  12.8111
    13.0714  13.0714  13.4835  13.4913  13.9433  13.9433  22.3776  22.3776
    22.4022  22.4023  24.6082  24.6083  25.7449  25.7449  34.0918  34.0918
    34.1091  34.1091  34.9042  34.9406  35.7826  35.7911  40.2588  40.3170
    45.6556  45.6557  45.7063  45.7063  47.6379  47.6379  52.3091  52.3092
    54.1706  54.1706  54.2174  54.2174

          k = 0.0000 0.0476 0.0476 (  2911 PWs)   bands (ev):

     6.1604   9.9412   9.9412  10.0681  10.4020  10.4021  10.4159  11.7655
    12.1018  12.1188  12.9414  12.9869  12.9998  13.0041  13.1758  13.5699
    13.6944  13.6945  13.7649  13.7649  13.8265  16.4127  16.4127  18.8104
    23.9125  25.1118  26.2595  26.2596  28.3069  28.3069  28.9505  28.9506
    30.6698  36.0502  36.1331  37.0420  37.0420  37.3479  40.1339  40.1339
    41.2866  42.6217  43.5480  45.2485  46.3812  49.8091  50.4730  53.1151
    53.6869  55.3689  55.3691  56.3229

          k = 0.0000 0.0476 0.0952 (  2916 PWs)   bands (ev):

     7.1823   9.7498  10.4235  10.4720  10.6839  10.7372  10.7563  11.4843
    11.9924  12.1320  12.2477  12.3652  12.3908  12.8242  13.2458  13.3217
    13.3337  13.3552  13.5075  13.7614  13.7679  14.4455  18.0276  20.5939
    22.0924  24.6215  25.5165  26.5456  27.4152  29.6209  29.9140  29.9707
    31.0300  33.7381  34.4817  37.6943  38.6477  40.4054  40.5840  40.7661
    41.1344  44.0584  45.0531  47.0770  47.8025  48.6059  49.9118  51.3535
    52.9589  53.2794  54.8373  56.2189

          k =-0.0000 0.0476-0.1428 (  2906 PWs)   bands (ev):

     8.6290   8.6381  10.7706  10.7712  11.0723  11.0860  11.1930  11.2046
    11.3387  11.3524  12.1695  12.1842  12.8012  12.8121  13.0336  13.0384
    13.0563  13.0568  13.6710  13.6711  13.7581  13.7603  19.8905  19.9030
    22.8783  22.9004  25.4165  25.4334  28.3203  28.3259  31.5074  31.5147
    32.0322  32.0373  35.8228  35.8646  38.8419  38.8451  42.2140  42.2499
    43.1247  43.1381  45.9331  45.9810  50.0807  50.1234  50.3628  50.3830
    52.6232  52.6392  53.2154  53.2283

          k = 0.0000 0.0952 0.0952 (  2918 PWs)   bands (ev):

     8.1090  10.3376  10.3376  10.7036  10.9520  10.9523  10.9660  11.4145
    11.6616  11.6616  11.8163  12.1350  12.4960  12.7379  13.0298  13.1847
    13.1848  13.3253  13.3254  13.4955  13.7108  15.6920  15.6920  19.3111
    22.1209  25.1722  26.7895  26.7895  27.9097  27.9098  30.9988  31.6538
    31.6552  31.7521  33.6191  36.8533  41.5432  41.8963  41.8964  43.0927
    43.4282  43.7898  43.7898  47.2095  47.3480  48.4938  48.4940  51.6939
    52.1962  52.2092  53.2200  55.3680

          k =-0.0000 0.0952-0.1428 (  2914 PWs)   bands (ev):

     9.3725   9.3800  10.8043  10.8130  11.1987  11.2083  11.2162  11.2184
    11.3579  11.3707  11.8660  11.8756  12.8380  12.8431  12.8437  12.8491
    12.9101  12.9119  13.3570  13.3635  14.3718  14.3735  17.2189  17.2287
    24.2373  24.2540  26.2332  26.2470  28.6620  28.6700  29.5509  29.5527
    32.9623  32.9659  36.7860  36.8268  40.3770  40.3850  43.0621  43.0700
    43.2325  43.2362  46.7381  46.7771  47.9321  47.9557  50.4350  50.4568
    51.7650  51.7999  53.5774  53.5866

          k =-0.0000-0.1428-0.1428 (  2968 PWs)   bands (ev):

    10.2232  10.2296  10.2296  10.2359  11.3138  11.3260  11.3260  11.3382
    11.6319  11.6354  11.6354  11.6389  12.6959  12.6971  12.6971  12.6984
    13.0017  13.0118  13.0118  13.0218  15.4388  15.4434  15.4434  15.4480
    26.2087  26.2203  26.2203  26.2318  27.5841  27.5924  27.5924  27.6009
    37.8981  37.9093  37.9093  37.9208  38.5018  38.5156  38.5157  38.5285
    47.1953  47.1953  47.1954  47.1958  49.1866  49.2086  49.2087  49.2306
    51.8383  51.8402  51.8402  51.8420

          k = 0.0476 0.0476 0.0476 (  2905 PWs)   bands (ev):

     6.5063  10.1022  10.1022  10.1022  10.5165  10.5167  10.5167  11.7306
    12.1384  12.1384  12.6956  12.6956  12.6956  13.0889  13.0889  13.3363
    13.3364  13.3364  13.8806  13.8806  13.8806  17.0401  17.0401  17.0401
    25.3379  25.3380  25.3380  26.6051  26.6051  26.6051  31.1852  31.1853
    31.1853  33.4967  36.1816  36.1816  36.1816  39.2667  41.1549  41.1549
    42.8291  42.8291  42.8291  46.6097  47.6656  47.6656  51.6650  51.6650
    55.1244  55.2477  55.2479  55.2479

          k = 0.0476 0.0476 0.0952 (  2919 PWs)   bands (ev):

     7.4880   9.9086  10.4855  10.4855  10.8023  10.8306  10.8306  11.5210
    11.9828  11.9828  12.1774  12.2187  12.2780  12.9338  13.0042  13.0902
    13.0906  13.3288  13.7832  13.7832  13.8155  14.8074  18.3828  18.3829
    22.7186  22.7186  26.6321  27.2562  27.2563  30.3722  30.3723  30.7590
    30.9615  32.6654  36.6607  37.7904  37.8667  38.8063  38.8063  42.3775
    43.5215  44.4875  47.0392  47.0392  47.9014  49.1011  50.2188  50.2188
    50.7147  53.0354  53.0969  55.6796

          k = 0.0476 0.0476-0.1428 (  2922 PWs)   bands (ev):

     8.8566   8.8646  10.8728  10.8731  10.9309  10.9309  11.1681  11.1810
    11.5887  11.5887  12.0739  12.0883  12.5489  12.5538  12.9224  12.9225
    13.4933  13.5034  13.6039  13.6061  13.7272  13.7272  19.5317  19.5318
    21.1574  21.1574  28.2193  28.2201  28.4567  28.4621  28.9413  28.9426
    34.9466  34.9610  35.4148  35.4436  38.0962  38.1263  42.2208  42.2208
    44.7669  44.7831  45.3867  45.3868  49.4869  49.5095  50.9139  50.9217
    52.2055  52.2055  53.6978  53.6997

          k = 0.0476 0.0952 0.0952 (  2911 PWs)   bands (ev):

     8.3269  10.2264  10.2265  10.5126  11.1181  11.1641  11.1642  11.5661
    11.7787  11.7788  11.9120  12.1370  12.2629  12.7414  12.7415  12.7580
    13.0611  13.6164  13.6854  13.7010  13.7014  15.8226  15.8227  18.6345
    20.8151  23.9158  23.9158  27.9549  28.0684  31.1478  31.1478  32.1354
    32.1355  34.0322  35.2561  36.9242  39.3405  39.3406  40.1697  43.0560
    43.7521  44.8012  46.4810  46.4810  49.2111  49.2112  50.4361  50.6143
    50.9436  51.6386  52.3206  52.9451

          k = 0.0476 0.0952-0.1428 (  2908 PWs)   bands (ev):

     9.4078   9.4128  10.4470  10.4485  11.3314  11.3319  11.4749  11.4854
    11.7834  11.7878  11.9018  11.9113  12.4105  12.4141  12.6221  12.6243
    13.3564  13.3605  13.5842  13.5884  14.2781  14.2797  17.1967  17.2046
    21.8279  21.8341  25.6747  25.6791  29.4473  29.4512  33.0530  33.0546
    33.2664  33.2699  36.9034  36.9368  40.1499  40.1573  40.4597  40.4656
    45.2087  45.2114  45.6941  45.7102  47.7181  47.7267  50.5853  50.5987
    51.8056  51.8134  53.9055  53.9199

          k = 0.0476-0.1428-0.1428 (  2936 PWs)   bands (ev):

     9.9776   9.9798   9.9798   9.9817  11.7197  11.7230  11.7230  11.7263
    11.8035  11.8106  11.8106  11.8178  12.3802  12.3837  12.3837  12.3872
    13.3347  13.3410  13.3410  13.3474  15.3491  15.3542  15.3542  15.3592
    23.4604  23.4651  23.4651  23.4699  30.9857  30.9872  30.9872  30.9888
    38.1801  38.1893  38.1893  38.2001  38.3471  38.3598  38.3598  38.3705
    46.6720  46.6721  46.6721  46.6737  46.7644  46.7770  46.7770  46.7882
    54.8221  54.8312  54.8312  54.8417

          k = 0.0952 0.0952 0.0952 (  2941 PWs)   bands (ev):

     8.8708  10.0613  10.0614  10.0614  11.5228  11.5229  11.5229  12.0370
    12.0960  12.0960  12.0987  12.1060  12.1060  12.3871  12.3871  12.3872
    13.4642  13.4642  13.8293  13.8293  13.8293  16.2008  16.2008  16.2008
    21.4226  21.4226  21.4226  25.1634  32.5141  32.5141  32.5142  35.2599
    35.2599  35.2599  37.2895  37.2895  37.2896  37.8052  39.9691  39.9691
    44.4628  44.4628  47.7922  48.0838  48.0838  48.0842  48.1587  48.1587
    48.1587  52.4697  52.4699  52.4699

          k = 0.0952 0.0952-0.1428 (  2944 PWs)   bands (ev):

     9.4962   9.4975   9.9927   9.9928  11.6428  11.6428  11.9257  11.9335
    12.1459  12.1470  12.2657  12.2670  12.2780  12.2862  12.3816  12.3817
    13.7492  13.7500  13.7575  13.7579  14.1685  14.1689  16.4849  16.4849
    20.3936  20.3936  22.9784  22.9830  33.4295  33.4295  34.6434  34.6435
    36.3370  36.3510  37.2592  37.2667  39.0004  39.0242  39.4559  39.4560
    44.6701  44.6701  44.9147  44.9265  46.0336  46.0368  48.5693  48.5693
    49.6236  49.6286  52.9984  52.9987

          k = 0.0952-0.1428-0.1428 (  2936 PWs)   bands (ev):

     9.6723   9.6724   9.6724   9.6724  11.8870  11.8891  11.8891  11.8911
    12.0768  12.0789  12.0789  12.0812  12.8243  12.8288  12.8288  12.8333
    13.6742  13.6777  13.6777  13.6811  14.9713  14.9770  14.9770  14.9828
    21.1033  21.1071  21.1071  21.1110  35.1676  35.1695  35.1696  35.1715
    38.2289  38.2351  38.2351  38.2414  38.9512  38.9576  38.9576  38.9634
    44.1065  44.1120  44.1120  44.1174  45.1736  45.1751  45.1751  45.1764
    50.4381  50.4405  50.4405  50.4431

          k =-0.1428-0.1428-0.1428 (  2872 PWs)   bands (ev):

     9.5562   9.5564   9.5564   9.5564  11.9673  11.9673  11.9673  11.9673
    11.9673  11.9674  11.9674  11.9674  13.8050  13.8050  13.8050  13.8052
    13.8052  13.8052  13.8052  13.8053  14.3008  14.3010  14.3010  14.3010
    20.2260  20.2260  20.2260  20.2260  36.9636  36.9638  36.9638  36.9638
    39.5942  39.5942  39.5942  39.5942  39.5942  39.5944  39.5944  39.5944
    42.8202  42.8202  42.8202  42.8202  42.8202  42.8203  42.8203  42.8203
    48.7944  48.7944  48.7944  48.7945

          k =-0.0476 0.0000 0.0476 (  2911 PWs)   bands (ev):

     6.1604   9.9412   9.9412  10.0681  10.4020  10.4021  10.4159  11.7655
    12.1018  12.1188  12.9414  12.9869  12.9998  13.0041  13.1758  13.5699
    13.6944  13.6945  13.7649  13.7649  13.8265  16.4127  16.4127  18.8104
    23.9125  25.1118  26.2595  26.2596  28.3069  28.3069  28.9505  28.9506
    30.6698  36.0502  36.1331  37.0420  37.0420  37.3479  40.1338  40.1340
    41.2866  42.6217  43.5481  45.2485  46.3812  49.8091  50.4730  53.1151
    53.6869  55.3689  55.3691  56.3229

          k =-0.0476 0.0000 0.0952 (  2916 PWs)   bands (ev):

     7.1823   9.7498  10.4235  10.4720  10.6839  10.7372  10.7563  11.4843
    11.9924  12.1320  12.2477  12.3652  12.3908  12.8242  13.2458  13.3217
    13.3337  13.3552  13.5075  13.7614  13.7679  14.4455  18.0276  20.5939
    22.0923  24.6215  25.5165  26.5456  27.4152  29.6209  29.9140  29.9707
    31.0300  33.7381  34.4817  37.6943  38.6477  40.4054  40.5840  40.7661
    41.1344  44.0584  45.0531  47.0770  47.8026  48.6059  49.9118  51.3535
    52.9589  53.2794  54.8373  56.2189

          k =-0.0952 0.0000 0.0952 (  2918 PWs)   bands (ev):

     8.1090  10.3376  10.3376  10.7036  10.9520  10.9523  10.9660  11.4145
    11.6616  11.6616  11.8163  12.1350  12.4960  12.7379  13.0298  13.1847
    13.1848  13.3253  13.3254  13.4955  13.7108  15.6920  15.6920  19.3111
    22.1209  25.1722  26.7895  26.7895  27.9096  27.9098  30.9988  31.6538
    31.6552  31.7521  33.6191  36.8533  41.5432  41.8964  41.8964  43.0927
    43.4282  43.7898  43.7898  47.2095  47.3480  48.4938  48.4940  51.6939
    52.1962  52.2092  53.2200  55.3686

          k = 0.0476-0.0476 0.0476 (  2905 PWs)   bands (ev):

     6.5063  10.1022  10.1022  10.1022  10.5165  10.5167  10.5167  11.7306
    12.1384  12.1384  12.6956  12.6956  12.6957  13.0889  13.0889  13.3363
    13.3364  13.3364  13.8806  13.8806  13.8806  17.0401  17.0401  17.0401
    25.3379  25.3379  25.3380  26.6051  26.6051  26.6051  31.1852  31.1853
    31.1853  33.4967  36.1815  36.1816  36.1817  39.2667  41.1549  41.1549
    42.8290  42.8291  42.8291  46.6097  47.6656  47.6656  51.6650  51.6650
    55.1244  55.2477  55.2479  55.2479

          k = 0.0476-0.0476 0.0952 (  2919 PWs)   bands (ev):

     7.4880   9.9086  10.4855  10.4855  10.8023  10.8306  10.8306  11.5210
    11.9828  11.9828  12.1774  12.2187  12.2780  12.9338  13.0042  13.0902
    13.0906  13.3288  13.7832  13.7832  13.8155  14.8074  18.3828  18.3828
    22.7186  22.7186  26.6321  27.2562  27.2562  30.3722  30.3723  30.7589
    30.9615  32.6654  36.6608  37.7904  37.8667  38.8063  38.8063  42.3775
    43.5214  44.4875  47.0392  47.0393  47.9014  49.1011  50.2188  50.2189
    50.7147  53.0354  53.0969  55.6796

          k =-0.0952 0.0476 0.0476 (  2919 PWs)   bands (ev):

     7.4880   9.9086  10.4855  10.4855  10.8023  10.8306  10.8306  11.5210
    11.9828  11.9828  12.1774  12.2187  12.2780  12.9338  13.0042  13.0902
    13.0906  13.3288  13.7832  13.7832  13.8155  14.8074  18.3828  18.3829
    22.7186  22.7186  26.6321  27.2562  27.2562  30.3722  30.3723  30.7589
    30.9615  32.6654  36.6607  37.7904  37.8667  38.8063  38.8063  42.3775
    43.5214  44.4875  47.0392  47.0392  47.9015  49.1011  50.2188  50.2188
    50.7147  53.0354  53.0969  55.6796

          k = 0.0476-0.0476-0.1428 (  2922 PWs)   bands (ev):

     8.8566   8.8646  10.8728  10.8731  10.9309  10.9309  11.1681  11.1810
    11.5887  11.5887  12.0739  12.0883  12.5489  12.5538  12.9224  12.9225
    13.4933  13.5034  13.6039  13.6061  13.7272  13.7272  19.5317  19.5317
    21.1574  21.1574  28.2193  28.2201  28.4567  28.4621  28.9414  28.9426
    34.9466  34.9610  35.4148  35.4436  38.0962  38.1263  42.2208  42.2208
    44.7669  44.7831  45.3867  45.3868  49.4869  49.5095  50.9139  50.9217
    52.2054  52.2055  53.6979  53.6997

          k = 0.0952-0.0476 0.0952 (  2911 PWs)   bands (ev):

     8.3269  10.2264  10.2265  10.5126  11.1181  11.1641  11.1642  11.5661
    11.7787  11.7788  11.9120  12.1370  12.2629  12.7414  12.7415  12.7580
    13.0611  13.6164  13.6854  13.7010  13.7014  15.8226  15.8227  18.6345
    20.8151  23.9158  23.9158  27.9549  28.0684  31.1478  31.1478  32.1354
    32.1355  34.0322  35.2562  36.9242  39.3406  39.3406  40.1697  43.0560
    43.7521  44.8012  46.4810  46.4810  49.2111  49.2112  50.4360  50.6143
    50.9436  51.6386  52.3206  52.9451

          k =-0.0952 0.0476 0.0952 (  2911 PWs)   bands (ev):

     8.3269  10.2264  10.2265  10.5126  11.1181  11.1641  11.1642  11.5661
    11.7787  11.7788  11.9120  12.1370  12.2629  12.7414  12.7415  12.7580
    13.0611  13.6164  13.6854  13.7010  13.7014  15.8227  15.8227  18.6345
    20.8151  23.9158  23.9158  27.9549  28.0684  31.1478  31.1478  32.1354
    32.1355  34.0322  35.2562  36.9242  39.3405  39.3406  40.1697  43.0560
    43.7522  44.8012  46.4810  46.4810  49.2111  49.2112  50.4361  50.6143
    50.9436  51.6386  52.3206  52.9451

          k = 0.0952-0.0476-0.1428 (  2908 PWs)   bands (ev):

     9.4078   9.4128  10.4470  10.4485  11.3314  11.3319  11.4749  11.4854
    11.7834  11.7878  11.9018  11.9113  12.4105  12.4141  12.6221  12.6243
    13.3564  13.3605  13.5842  13.5884  14.2781  14.2797  17.1967  17.2046
    21.8279  21.8341  25.6747  25.6791  29.4473  29.4511  33.0530  33.0546
    33.2664  33.2699  36.9034  36.9368  40.1499  40.1573  40.4597  40.4657
    45.2087  45.2114  45.6941  45.7102  47.7181  47.7267  50.5853  50.5987
    51.8056  51.8134  53.9057  53.9206

          k = 0.0952-0.0952 0.0952 (  2941 PWs)   bands (ev):

     8.8708  10.0613  10.0614  10.0614  11.5228  11.5229  11.5229  12.0370
    12.0960  12.0960  12.0987  12.1060  12.1060  12.3871  12.3871  12.3872
    13.4642  13.4642  13.8293  13.8293  13.8293  16.2008  16.2008  16.2008
    21.4226  21.4226  21.4226  25.1634  32.5141  32.5141  32.5142  35.2599
    35.2599  35.2599  37.2894  37.2895  37.2896  37.8052  39.9691  39.9691
    44.4628  44.4628  47.7922  48.0838  48.0838  48.0842  48.1587  48.1587
    48.1587  52.4697  52.4698  52.4698

          k = 0.0952-0.0952-0.1428 (  2944 PWs)   bands (ev):

     9.4962   9.4975   9.9927   9.9928  11.6428  11.6428  11.9256  11.9335
    12.1459  12.1470  12.2657  12.2670  12.2780  12.2862  12.3816  12.3817
    13.7492  13.7500  13.7575  13.7579  14.1685  14.1689  16.4849  16.4849
    20.3936  20.3936  22.9784  22.9830  33.4295  33.4295  34.6434  34.6435
    36.3370  36.3510  37.2592  37.2667  39.0004  39.0242  39.4559  39.4560
    44.6701  44.6701  44.9147  44.9265  46.0336  46.0368  48.5693  48.5693
    49.6236  49.6286  52.9984  52.9987

 ------ SPIN DOWN ----------


          k = 0.0000 0.0000 0.0000 (  2945 PWs)   bands (ev):

     5.3818  10.1824  10.1824  10.1824  10.8920  10.8922  10.8922  12.8346
    12.8346  12.8346  13.9137  13.9137  14.6661  14.6662  14.6662  14.9515
    14.9516  14.9516  14.9516  14.9516  14.9516  17.0023  17.0024  17.0024
    24.1285  24.1286  24.1286  29.5676  29.5676  29.5676  29.5677  29.5677
    29.5678  34.8246  34.8246  34.8247  38.1519  38.1521  38.1521  38.3034
    42.4594  42.4594  42.4594  46.1607  46.1607  46.1607  48.0313  55.3803
    55.3803  55.3804  58.1392  59.5576

          k = 0.0000 0.0000 0.0476 (  2910 PWs)   bands (ev):

     5.7481  10.1582  10.3767  10.3768  11.0115  11.0160  11.0161  12.6925
    12.9411  12.9411  13.7860  13.9624  14.1078  14.1079  14.4990  14.4990
    14.6142  14.7588  14.7588  14.9519  14.9519  15.5501  18.1471  18.1472
    24.2092  24.2093  26.2742  27.8978  27.8979  28.4851  28.4852  30.1445
    30.1446  34.9282  36.9146  36.9146  37.7349  38.2816  40.0860  40.0861
    40.3093  40.3093  40.8625  47.5287  48.1186  48.1186  49.2413  51.5676
    56.4991  56.4991  56.6196  56.6197

          k = 0.0000 0.0000 0.0952 (  2910 PWs)   bands (ev):

     6.8020   9.7218  10.8384  10.8384  11.3448  11.3939  11.3941  12.3140
    12.9603  12.9604  13.2510  13.2510  13.4649  13.6860  14.0867  14.0867
    14.0973  14.2837  14.2837  14.4734  14.9525  14.9525  20.1887  20.1888
    24.4819  24.4819  25.1958  25.1958  26.7880  26.7880  30.4682  31.7587
    31.7587  35.2536  36.7065  37.1167  37.1168  38.2731  38.8389  40.8841
    40.8841  44.2306  44.2306  44.3837  50.8999  50.9705  50.9705  50.9954
    50.9955  54.9507  56.1977  56.1977

          k =-0.0000-0.0000-0.1428 (  2906 PWs)   bands (ev):

     8.3405   8.3505  11.1303  11.1303  11.8102  11.8254  12.0329  12.0331
    12.0474  12.0475  13.1875  13.2093  13.7215  13.7215  13.7326  13.7326
    13.8180  13.8181  14.2797  14.2879  14.9528  14.9528  22.5590  22.5591
    22.5842  22.5843  24.8050  24.8050  25.9022  25.9023  34.1569  34.1569
    34.1742  34.1742  34.8840  34.9215  35.8333  35.8436  40.4503  40.5095
    45.6106  45.6107  45.6625  45.6626  47.7119  47.7120  52.4986  52.4986
    54.0604  54.0605  54.1072  54.1072

          k = 0.0000 0.0476 0.0476 (  2911 PWs)   bands (ev):

     6.1067  10.3692  10.3692  10.5589  11.1155  11.1259  11.1260  12.6188
    12.9915  12.9959  13.7063  13.7428  13.7478  13.7646  13.9629  14.3604
    14.4866  14.4866  14.7577  14.7577  14.8285  16.7272  16.7272  18.9761
    24.1712  25.2415  26.4483  26.4483  28.3899  28.3899  28.9915  28.9917
    30.6808  36.1246  36.1546  37.1127  37.1128  37.3654  40.2518  40.2518
    41.2059  42.7092  43.5171  45.1922  46.4419  49.9678  50.3986  53.2876
    53.6531  55.3311  55.3313  56.2633

          k = 0.0000 0.0476 0.0952 (  2916 PWs)   bands (ev):

     7.1367   9.9724  10.8857  11.0039  11.3991  11.4317  11.4732  12.3062
    12.6837  12.8528  13.0459  13.0879  13.2672  13.5885  14.0107  14.0960
    14.1662  14.2528  14.2821  14.7546  14.7642  15.1545  18.3663  20.7980
    22.2909  24.8495  25.6682  26.6805  27.5403  29.7295  29.9761  30.0411
    31.1273  33.8163  34.5242  37.7364  38.6857  40.3570  40.5317  40.8860
    41.1341  44.1406  45.2575  47.1435  47.7251  48.5884  49.8960  51.2789
    52.9146  53.1889  55.0575  56.4721

          k =-0.0000 0.0476-0.1428 (  2906 PWs)   bands (ev):

     8.6344   8.6439  11.2734  11.2747  11.8528  11.8671  11.8719  11.8835
    12.0504  12.0645  12.9093  12.9262  13.7248  13.7361  13.8023  13.8047
    13.8080  13.8100  14.5093  14.5098  14.7521  14.7545  20.1719  20.1846
    23.0714  23.0937  25.5874  25.6056  28.4368  28.4434  31.6219  31.6285
    32.0904  32.0948  35.8481  35.8898  38.8437  38.8461  42.3661  42.4032
    43.1171  43.1319  45.8847  45.9337  50.1466  50.1886  50.2952  50.3156
    52.5395  52.5561  53.3837  53.3965

          k = 0.0000 0.0952 0.0952 (  2918 PWs)   bands (ev):

     8.0869  10.6108  10.6109  11.3677  11.4501  11.6876  11.6879  12.2083
    12.3547  12.3547  12.5285  12.9261  13.4113  13.4847  13.7832  13.9220
    13.9221  14.2861  14.2861  14.4762  14.5531  16.2971  16.2972  19.6188
    22.3402  25.3706  26.9564  26.9564  28.0109  28.0110  31.1298  31.7424
    31.7440  31.8199  33.6716  36.8891  41.4798  41.8783  41.8784  43.1273
    43.3109  43.8322  43.8323  47.3309  47.3773  48.5389  48.5391  51.7535
    52.0862  52.1510  53.4237  55.2720

          k =-0.0000 0.0952-0.1428 (  2914 PWs)   bands (ev):

     9.4336   9.4417  11.2239  11.2326  11.8533  11.8541  11.9628  11.9764
    12.0782  12.0916  12.6022  12.6129  13.5775  13.5778  13.6503  13.6520
    13.7724  13.7841  14.3252  14.3323  15.1776  15.1797  17.6832  17.6927
    24.4427  24.4591  26.3844  26.3994  28.8248  28.8319  29.6407  29.6431
    33.0336  33.0382  36.8137  36.8546  40.3764  40.3835  43.0083  43.0156
    43.2511  43.2543  46.6761  46.7158  48.0139  48.0386  50.3822  50.4044
    51.8861  51.9208  53.4924  53.5011

          k =-0.0000-0.1428-0.1428 (  2968 PWs)   bands (ev):

    10.4418  10.4490  10.4490  10.4561  12.0508  12.0638  12.0638  12.0767
    12.3006  12.3046  12.3046  12.3086  13.4333  13.4347  13.4347  13.4362
    13.9502  13.9608  13.9608  13.9713  16.1213  16.1252  16.1252  16.1291
    26.4046  26.4154  26.4155  26.4262  27.7068  27.7160  27.7161  27.7255
    37.9726  37.9834  37.9834  37.9948  38.4689  38.4819  38.4819  38.4939
    47.0751  47.0755  47.0756  47.0766  49.1754  49.1979  49.1980  49.2205
    51.9384  51.9414  51.9415  51.9443

          k = 0.0476 0.0476 0.0476 (  2905 PWs)   bands (ev):

     6.4555  10.5571  10.5572  10.5572  11.2171  11.2173  11.2173  12.5639
    13.0165  13.0165  13.4062  13.4062  13.4062  13.8751  13.8751  14.1673
    14.1674  14.1674  14.8288  14.8288  14.8289  17.3811  17.3812  17.3812
    25.4695  25.4695  25.4695  26.7784  26.7784  26.7784  31.2071  31.2072
    31.2072  33.5633  36.2766  36.2766  36.2767  39.1115  41.2075  41.2075
    42.9132  42.9133  42.9133  46.5224  47.6229  47.6229  51.8318  51.8318
    55.2010  55.2012  55.2012  55.4622

          k = 0.0476 0.0476 0.0952 (  2919 PWs)   bands (ev):

     7.4530  10.1712  11.0169  11.0170  11.4588  11.4589  11.5147  12.3166
    12.6851  12.6851  12.8504  13.0484  13.1383  13.7799  13.8138  13.8770
    13.8776  14.1510  14.7167  14.7464  14.7465  15.4377  18.7098  18.7098
    22.9289  22.9289  26.7764  27.4053  27.4053  30.4471  30.4472  30.8731
    31.0490  32.7119  36.7354  37.6965  37.9439  38.8367  38.8367  42.3850
    43.6018  44.5050  47.0835  47.0835  47.9436  49.0469  50.2078  50.2079
    50.7218  52.9650  53.0571  55.7945

          k = 0.0476 0.0476-0.1428 (  2922 PWs)   bands (ev):

     8.8908   8.8996  11.4447  11.4448  11.5122  11.5124  11.9183  11.9323
    12.3026  12.3026  12.8227  12.8387  13.3998  13.4039  13.6860  13.6860
    14.2975  14.3084  14.4655  14.4667  14.6988  14.6989  19.7891  19.7892
    21.4613  21.4613  28.3344  28.3351  28.5989  28.6037  29.0560  29.0574
    35.0160  35.0303  35.3877  35.4175  38.1734  38.2036  42.2022  42.2022
    44.8532  44.8708  45.3758  45.3759  49.4075  49.4302  50.8682  50.8761
    52.2390  52.2390  53.8766  53.8797

          k = 0.0476 0.0952 0.0952 (  2911 PWs)   bands (ev):

     8.3390  10.6192  10.6193  11.1309  11.6250  11.7658  11.7660  12.2926
    12.4987  12.4988  12.6238  12.9377  13.0871  13.5403  13.5408  13.5435
    13.9044  14.4653  14.6137  14.6141  14.6314  16.3759  16.3760  18.9093
    21.1589  24.1328  24.1328  28.1159  28.1972  31.2116  31.2116  32.2280
    32.2281  34.0868  35.2817  36.9495  39.3554  39.3554  40.0935  43.1696
    43.7440  44.7471  46.4750  46.4751  49.2660  49.2661  50.3678  50.5980
    50.9201  51.7112  52.3864  52.8723

          k = 0.0476 0.0952-0.1428 (  2908 PWs)   bands (ev):

     9.5566   9.5631  10.9812  10.9841  11.8851  11.8866  12.1201  12.1320
    12.4765  12.4820  12.6614  12.6720  13.2149  13.2177  13.3966  13.3985
    14.2207  14.2265  14.5197  14.5244  15.0707  15.0728  17.6079  17.6155
    22.1284  22.1340  25.8751  25.8788  29.5474  29.5522  33.1103  33.1109
    33.3350  33.3394  36.9167  36.9497  40.1345  40.1413  40.4821  40.4885
    45.1962  45.1986  45.6855  45.7025  47.6985  47.7083  50.6237  50.6371
    51.7453  51.7528  53.9868  54.0002

          k = 0.0476-0.1428-0.1428 (  2936 PWs)   bands (ev):

    10.3327  10.3367  10.3367  10.3406  12.2875  12.2933  12.2933  12.2990
    12.5065  12.5135  12.5135  12.5206  13.1577  13.1607  13.1607  13.1639
    14.2457  14.2530  14.2530  14.2603  15.9955  15.9998  15.9998  16.0040
    23.7189  23.7229  23.7229  23.7269  31.0675  31.0699  31.0699  31.0725
    38.2526  38.2591  38.2591  38.2721  38.2988  38.3132  38.3132  38.3206
    46.6042  46.6043  46.6043  46.6053  46.7893  46.8025  46.8025  46.8148
    54.8859  54.8954  54.8955  55.1086

          k = 0.0952 0.0952 0.0952 (  2941 PWs)   bands (ev):

     9.0040  10.5710  10.5711  10.5711  12.0816  12.0817  12.0817  12.5598
    12.7776  12.7776  12.7779  12.9048  12.9048  13.1781  13.1781  13.1781
    14.3450  14.3450  14.7568  14.7568  14.7569  16.6273  16.6274  16.6274
    21.7612  21.7612  21.7612  25.3888  32.5606  32.5606  32.5606  35.3213
    35.3214  35.3214  37.3023  37.3023  37.3023  37.6344  40.0552  40.0552
    44.4722  44.4722  47.8074  48.0324  48.0324  48.0328  48.1601  48.1603
    48.1603  52.5010  52.5012  52.5012

          k = 0.0952 0.0952-0.1428 (  2944 PWs)   bands (ev):

     9.8277   9.8307  10.5307  10.5308  12.2742  12.2743  12.5842  12.5920
    12.8307  12.8406  12.9380  12.9388  12.9814  12.9814  13.0455  13.0455
    14.6578  14.6591  14.6859  14.6861  14.8835  14.8853  16.8165  16.8166
    20.8306  20.8306  23.2682  23.2721  33.4374  33.4374  34.7294  34.7296
    36.2280  36.2429  37.3319  37.3389  39.0808  39.1043  39.4306  39.4306
    44.6967  44.6968  44.8920  44.9040  46.0418  46.0456  48.5293  48.5293
    49.6772  49.6821  53.1077  53.1080

          k = 0.0952-0.1428-0.1428 (  2936 PWs)   bands (ev):

    10.1422  10.1431  10.1431  10.1438  12.6198  12.6218  12.6218  12.6238
    12.8525  12.8546  12.8546  12.8568  13.2637  13.2690  13.2690  13.2743
    14.5918  14.5957  14.5957  14.5996  15.5039  15.5086  15.5086  15.5133
    21.4966  21.4999  21.4999  21.5031  35.1407  35.1436  35.1437  35.1467
    38.1987  38.2043  38.2043  38.2100  39.0207  39.0267  39.0268  39.0323
    44.1380  44.1441  44.1442  44.1502  45.1661  45.1679  45.1679  45.1696
    50.5287  50.5311  50.5311  50.5338

          k =-0.1428-0.1428-0.1428 (  2872 PWs)   bands (ev):

    10.0575  10.0577  10.0577  10.0577  12.7401  12.7401  12.7401  12.7402
    12.7402  12.7402  12.7402  12.7402  14.2014  14.2015  14.2015  14.2017
    14.7285  14.7285  14.7286  14.7286  14.7286  14.7286  14.7286  14.7286
    20.7082  20.7082  20.7082  20.7083  36.7796  36.7799  36.7799  36.7799
    39.6642  39.6642  39.6642  39.6643  39.6643  39.6644  39.6644  39.6645
    42.8507  42.8507  42.8507  42.8507  42.8507  42.8508  42.8508  42.8508
    48.9086  48.9086  48.9086  48.9087

          k =-0.0476 0.0000 0.0476 (  2911 PWs)   bands (ev):

     6.1067  10.3692  10.3692  10.5589  11.1155  11.1259  11.1260  12.6188
    12.9915  12.9959  13.7063  13.7428  13.7478  13.7646  13.9629  14.3604
    14.4866  14.4866  14.7577  14.7577  14.8285  16.7272  16.7272  18.9761
    24.1712  25.2415  26.4482  26.4483  28.3899  28.3900  28.9915  28.9917
    30.6809  36.1246  36.1546  37.1127  37.1128  37.3654  40.2516  40.2519
    41.2060  42.7092  43.5171  45.1922  46.4420  49.9678  50.3986  53.2876
    53.6531  55.3311  55.3313  56.2633

          k =-0.0476 0.0000 0.0952 (  2916 PWs)   bands (ev):

     7.1367   9.9724  10.8857  11.0039  11.3991  11.4317  11.4732  12.3062
    12.6837  12.8528  13.0459  13.0879  13.2672  13.5885  14.0107  14.0960
    14.1662  14.2528  14.2821  14.7546  14.7642  15.1545  18.3663  20.7980
    22.2909  24.8495  25.6682  26.6805  27.5403  29.7295  29.9761  30.0411
    31.1273  33.8162  34.5242  37.7364  38.6857  40.3570  40.5317  40.8859
    41.1341  44.1406  45.2575  47.1435  47.7251  48.5884  49.8960  51.2789
    52.9146  53.1889  55.0575  56.4721

          k =-0.0952 0.0000 0.0952 (  2918 PWs)   bands (ev):

     8.0869  10.6108  10.6108  11.3677  11.4501  11.6876  11.6879  12.2083
    12.3547  12.3547  12.5285  12.9261  13.4113  13.4847  13.7832  13.9220
    13.9221  14.2861  14.2861  14.4762  14.5531  16.2972  16.2972  19.6188
    22.3402  25.3706  26.9564  26.9565  28.0109  28.0110  31.1298  31.7424
    31.7440  31.8199  33.6716  36.8891  41.4798  41.8784  41.8784  43.1273
    43.3109  43.8322  43.8323  47.3309  47.3774  48.5389  48.5390  51.7535
    52.0862  52.1510  53.4237  55.2726

          k = 0.0476-0.0476 0.0476 (  2905 PWs)   bands (ev):

     6.4555  10.5572  10.5572  10.5572  11.2171  11.2172  11.2173  12.5639
    13.0165  13.0165  13.4062  13.4062  13.4063  13.8751  13.8751  14.1673
    14.1674  14.1674  14.8288  14.8288  14.8289  17.3811  17.3812  17.3812
    25.4695  25.4695  25.4696  26.7784  26.7784  26.7785  31.2071  31.2072
    31.2072  33.5633  36.2766  36.2766  36.2767  39.1115  41.2075  41.2075
    42.9132  42.9133  42.9133  46.5224  47.6229  47.6229  51.8318  51.8318
    55.2010  55.2012  55.2012  55.4622

          k = 0.0476-0.0476 0.0952 (  2919 PWs)   bands (ev):

     7.4530  10.1712  11.0169  11.0170  11.4588  11.4589  11.5147  12.3166
    12.6851  12.6851  12.8504  13.0484  13.1383  13.7799  13.8138  13.8770
    13.8776  14.1510  14.7167  14.7464  14.7465  15.4377  18.7098  18.7098
    22.9289  22.9289  26.7764  27.4053  27.4053  30.4472  30.4472  30.8731
    31.0490  32.7119  36.7354  37.6965  37.9439  38.8367  38.8367  42.3851
    43.6018  44.5050  47.0834  47.0835  47.9436  49.0469  50.2078  50.2079
    50.7218  52.9650  53.0571  55.7945

          k =-0.0952 0.0476 0.0476 (  2919 PWs)   bands (ev):

     7.4530  10.1712  11.0169  11.0170  11.4588  11.4589  11.5147  12.3166
    12.6851  12.6851  12.8504  13.0484  13.1383  13.7799  13.8138  13.8770
    13.8776  14.1510  14.7167  14.7464  14.7465  15.4377  18.7098  18.7098
    22.9289  22.9289  26.7764  27.4053  27.4053  30.4471  30.4472  30.8731
    31.0490  32.7119  36.7354  37.6965  37.9439  38.8367  38.8367  42.3851
    43.6018  44.5051  47.0835  47.0835  47.9436  49.0469  50.2078  50.2079
    50.7218  52.9650  53.0571  55.7945

          k = 0.0476-0.0476-0.1428 (  2922 PWs)   bands (ev):

     8.8908   8.8996  11.4448  11.4448  11.5122  11.5124  11.9183  11.9323
    12.3026  12.3026  12.8226  12.8387  13.3998  13.4039  13.6859  13.6861
    14.2975  14.3084  14.4655  14.4667  14.6988  14.6989  19.7891  19.7891
    21.4613  21.4613  28.3344  28.3351  28.5989  28.6037  29.0561  29.0574
    35.0161  35.0303  35.3877  35.4175  38.1734  38.2036  42.2021  42.2022
    44.8532  44.8708  45.3758  45.3759  49.4075  49.4302  50.8682  50.8761
    52.2389  52.2391  53.8766  53.8797

          k = 0.0952-0.0476 0.0952 (  2911 PWs)   bands (ev):

     8.3390  10.6192  10.6193  11.1309  11.6250  11.7658  11.7660  12.2926
    12.4987  12.4988  12.6238  12.9377  13.0871  13.5403  13.5408  13.5435
    13.9044  14.4653  14.6137  14.6141  14.6314  16.3759  16.3760  18.9093
    21.1589  24.1328  24.1328  28.1159  28.1972  31.2116  31.2116  32.2280
    32.2281  34.0868  35.2817  36.9495  39.3554  39.3555  40.0936  43.1696
    43.7440  44.7471  46.4750  46.4751  49.2660  49.2661  50.3678  50.5980
    50.9201  51.7112  52.3864  52.8722

          k =-0.0952 0.0476 0.0952 (  2911 PWs)   bands (ev):

     8.3390  10.6192  10.6193  11.1309  11.6250  11.7658  11.7660  12.2926
    12.4987  12.4988  12.6238  12.9377  13.0871  13.5403  13.5408  13.5435
    13.9044  14.4653  14.6137  14.6141  14.6314  16.3759  16.3760  18.9093
    21.1589  24.1328  24.1329  28.1159  28.1972  31.2116  31.2117  32.2280
    32.2280  34.0869  35.2817  36.9495  39.3554  39.3555  40.0936  43.1696
    43.7440  44.7471  46.4750  46.4751  49.2660  49.2661  50.3678  50.5980
    50.9201  51.7113  52.3864  52.8723

          k = 0.0952-0.0476-0.1428 (  2908 PWs)   bands (ev):

     9.5566   9.5631  10.9812  10.9841  11.8851  11.8866  12.1201  12.1320
    12.4765  12.4820  12.6614  12.6720  13.2149  13.2177  13.3966  13.3985
    14.2207  14.2265  14.5197  14.5244  15.0707  15.0728  17.6079  17.6155
    22.1284  22.1340  25.8751  25.8788  29.5474  29.5522  33.1103  33.1109
    33.3350  33.3394  36.9167  36.9497  40.1345  40.1413  40.4821  40.4885
    45.1962  45.1986  45.6855  45.7025  47.6985  47.7083  50.6237  50.6371
    51.7453  51.7528  53.9868  54.0003

          k = 0.0952-0.0952 0.0952 (  2941 PWs)   bands (ev):

     9.0040  10.5710  10.5711  10.5711  12.0816  12.0817  12.0817  12.5598
    12.7776  12.7776  12.7780  12.9048  12.9048  13.1780  13.1781  13.1782
    14.3450  14.3450  14.7568  14.7568  14.7569  16.6274  16.6274  16.6274
    21.7612  21.7612  21.7612  25.3888  32.5606  32.5606  32.5607  35.3214
    35.3214  35.3215  37.3022  37.3023  37.3024  37.6344  40.0552  40.0552
    44.4722  44.4722  47.8074  48.0324  48.0324  48.0328  48.1602  48.1602
    48.1603  52.5010  52.5011  52.5012

          k = 0.0952-0.0952-0.1428 (  2944 PWs)   bands (ev):

     9.8277   9.8307  10.5307  10.5308  12.2742  12.2743  12.5842  12.5920
    12.8307  12.8406  12.9380  12.9388  12.9814  12.9814  13.0455  13.0455
    14.6578  14.6591  14.6859  14.6861  14.8835  14.8853  16.8166  16.8166
    20.8306  20.8306  23.2682  23.2721  33.4374  33.4374  34.7295  34.7296
    36.2281  36.2429  37.3319  37.3389  39.0808  39.1043  39.4306  39.4307
    44.6967  44.6967  44.8920  44.9040  46.0418  46.0456  48.5293  48.5293
    49.6772  49.6821  53.1076  53.1080

     the Fermi energy is    14.5015 ev

!    total energy              =    -343.63023543 Ry
     Harris-Foulkes estimate   =    -343.63023543 Ry
     estimated scf accuracy    <          8.1E-12 Ry

     The total energy is the sum of the following terms:

     one-electron contribution =      -6.31911448 Ry
     hartree contribution      =      60.32924590 Ry
     xc contribution           =    -120.51535728 Ry
     ewald contribution        =    -277.07655670 Ry
     Dispersion Correction     =      -0.04787558 Ry
     smearing contrib. (-TS)   =      -0.00057729 Ry

     total magnetization       =     2.84 Bohr mag/cell
     absolute magnetization    =     3.25 Bohr mag/cell

     convergence has been achieved in  11 iterations

     Forces acting on atoms (Ry/au):

     atom    1 type  1   force =    -0.00108685   -0.00108685    0.00108683
     atom    2 type  1   force =     0.00108687    0.00108687    0.00108687
     atom    3 type  1   force =    -0.00108685    0.00108683   -0.00108685
     atom    4 type  1   force =     0.00108683   -0.00108685   -0.00108685

     Total force =     0.003765     Total SCF correction =     0.000002


     entering subroutine stress ...

          total   stress  (Ry/bohr**3)                   (kbar)     P=    1.08
   0.00000736   0.00000004   0.00000004          1.08      0.01      0.01
   0.00000004   0.00000736   0.00000004          0.01      1.08      0.01
   0.00000004   0.00000004   0.00000736          0.01      0.01      1.08


     number of scf cycles    =   3
     number of bfgs steps    =   2

     enthalpy old            =    -343.6302341034 Ry
     enthalpy new            =    -343.6302354323 Ry

     CASE: enthalpy_new < enthalpy_old

     new trust radius        =       0.0048278112 bohr
     new conv_thr            =            1.0E-10 Ry

     new unit-cell volume =    290.05343 a.u.^3 (    42.98148 Ang^3 )

CELL_PARAMETERS (alat=  1.88972590)
   3.502895537   0.000007252   0.000007252
   0.000007252   3.502895537   0.000007252
   0.000007252   0.000007252   3.502895537

ATOMIC_POSITIONS (alat)
Ni1      1.755557655   1.755557655   0.003678209
Ni1      0.003668554   0.003668554   0.003668554
Ni1      1.755557655   0.003678209   1.755557655
Ni1      0.003678209   1.755557655   1.755557655



     Writing output data file Ni-ferromag.save
     NEW-OLD atomic charge density approx. for the potential

     Check: negative/imaginary core charge=   -0.000005    0.000000
     extrapolated charge   40.01154, renormalised to   40.00000

     total cpu time spent up to now is     1816.4 secs

     Self-consistent Calculation

     iteration #  1     ecut=    70.00 Ry     beta=0.20
     Davidson diagonalization with overlap
     ethr =  1.00E-06,  avg # of iterations =  3.5

     total cpu time spent up to now is     1885.0 secs

     total energy              =    -343.63025504 Ry
     Harris-Foulkes estimate   =    -343.61815657 Ry
     estimated scf accuracy    <       0.00004870 Ry

     total magnetization       =     2.84 Bohr mag/cell
     absolute magnetization    =     3.26 Bohr mag/cell

     iteration #  2     ecut=    70.00 Ry     beta=0.20
     Davidson diagonalization with overlap
     ethr =  1.22E-07,  avg # of iterations =  1.4

     total cpu time spent up to now is     1927.7 secs

     total energy              =    -343.63028248 Ry
     Harris-Foulkes estimate   =    -343.63028582 Ry
     estimated scf accuracy    <       0.00002058 Ry

     total magnetization       =     2.83 Bohr mag/cell
     absolute magnetization    =     3.25 Bohr mag/cell

     iteration #  3     ecut=    70.00 Ry     beta=0.20
     Davidson diagonalization with overlap
     ethr =  5.14E-08,  avg # of iterations =  1.0

     total cpu time spent up to now is     1970.0 secs

     total energy              =    -343.63027870 Ry
     Harris-Foulkes estimate   =    -343.63028307 Ry
     estimated scf accuracy    <       0.00000837 Ry

     total magnetization       =     2.83 Bohr mag/cell
     absolute magnetization    =     3.25 Bohr mag/cell

     iteration #  4     ecut=    70.00 Ry     beta=0.20
     Davidson diagonalization with overlap
     ethr =  2.09E-08,  avg # of iterations =  1.5

     total cpu time spent up to now is     2013.1 secs

     total energy              =    -343.63027988 Ry
     Harris-Foulkes estimate   =    -343.63028442 Ry
     estimated scf accuracy    <       0.00001102 Ry

     total magnetization       =     2.84 Bohr mag/cell
     absolute magnetization    =     3.25 Bohr mag/cell

     iteration #  5     ecut=    70.00 Ry     beta=0.20
     Davidson diagonalization with overlap
     ethr =  2.09E-08,  avg # of iterations =  1.0

     total cpu time spent up to now is     2055.3 secs

     total energy              =    -343.63028171 Ry
     Harris-Foulkes estimate   =    -343.63028172 Ry
     estimated scf accuracy    <       0.00000003 Ry

     total magnetization       =     2.84 Bohr mag/cell
     absolute magnetization    =     3.25 Bohr mag/cell

     iteration #  6     ecut=    70.00 Ry     beta=0.20
     Davidson diagonalization with overlap
     ethr =  7.53E-11,  avg # of iterations =  2.3

     total cpu time spent up to now is     2105.5 secs

     total energy              =    -343.63028176 Ry
     Harris-Foulkes estimate   =    -343.63028174 Ry
     estimated scf accuracy    <       0.00000010 Ry

     total magnetization       =     2.84 Bohr mag/cell
     absolute magnetization    =     3.25 Bohr mag/cell

     iteration #  7     ecut=    70.00 Ry     beta=0.20
     Davidson diagonalization with overlap
     ethr =  7.53E-11,  avg # of iterations =  1.0

     total cpu time spent up to now is     2147.9 secs

     total energy              =    -343.63028164 Ry
     Harris-Foulkes estimate   =    -343.63028176 Ry
     estimated scf accuracy    <       0.00000014 Ry

     total magnetization       =     2.84 Bohr mag/cell
     absolute magnetization    =     3.25 Bohr mag/cell

     iteration #  8     ecut=    70.00 Ry     beta=0.20
     Davidson diagonalization with overlap
     ethr =  7.53E-11,  avg # of iterations =  2.3

     total cpu time spent up to now is     2200.4 secs

     total energy              =    -343.63028173 Ry
     Harris-Foulkes estimate   =    -343.63028183 Ry
     estimated scf accuracy    <       0.00000044 Ry

     total magnetization       =     2.84 Bohr mag/cell
     absolute magnetization    =     3.25 Bohr mag/cell

     iteration #  9     ecut=    70.00 Ry     beta=0.20
     Davidson diagonalization with overlap
     ethr =  7.53E-11,  avg # of iterations =  1.7

     total cpu time spent up to now is     2243.9 secs

     total energy              =    -343.63028175 Ry
     Harris-Foulkes estimate   =    -343.63028175 Ry
     estimated scf accuracy    <       0.00000010 Ry

     total magnetization       =     2.84 Bohr mag/cell
     absolute magnetization    =     3.25 Bohr mag/cell

     iteration # 10     ecut=    70.00 Ry     beta=0.20
     Davidson diagonalization with overlap
     ethr =  7.53E-11,  avg # of iterations =  1.0

     total cpu time spent up to now is     2286.2 secs

     total energy              =    -343.63028171 Ry
     Harris-Foulkes estimate   =    -343.63028175 Ry
     estimated scf accuracy    <       0.00000009 Ry

     total magnetization       =     2.84 Bohr mag/cell
     absolute magnetization    =     3.25 Bohr mag/cell

     iteration # 11     ecut=    70.00 Ry     beta=0.20
     Davidson diagonalization with overlap
     ethr =  7.53E-11,  avg # of iterations =  1.1

     Magnetic moment per site:
     atom:    1    charge:    3.0044    magn:    0.3348    constr:    0.0000
     atom:    2    charge:    3.0026    magn:    0.3346    constr:    0.0000
     atom:    3    charge:    3.0044    magn:    0.3348    constr:    0.0000
     atom:    4    charge:    3.0044    magn:    0.3348    constr:    0.0000

     total cpu time spent up to now is     2328.5 secs

     End of self-consistent calculation

 ------ SPIN UP ------------


          k = 0.0000 0.0000 0.0000 (  2945 PWs)   bands (ev):

     5.4328   9.7167   9.7167   9.7167  10.1700  10.1700  10.1700  11.9494
    11.9495  11.9495  13.1285  13.1285  13.8465  13.8465  13.8465  13.9365
    13.9365  13.9365  13.9365  13.9365  13.9365  17.0752  17.0752  17.0752
    23.8147  23.8148  23.8148  29.5729  29.5729  29.5729  29.5731  29.5731
    29.5731  34.6509  34.6509  34.6509  37.9974  37.9975  37.9975  38.5006
    42.4779  42.4782  42.4782  46.0761  46.0764  46.0764  48.1804  55.1765
    55.1767  55.1767  57.6130  59.0346

          k =-0.0000-0.0000 0.0476 (  2910 PWs)   bands (ev):

     5.7991   9.7389   9.9010   9.9010  10.2805  10.2964  10.2964  11.8207
    12.0518  12.0518  13.0106  13.1752  13.2823  13.2823  13.6930  13.6930
    13.7605  13.7605  13.7970  13.9368  13.9368  15.4743  18.0341  18.0341
    23.9106  23.9106  26.0641  27.8210  27.8210  28.4494  28.4495  30.1332
    30.1334  34.7670  36.8239  36.8239  37.8649  38.1294  39.9549  39.9550
    40.2560  40.2563  40.9225  47.4963  48.1333  48.1334  49.1568  51.5647
    56.2726  56.2727  56.6808  56.6808

          k =-0.0000-0.0000 0.0952 (  2910 PWs)   bands (ev):

     6.8485   9.5097  10.3380  10.3380  10.5883  10.6797  10.6797  11.4765
    12.2262  12.2262  12.3485  12.3486  12.7226  13.3039  13.3098  13.3144
    13.3144  13.3217  13.3217  13.6628  13.9373  13.9373  19.9968  19.9968
    24.2278  24.2278  25.0472  25.0472  26.6813  26.6813  30.3640  31.7126
    31.7128  35.1302  36.7322  37.0351  37.0353  38.3544  38.6815  40.8685
    40.8685  44.1194  44.1194  44.1524  50.9324  51.0542  51.0543  51.0573
    51.0573  55.0427  55.9451  55.9452

          k = 0.0000 0.0000-0.1427 (  2906 PWs)   bands (ev):

     8.3473   8.3486  10.6142  10.6142  11.0224  11.0242  11.3256  11.3256
    11.3274  11.3274  12.5442  12.5468  12.8001  12.8001  12.8014  12.8015
    13.0658  13.0658  13.4814  13.4824  13.9376  13.9376  22.3811  22.3811
    22.3843  22.3843  24.6008  24.6008  25.7361  25.7361  34.0897  34.0899
    34.0919  34.0921  34.9114  34.9161  35.7772  35.7783  40.2720  40.2795
    45.6669  45.6669  45.6734  45.6734  47.6256  47.6257  52.2969  52.2970
    54.1795  54.1796  54.1855  54.1856

          k =-0.0000 0.0476 0.0476 (  2911 PWs)   bands (ev):

     6.1567   9.9373   9.9373  10.0642  10.3979  10.3979  10.4118  11.7607
    12.0969  12.1139  12.9362  12.9859  12.9945  12.9946  13.1705  13.5644
    13.6889  13.6889  13.7592  13.7592  13.8207  16.4066  16.4066  18.8040
    23.9047  25.1037  26.2513  26.2513  28.2988  28.2988  28.9418  28.9418
    30.6611  36.0406  36.1239  37.0323  37.0323  37.3381  40.1226  40.1226
    41.2769  42.6102  43.5375  45.2379  46.3695  49.7954  50.4617  53.1011
    53.6757  55.3568  55.3568  56.3107

          k =-0.0000 0.0476 0.0952 (  2916 PWs)   bands (ev):

     7.1784   9.7458  10.4194  10.4679  10.6798  10.7330  10.7521  11.4796
    11.9876  12.1273  12.2427  12.3602  12.3857  12.8189  13.2404  13.3190
    13.3259  13.3495  13.5019  13.7559  13.7619  14.4396  18.0211  20.5870
    22.0851  24.6133  25.5086  26.5377  27.4063  29.6122  29.9073  29.9604
    31.0207  33.7289  34.4723  37.6846  38.6377  40.3956  40.5743  40.7546
    41.1242  44.0467  45.0399  47.0650  47.7918  48.5944  49.8999  51.3419
    52.9469  53.2679  54.8246  56.2080

          k = 0.0000 0.0476-0.1427 (  2906 PWs)   bands (ev):

     8.6289   8.6300  10.7667  10.7668  11.0742  11.0760  11.1933  11.1948
    11.3401  11.3418  12.1710  12.1729  12.8009  12.8023  13.0307  13.0314
    13.0508  13.0509  13.6655  13.6655  13.7533  13.7536  19.8890  19.8906
    22.8805  22.8834  25.4157  25.4179  28.3141  28.3148  31.5016  31.5025
    32.0254  32.0260  35.8315  35.8369  38.8335  38.8340  42.2176  42.2222
    43.1199  43.1216  45.9432  45.9493  50.0867  50.0922  50.3602  50.3628
    52.6187  52.6207  53.2090  53.2107

          k =-0.0000 0.0952 0.0952 (  2918 PWs)   bands (ev):

     8.1050  10.3334  10.3334  10.6994  10.9480  10.9480  10.9617  11.4097
    11.6569  11.6569  11.8116  12.1300  12.4911  12.7327  13.0244  13.1796
    13.1796  13.3197  13.3197  13.4898  13.7051  15.6858  15.6858  19.3042
    22.1137  25.1640  26.7816  26.7816  27.9011  27.9011  30.9898  31.6460
    31.6460  31.7417  33.6097  36.8437  41.5334  41.8861  41.8862  43.0817
    43.4184  43.7784  43.7784  47.1969  47.3364  48.4819  48.4819  51.6811
    52.1843  52.1981  53.2073  55.3578

          k = 0.0000 0.0952-0.1427 (  2914 PWs)   bands (ev):

     9.3716   9.3726  10.8038  10.8049  11.2014  11.2031  11.2098  11.2099
    11.3588  11.3604  11.8654  11.8666  12.8382  12.8383  12.8383  12.8398
    12.9050  12.9052  13.3543  13.3551  14.3667  14.3669  17.2167  17.2179
    24.2369  24.2391  26.2310  26.2328  28.6568  28.6579  29.5430  29.5432
    32.9545  32.9550  36.7941  36.7993  40.3703  40.3713  43.0553  43.0563
    43.2231  43.2236  46.7442  46.7492  47.9300  47.9331  50.4330  50.4358
    51.7671  51.7716  53.5696  53.5708

          k = 0.0000-0.1427-0.1427 (  2968 PWs)   bands (ev):

    10.2244  10.2252  10.2253  10.2261  11.3200  11.3216  11.3216  11.3231
    11.6303  11.6308  11.6308  11.6312  12.6920  12.6921  12.6922  12.6923
    13.0050  13.0063  13.0063  13.0076  15.4367  15.4372  15.4373  15.4378
    26.2110  26.2125  26.2125  26.2140  27.5826  27.5837  27.5838  27.5848
    37.8977  37.8991  37.8992  37.9006  38.5040  38.5056  38.5057  38.5074
    47.1850  47.1850  47.1851  47.1851  49.1941  49.1968  49.1970  49.1997
    51.8263  51.8265  51.8267  51.8268

          k = 0.0476 0.0476 0.0476 (  2905 PWs)   bands (ev):

     6.5025  10.0982  10.0982  10.0982  10.5125  10.5125  10.5125  11.7258
    12.1335  12.1335  12.6905  12.6905  12.6905  13.0837  13.0837  13.3309
    13.3309  13.3309  13.8749  13.8749  13.8749  17.0338  17.0339  17.0339
    25.3302  25.3302  25.3302  26.5966  26.5966  26.5966  31.1765  31.1765
    31.1765  33.4873  36.1719  36.1719  36.1719  39.2580  41.1442  41.1442
    42.8175  42.8176  42.8176  46.5990  47.6546  47.6546  51.6509  51.6509
    55.1141  55.2354  55.2354  55.2354

          k = 0.0476 0.0476 0.0952 (  2919 PWs)   bands (ev):

     7.4840   9.9045  10.4814  10.4814  10.7982  10.8263  10.8263  11.5163
    11.9780  11.9780  12.1734  12.2128  12.2730  12.9286  12.9993  13.0850
    13.0850  13.3233  13.7775  13.7775  13.8098  14.8015  18.3763  18.3763
    22.7111  22.7111  26.6240  27.2478  27.2478  30.3634  30.3634  30.7500
    30.9525  32.6562  36.6510  37.7817  37.8565  38.7963  38.7964  42.3669
    43.5097  44.4764  47.0273  47.0273  47.8894  49.0899  50.2070  50.2070
    50.7026  53.0236  53.0847  55.6654

          k = 0.0476 0.0476-0.1427 (  2922 PWs)   bands (ev):

     8.8560   8.8570  10.8688  10.8688  10.9267  10.9267  11.1692  11.1709
    11.5840  11.5840  12.0752  12.0771  12.5460  12.5466  12.9173  12.9173
    13.4922  13.4935  13.5993  13.5995  13.7215  13.7215  19.5251  19.5251
    21.1499  21.1499  28.2119  28.2120  28.4507  28.4513  28.9323  28.9323
    34.9432  34.9451  35.4186  35.4224  38.0989  38.1028  42.2104  42.2104
    44.7619  44.7640  45.3758  45.3758  49.4855  49.4884  50.9057  50.9067
    52.1925  52.1925  53.6878  53.6879

          k = 0.0476 0.0952 0.0952 (  2911 PWs)   bands (ev):

     8.3229  10.2223  10.2223  10.5084  11.1138  11.1598  11.1598  11.5614
    11.7740  11.7740  11.9073  12.1320  12.2580  12.7364  12.7364  12.7528
    13.0557  13.6108  13.6801  13.6954  13.6954  15.8165  15.8165  18.6280
    20.8076  23.9080  23.9080  27.9485  28.0577  31.1392  31.1392  32.1259
    32.1259  34.0227  35.2470  36.9146  39.3305  39.3306  40.1602  43.0443
    43.7416  44.7907  46.4695  46.4696  49.1990  49.1990  50.4244  50.6022
    50.9317  51.6254  52.3081  52.9330

          k = 0.0476 0.0952-0.1427 (  2908 PWs)   bands (ev):

     9.4059   9.4065  10.4435  10.4436  11.3273  11.3273  11.4749  11.4762
    11.7806  11.7812  11.9010  11.9023  12.4071  12.4076  12.6180  12.6183
    13.3527  13.3532  13.5804  13.5809  14.2730  14.2732  17.1938  17.1948
    21.8231  21.8239  25.6685  25.6691  29.4402  29.4408  33.0448  33.0450
    33.2584  33.2589  36.9083  36.9126  40.1430  40.1440  40.4519  40.4526
    45.1989  45.1993  45.6900  45.6921  47.7102  47.7114  50.5789  50.5806
    51.7970  51.7980  53.9081  53.9100

          k = 0.0476-0.1427-0.1427 (  2936 PWs)   bands (ev):

     9.9753   9.9756   9.9756   9.9759  11.7181  11.7185  11.7186  11.7190
    11.8048  11.8057  11.8057  11.8066  12.3783  12.3788  12.3788  12.3792
    13.3347  13.3355  13.3356  13.3364  15.3475  15.3481  15.3481  15.3488
    23.4567  23.4573  23.4574  23.4580  30.9781  30.9783  30.9784  30.9786
    38.1784  38.1796  38.1797  38.1810  38.3478  38.3493  38.3494  38.3509
    46.6619  46.6620  46.6621  46.6622  46.7631  46.7646  46.7648  46.7662
    54.8169  54.8181  54.8183  54.8195

          k = 0.0952 0.0952 0.0952 (  2941 PWs)   bands (ev):

     8.8667  10.0573  10.0573  10.0573  11.5184  11.5184  11.5184  12.0325
    12.0934  12.0934  12.0934  12.0989  12.0989  12.3822  12.3822  12.3822
    13.4586  13.4586  13.8236  13.8236  13.8236  16.1948  16.1948  16.1948
    21.4150  21.4150  21.4150  25.1552  32.5051  32.5052  32.5052  35.2501
    35.2502  35.2502  37.2798  37.2799  37.2799  37.7970  39.9583  39.9583
    44.4519  44.4519  47.7809  48.0726  48.0726  48.0726  48.1470  48.1470
    48.1470  52.4567  52.4567  52.4567

          k = 0.0952 0.0952-0.1427 (  2944 PWs)   bands (ev):

     9.4927   9.4929   9.9887   9.9887  11.6382  11.6382  11.9243  11.9254
    12.1415  12.1417  12.2620  12.2620  12.2761  12.2772  12.3767  12.3767
    13.7440  13.7441  13.7519  13.7519  14.1630  14.1630  16.4790  16.4790
    20.3861  20.3861  22.9726  22.9732  33.4208  33.4208  34.6335  34.6335
    36.3347  36.3365  37.2523  37.2532  39.0000  39.0031  39.4460  39.4460
    44.6589  44.6589  44.9090  44.9105  46.0237  46.0241  48.5578  48.5578
    49.6135  49.6141  52.9861  52.9861

          k = 0.0952-0.1427-0.1427 (  2936 PWs)   bands (ev):

     9.6684   9.6684   9.6684   9.6684  11.8841  11.8843  11.8843  11.8846
    12.0738  12.0741  12.0741  12.0744  12.8232  12.8237  12.8238  12.8243
    13.6716  13.6720  13.6721  13.6725  14.9706  14.9713  14.9713  14.9720
    21.0990  21.0995  21.0995  21.1000  35.1603  35.1606  35.1607  35.1609
    38.2247  38.2254  38.2255  38.2263  38.9460  38.9467  38.9468  38.9475
    44.1001  44.1007  44.1009  44.1015  45.1638  45.1640  45.1640  45.1642
    50.4278  50.4282  50.4282  50.4285

          k =-0.1427-0.1427-0.1427 (  2872 PWs)   bands (ev):

     9.5524   9.5524   9.5524   9.5524  11.9625  11.9625  11.9625  11.9626
    11.9626  11.9626  11.9626  11.9626  13.7995  13.7996  13.7996  13.7996
    13.7996  13.7996  13.7996  13.7996  14.2957  14.2958  14.2958  14.2958
    20.2183  20.2184  20.2184  20.2184  36.9555  36.9557  36.9557  36.9558
    39.5832  39.5832  39.5833  39.5834  39.5834  39.5834  39.5835  39.5835
    42.8093  42.8093  42.8093  42.8094  42.8094  42.8094  42.8095  42.8095
    48.7820  48.7820  48.7820  48.7821

          k =-0.0476 0.0000 0.0476 (  2911 PWs)   bands (ev):

     6.1567   9.9373   9.9373  10.0642  10.3979  10.3979  10.4118  11.7607
    12.0969  12.1139  12.9362  12.9859  12.9945  12.9946  13.1705  13.5643
    13.6889  13.6889  13.7592  13.7592  13.8207  16.4066  16.4066  18.8040
    23.9047  25.1038  26.2513  26.2514  28.2987  28.2988  28.9418  28.9418
    30.6609  36.0404  36.1240  37.0324  37.0324  37.3383  40.1226  40.1227
    41.2768  42.6104  43.5373  45.2378  46.3693  49.7953  50.4618  53.1012
    53.6758  55.3570  55.3570  56.3107

          k =-0.0476-0.0000 0.0952 (  2916 PWs)   bands (ev):

     7.1784   9.7458  10.4194  10.4679  10.6798  10.7330  10.7522  11.4796
    11.9876  12.1273  12.2427  12.3602  12.3856  12.8189  13.2404  13.3190
    13.3259  13.3495  13.5019  13.7559  13.7619  14.4396  18.0210  20.5870
    22.0852  24.6133  25.5086  26.5377  27.4063  29.6122  29.9073  29.9603
    31.0207  33.7290  34.4724  37.6847  38.6376  40.3955  40.5742  40.7547
    41.1243  44.0468  45.0398  47.0653  47.7917  48.5943  49.9001  51.3419
    52.9471  53.2680  54.8244  56.2079

          k =-0.0952 0.0000 0.0952 (  2918 PWs)   bands (ev):

     8.1050  10.3334  10.3334  10.6994  10.9480  10.9480  10.9617  11.4097
    11.6569  11.6569  11.8116  12.1300  12.4911  12.7327  13.0244  13.1796
    13.1796  13.3197  13.3197  13.4898  13.7051  15.6858  15.6858  19.3043
    22.1137  25.1640  26.7815  26.7816  27.9010  27.9011  30.9899  31.6461
    31.6461  31.7418  33.6095  36.8436  41.5333  41.8862  41.8862  43.0816
    43.4182  43.7785  43.7785  47.1967  47.3362  48.4821  48.4821  51.6814
    52.1842  52.1981  53.2072  55.3579

          k = 0.0476-0.0476 0.0476 (  2905 PWs)   bands (ev):

     6.5025  10.0982  10.0982  10.0982  10.5125  10.5125  10.5125  11.7258
    12.1335  12.1336  12.6905  12.6905  12.6905  13.0837  13.0837  13.3309
    13.3309  13.3309  13.8748  13.8749  13.8749  17.0338  17.0338  17.0338
    25.3301  25.3303  25.3303  26.5966  26.5966  26.5966  31.1763  31.1763
    31.1765  33.4876  36.1717  36.1718  36.1719  39.2580  41.1439  41.1442
    42.8176  42.8178  42.8178  46.5990  47.6544  47.6546  51.6506  51.6508
    55.1141  55.2354  55.2354  55.2356

          k = 0.0476-0.0476 0.0952 (  2919 PWs)   bands (ev):

     7.4841   9.9045  10.4814  10.4814  10.7982  10.8263  10.8263  11.5163
    11.9780  11.9780  12.1734  12.2128  12.2730  12.9286  12.9993  13.0850
    13.0850  13.3233  13.7775  13.7775  13.8098  14.8015  18.3762  18.3763
    22.7110  22.7111  26.6241  27.2478  27.2479  30.3633  30.3634  30.7502
    30.9526  32.6561  36.6509  37.7816  37.8563  38.7961  38.7964  42.3668
    43.5100  44.4763  47.0274  47.0276  47.8894  49.0897  50.2069  50.2071
    50.7026  53.0238  53.0847  55.6652

          k =-0.0952 0.0476 0.0476 (  2919 PWs)   bands (ev):

     7.4841   9.9045  10.4814  10.4814  10.7982  10.8263  10.8263  11.5163
    11.9780  11.9780  12.1734  12.2128  12.2730  12.9286  12.9993  13.0850
    13.0850  13.3233  13.7775  13.7775  13.8098  14.8015  18.3762  18.3763
    22.7112  22.7112  26.6239  27.2479  27.2479  30.3632  30.3633  30.7502
    30.9526  32.6563  36.6510  37.7817  37.8565  38.7962  38.7962  42.3667
    43.5098  44.4760  47.0276  47.0277  47.8892  49.0898  50.2071  50.2071
    50.7026  53.0239  53.0848  55.6654

          k = 0.0476-0.0476-0.1427 (  2922 PWs)   bands (ev):

     8.8560   8.8570  10.8688  10.8688  10.9267  10.9267  11.1692  11.1709
    11.5840  11.5840  12.0753  12.0771  12.5459  12.5466  12.9172  12.9173
    13.4922  13.4935  13.5993  13.5995  13.7215  13.7215  19.5251  19.5251
    21.1498  21.1499  28.2120  28.2121  28.4508  28.4515  28.9323  28.9324
    34.9430  34.9449  35.4186  35.4223  38.0988  38.1027  42.2103  42.2106
    44.7621  44.7642  45.3756  45.3758  49.4856  49.4885  50.9056  50.9066
    52.1924  52.1927  53.6878  53.6879

          k = 0.0952-0.0476 0.0952 (  2911 PWs)   bands (ev):

     8.3229  10.2223  10.2223  10.5084  11.1138  11.1598  11.1598  11.5614
    11.7740  11.7740  11.9072  12.1320  12.2580  12.7364  12.7364  12.7528
    13.0557  13.6108  13.6801  13.6953  13.6954  15.8165  15.8165  18.6280
    20.8075  23.9080  23.9080  27.9487  28.0579  31.1392  31.1392  32.1259
    32.1259  34.0227  35.2467  36.9146  39.3303  39.3303  40.1601  43.0442
    43.7415  44.7907  46.4696  46.4696  49.1992  49.1992  50.4246  50.6024
    50.9315  51.6255  52.3082  52.9332

          k =-0.0952 0.0476 0.0952 (  2911 PWs)   bands (ev):

     8.3229  10.2223  10.2223  10.5084  11.1138  11.1598  11.1598  11.5614
    11.7740  11.7740  11.9073  12.1320  12.2579  12.7364  12.7364  12.7528
    13.0557  13.6108  13.6801  13.6954  13.6954  15.8165  15.8165  18.6281
    20.8076  23.9079  23.9080  27.9487  28.0578  31.1391  31.1393  32.1259
    32.1260  34.0225  35.2469  36.9145  39.3305  39.3306  40.1600  43.0441
    43.7414  44.7906  46.4697  46.4698  49.1992  49.1993  50.4245  50.6022
    50.9316  51.6253  52.3084  52.9331

          k = 0.0952-0.0476-0.1427 (  2908 PWs)   bands (ev):

     9.4059   9.4065  10.4435  10.4437  11.3273  11.3273  11.4749  11.4762
    11.7806  11.7812  11.9010  11.9023  12.4071  12.4075  12.6180  12.6183
    13.3527  13.3532  13.5804  13.5809  14.2730  14.2732  17.1937  17.1948
    21.8230  21.8238  25.6686  25.6692  29.4403  29.4408  33.0446  33.0449
    33.2584  33.2589  36.9083  36.9126  40.1430  40.1440  40.4517  40.4525
    45.1989  45.1993  45.6900  45.6921  47.7104  47.7115  50.5790  50.5807
    51.7972  51.7982  53.9082  53.9102

          k = 0.0952-0.0952 0.0952 (  2941 PWs)   bands (ev):

     8.8668  10.0573  10.0573  10.0573  11.5184  11.5184  11.5184  12.0325
    12.0934  12.0934  12.0934  12.0989  12.0989  12.3821  12.3821  12.3822
    13.4586  13.4586  13.8236  13.8236  13.8236  16.1947  16.1948  16.1948
    21.4149  21.4150  21.4151  25.1554  32.5053  32.5053  32.5053  35.2500
    35.2500  35.2502  37.2797  37.2798  37.2799  37.7969  39.9581  39.9582
    44.4517  44.4518  47.7808  48.0726  48.0727  48.0728  48.1469  48.1469
    48.1471  52.4569  52.4571  52.4571

          k = 0.0952-0.0952-0.1427 (  2944 PWs)   bands (ev):

     9.4927   9.4929   9.9887   9.9887  11.6383  11.6383  11.9244  11.9254
    12.1415  12.1417  12.2620  12.2620  12.2761  12.2772  12.3766  12.3767
    13.7440  13.7441  13.7519  13.7519  14.1630  14.1630  16.4789  16.4790
    20.3859  20.3861  22.9727  22.9732  33.4208  33.4209  34.6335  34.6336
    36.3347  36.3365  37.2521  37.2531  38.9999  39.0030  39.4459  39.4461
    44.6588  44.6590  44.9090  44.9105  46.0236  46.0240  48.5580  48.5581
    49.6135  49.6141  52.9863  52.9863

 ------ SPIN DOWN ----------


          k = 0.0000 0.0000 0.0000 (  2945 PWs)   bands (ev):

     5.3782  10.1787  10.1788  10.1788  10.8883  10.8883  10.8883  12.8299
    12.8299  12.8299  13.9086  13.9086  14.6606  14.6607  14.6607  14.9460
    14.9460  14.9460  14.9460  14.9460  14.9460  16.9964  16.9965  16.9965
    24.1204  24.1205  24.1205  29.5591  29.5591  29.5592  29.5593  29.5594
    29.5594  34.8152  34.8152  34.8152  38.1409  38.1411  38.1411  38.2951
    42.4487  42.4490  42.4490  46.1486  46.1489  46.1489  48.0210  55.3656
    55.3657  55.3657  58.1330  59.5518

          k =-0.0000-0.0000 0.0476 (  2910 PWs)   bands (ev):

     5.7444  10.1544  10.3730  10.3730  11.0076  11.0121  11.0121  12.6879
    12.9363  12.9364  13.7811  13.9575  14.1024  14.1024  14.4936  14.4936
    14.6087  14.7533  14.7533  14.9463  14.9463  15.5444  18.1409  18.1409
    24.2012  24.2012  26.2660  27.8896  27.8896  28.4767  28.4768  30.1358
    30.1360  34.9188  36.9049  36.9049  37.7263  38.2705  40.0755  40.0756
    40.2979  40.2981  40.8526  47.5169  48.1071  48.1073  49.2285  51.5557
    56.4839  56.4840  56.6074  56.6074

          k =-0.0000-0.0000 0.0952 (  2910 PWs)   bands (ev):

     6.7982   9.7178  10.8346  10.8346  11.3408  11.3900  11.3900  12.3094
    12.9556  12.9556  13.2462  13.2462  13.4603  13.6802  14.0815  14.0816
    14.0921  14.2782  14.2782  14.4679  14.9469  14.9469  20.1820  20.1820
    24.4740  24.4741  25.1880  25.1880  26.7794  26.7795  30.4597  31.7496
    31.7498  35.2443  36.6976  37.1065  37.1067  38.2641  38.8275  40.8740
    40.8740  44.2187  44.2188  44.3705  50.8880  50.9593  50.9595  50.9838
    50.9838  54.9385  56.1863  56.1863

          k = 0.0000 0.0000-0.1427 (  2906 PWs)   bands (ev):

     8.3408   8.3421  11.1263  11.1264  11.8129  11.8148  12.0348  12.0348
    12.0367  12.0367  13.1920  13.1948  13.7218  13.7218  13.7233  13.7233
    13.8118  13.8119  14.2779  14.2790  14.9472  14.9472  22.5627  22.5627
    22.5660  22.5660  24.7975  24.7976  25.8934  25.8934  34.1548  34.1550
    34.1570  34.1572  34.8916  34.8964  35.8286  35.8299  40.4639  40.4715
    45.6224  45.6224  45.6291  45.6291  47.6996  47.6997  52.4862  52.4862
    54.0693  54.0694  54.0753  54.0754

          k =-0.0000 0.0476 0.0476 (  2911 PWs)   bands (ev):

     6.1030  10.3654  10.3654  10.5551  11.1115  11.1220  11.1220  12.6142
    12.9868  12.9912  13.7013  13.7425  13.7427  13.7546  13.9576  14.3551
    14.4812  14.4812  14.7522  14.7522  14.8228  16.7211  16.7211  18.9696
    24.1634  25.2334  26.4400  26.4401  28.3817  28.3818  28.9828  28.9828
    30.6722  36.1156  36.1447  37.1030  37.1031  37.3557  40.2404  40.2405
    41.1962  42.6976  43.5066  45.1816  46.4302  49.9541  50.3872  53.2737
    53.6415  55.3189  55.3189  56.2510

          k =-0.0000 0.0476 0.0952 (  2916 PWs)   bands (ev):

     7.1328   9.9684  10.8817  11.0000  11.3950  11.4277  11.4691  12.3017
    12.6790  12.8482  13.0419  13.0821  13.2624  13.5834  14.0055  14.0910
    14.1610  14.2473  14.2766  14.7493  14.7584  15.1488  18.3598  20.7911
    22.2836  24.8413  25.6603  26.6726  27.5315  29.7207  29.9691  30.0310
    31.1181  33.8070  34.5148  37.7267  38.6758  40.3473  40.5220  40.8745
    41.1239  44.1289  45.2443  47.1315  47.7143  48.5769  49.8840  51.2672
    52.9026  53.1774  55.0445  56.4608

          k = 0.0000 0.0476-0.1427 (  2906 PWs)   bands (ev):

     8.6344   8.6357  11.2699  11.2701  11.8573  11.8592  11.8702  11.8716
    12.0520  12.0539  12.9118  12.9140  13.7253  13.7267  13.8003  13.8005
    13.8010  13.8014  14.5040  14.5041  14.7476  14.7479  20.1705  20.1721
    23.0737  23.0766  25.5872  25.5895  28.4310  28.4319  31.6157  31.6166
    32.0833  32.0839  35.8568  35.8622  38.8350  38.8353  42.3702  42.3750
    43.1129  43.1148  45.8952  45.9015  50.1522  50.1577  50.2927  50.2953
    52.5351  52.5373  53.3771  53.3787

          k =-0.0000 0.0952 0.0952 (  2918 PWs)   bands (ev):

     8.0829  10.6067  10.6067  11.3636  11.4459  11.6837  11.6837  12.2037
    12.3502  12.3502  12.5239  12.9212  13.4065  13.4797  13.7780  13.9170
    13.9170  14.2807  14.2807  14.4706  14.5476  16.2911  16.2911  19.6119
    22.3330  25.3624  26.9485  26.9486  28.0023  28.0023  31.1209  31.7348
    31.7349  31.8092  33.6622  36.8795  41.4699  41.8681  41.8682  43.1164
    43.3011  43.8208  43.8208  47.3182  47.3657  48.5269  48.5269  51.7406
    52.0751  52.1391  53.4108  55.2606

          k = 0.0000 0.0952-0.1427 (  2914 PWs)   bands (ev):

     9.4329   9.4340  11.2234  11.2246  11.8497  11.8499  11.9644  11.9661
    12.0794  12.0811  12.6022  12.6036  13.5726  13.5727  13.6464  13.6466
    13.7720  13.7735  14.3228  14.3237  15.1728  15.1730  17.6809  17.6821
    24.4422  24.4443  26.3827  26.3847  28.8192  28.8201  29.6330  29.6334
    33.0263  33.0269  36.8217  36.8270  40.3692  40.3702  43.0012  43.0022
    43.2415  43.2419  46.6825  46.6876  48.0122  48.0155  50.3804  50.3832
    51.8880  51.8925  53.4843  53.4854

          k = 0.0000-0.1427-0.1427 (  2968 PWs)   bands (ev):

    10.4438  10.4447  10.4447  10.4456  12.0579  12.0596  12.0596  12.0612
    12.2995  12.3000  12.3000  12.3005  13.4297  13.4298  13.4299  13.4300
    13.9541  13.9555  13.9555  13.9568  16.1187  16.1191  16.1192  16.1197
    26.4062  26.4076  26.4076  26.4090  27.7061  27.7073  27.7073  27.7085
    37.9719  37.9733  37.9734  37.9748  38.4702  38.4718  38.4719  38.4734
    47.0652  47.0652  47.0653  47.0654  49.1833  49.1861  49.1862  49.1891
    51.9273  51.9276  51.9279  51.9282

          k = 0.0476 0.0476 0.0476 (  2905 PWs)   bands (ev):

     6.4517  10.5533  10.5533  10.5533  11.2132  11.2132  11.2132  12.5593
    13.0118  13.0118  13.4013  13.4013  13.4013  13.8700  13.8700  14.1620
    14.1620  14.1620  14.8233  14.8233  14.8233  17.3749  17.3749  17.3749
    25.4617  25.4617  25.4617  26.7699  26.7699  26.7699  31.1983  31.1984
    31.1984  33.5540  36.2669  36.2670  36.2670  39.1027  41.1968  41.1968
    42.9016  42.9017  42.9017  46.5117  47.6118  47.6118  51.8176  51.8176
    55.1887  55.1887  55.1887  55.4516

          k = 0.0476 0.0476 0.0952 (  2919 PWs)   bands (ev):

     7.4490  10.1672  11.0130  11.0130  11.4548  11.4548  11.5106  12.3120
    12.6804  12.6804  12.8458  13.0433  13.1334  13.7749  13.8093  13.8719
    13.8719  14.1456  14.7112  14.7409  14.7409  15.4319  18.7032  18.7032
    22.9213  22.9213  26.7683  27.3969  27.3969  30.4383  30.4383  30.8642
    31.0400  32.7027  36.7256  37.6877  37.9337  38.8267  38.8267  42.3744
    43.5901  44.4938  47.0715  47.0716  47.9315  49.0357  50.1959  50.1959
    50.7097  52.9532  53.0449  55.7804

          k = 0.0476 0.0476-0.1427 (  2922 PWs)   bands (ev):

     8.8905   8.8917  11.4407  11.4407  11.5081  11.5082  11.9201  11.9219
    12.2980  12.2980  12.8249  12.8269  13.3967  13.3972  13.6810  13.6810
    14.2969  14.2983  14.4606  14.4607  14.6933  14.6933  19.7825  19.7825
    21.4539  21.4539  28.3269  28.3270  28.5927  28.5933  29.0469  29.0470
    35.0126  35.0144  35.3919  35.3958  38.1762  38.1801  42.1918  42.1918
    44.8488  44.8511  45.3649  45.3649  49.4061  49.4090  50.8600  50.8610
    52.2259  52.2260  53.8676  53.8676

          k = 0.0476 0.0952 0.0952 (  2911 PWs)   bands (ev):

     8.3349  10.6151  10.6151  11.1269  11.6208  11.7617  11.7617  12.2881
    12.4941  12.4941  12.6191  12.9328  13.0822  13.5359  13.5359  13.5381
    13.8991  14.4599  14.6086  14.6086  14.6254  16.3699  16.3699  18.9028
    21.1515  24.1250  24.1250  28.1104  28.1855  31.2030  31.2031  32.2185
    32.2185  34.0773  35.2725  36.9399  39.3454  39.3454  40.0840  43.1578
    43.7334  44.7365  46.4636  46.4636  49.2538  49.2538  50.3562  50.5859
    50.9081  51.6980  52.3738  52.8601

          k = 0.0476 0.0952-0.1427 (  2908 PWs)   bands (ev):

     9.5553   9.5561  10.9784  10.9788  11.8815  11.8817  12.1209  12.1224
    12.4743  12.4750  12.6613  12.6627  13.2113  13.2117  13.3925  13.3928
    14.2179  14.2187  14.5163  14.5169  15.0660  15.0662  17.6049  17.6058
    22.1233  22.1240  25.8686  25.8691  29.5408  29.5414  33.1016  33.1017
    33.3273  33.3279  36.9214  36.9257  40.1273  40.1282  40.4744  40.4753
    45.1863  45.1866  45.6818  45.6840  47.6911  47.6924  50.6172  50.6189
    51.7365  51.7375  53.9868  53.9902

          k = 0.0476-0.1427-0.1427 (  2936 PWs)   bands (ev):

    10.3320  10.3325  10.3326  10.3330  12.2882  12.2889  12.2889  12.2897
    12.5079  12.5088  12.5088  12.5097  13.1556  13.1559  13.1560  13.1564
    14.2467  14.2476  14.2476  14.2486  15.9932  15.9938  15.9938  15.9943
    23.7146  23.7151  23.7151  23.7156  31.0607  31.0610  31.0611  31.0614
    38.2507  38.2518  38.2520  38.2532  38.2988  38.3003  38.3004  38.3017
    46.5938  46.5938  46.5940  46.5940  46.7888  46.7903  46.7905  46.7921
    54.8812  54.8825  54.8827  55.0947

          k = 0.0952 0.0952 0.0952 (  2941 PWs)   bands (ev):

     8.9999  10.5670  10.5670  10.5671  12.0774  12.0774  12.0774  12.5553
    12.7730  12.7730  12.7730  12.8999  12.8999  13.1733  13.1733  13.1733
    14.3396  14.3396  14.7513  14.7513  14.7513  16.6213  16.6214  16.6214
    21.7536  21.7536  21.7536  25.3806  32.5516  32.5517  32.5517  35.3116
    35.3116  35.3116  37.2926  37.2926  37.2926  37.6262  40.0444  40.0444
    44.4612  44.4612  47.7961  48.0211  48.0211  48.0211  48.1484  48.1485
    48.1485  52.4880  52.4880  52.4880

          k = 0.0952 0.0952-0.1427 (  2944 PWs)   bands (ev):

     9.8250   9.8254  10.5268  10.5268  12.2698  12.2699  12.5830  12.5840
    12.8303  12.8315  12.9337  12.9338  12.9765  12.9765  13.0407  13.0407
    14.6529  14.6531  14.6805  14.6805  14.8787  14.8789  16.8106  16.8106
    20.8231  20.8231  23.2621  23.2626  33.4286  33.4287  34.7195  34.7195
    36.2261  36.2280  37.3247  37.3256  39.0803  39.0833  39.4206  39.4207
    44.6855  44.6855  44.8863  44.8879  46.0321  46.0326  48.5178  48.5178
    49.6670  49.6677  53.0953  53.0953

          k = 0.0952-0.1427-0.1427 (  2936 PWs)   bands (ev):

    10.1390  10.1391  10.1391  10.1392  12.6170  12.6172  12.6172  12.6175
    12.8497  12.8499  12.8499  12.8502  13.2634  13.2641  13.2641  13.2648
    14.5897  14.5902  14.5902  14.5907  15.5023  15.5028  15.5029  15.5034
    21.4919  21.4923  21.4923  21.4927  35.1343  35.1347  35.1348  35.1352
    38.1939  38.1946  38.1947  38.1954  39.0152  39.0159  39.0160  39.0167
    44.1321  44.1329  44.1330  44.1337  45.1565  45.1567  45.1568  45.1571
    50.5184  50.5187  50.5187  50.5190

          k =-0.1427-0.1427-0.1427 (  2872 PWs)   bands (ev):

    10.0538  10.0538  10.0538  10.0538  12.7355  12.7355  12.7355  12.7355
    12.7355  12.7355  12.7355  12.7355  14.1965  14.1966  14.1966  14.1966
    14.7230  14.7230  14.7230  14.7230  14.7230  14.7230  14.7230  14.7230
    20.7006  20.7007  20.7007  20.7007  36.7715  36.7718  36.7718  36.7719
    39.6533  39.6533  39.6534  39.6534  39.6535  39.6535  39.6536  39.6536
    42.8398  42.8398  42.8398  42.8399  42.8399  42.8399  42.8400  42.8400
    48.8962  48.8962  48.8962  48.8963

          k =-0.0476 0.0000 0.0476 (  2911 PWs)   bands (ev):

     6.1030  10.3654  10.3654  10.5551  11.1115  11.1220  11.1220  12.6142
    12.9867  12.9912  13.7013  13.7425  13.7426  13.7546  13.9576  14.3550
    14.4812  14.4812  14.7522  14.7522  14.8228  16.7211  16.7211  18.9697
    24.1634  25.2335  26.4401  26.4401  28.3817  28.3818  28.9828  28.9828
    30.6720  36.1158  36.1446  37.1031  37.1031  37.3558  40.2404  40.2406
    41.1961  42.6978  43.5064  45.1815  46.4300  49.9540  50.3873  53.2738
    53.6416  55.3191  55.3191  56.2510

          k =-0.0476-0.0000 0.0952 (  2916 PWs)   bands (ev):

     7.1328   9.9684  10.8817  11.0000  11.3950  11.4277  11.4691  12.3017
    12.6790  12.8482  13.0419  13.0821  13.2624  13.5834  14.0054  14.0910
    14.1610  14.2473  14.2766  14.7493  14.7584  15.1488  18.3597  20.7911
    22.2837  24.8413  25.6603  26.6726  27.5315  29.7207  29.9691  30.0308
    31.1181  33.8071  34.5149  37.7268  38.6756  40.3472  40.5219  40.8745
    41.1239  44.1290  45.2442  47.1317  47.7142  48.5767  49.8842  51.2672
    52.9028  53.1775  55.0444  56.4608

          k =-0.0952 0.0000 0.0952 (  2918 PWs)   bands (ev):

     8.0829  10.6067  10.6067  11.3637  11.4459  11.6837  11.6837  12.2037
    12.3502  12.3502  12.5239  12.9213  13.4065  13.4797  13.7780  13.9170
    13.9170  14.2807  14.2807  14.4706  14.5476  16.2910  16.2911  19.6120
    22.3330  25.3624  26.9484  26.9485  28.0022  28.0023  31.1209  31.7349
    31.7349  31.8093  33.6620  36.8794  41.4698  41.8682  41.8682  43.1163
    43.3010  43.8209  43.8210  47.3180  47.3655  48.5270  48.5270  51.7409
    52.0750  52.1390  53.4107  55.2608

          k = 0.0476-0.0476 0.0476 (  2905 PWs)   bands (ev):

     6.4517  10.5533  10.5533  10.5533  11.2132  11.2132  11.2132  12.5593
    13.0118  13.0118  13.4013  13.4013  13.4013  13.8700  13.8700  14.1620
    14.1620  14.1620  14.8233  14.8233  14.8233  17.3749  17.3749  17.3749
    25.4617  25.4618  25.4619  26.7699  26.7699  26.7699  31.1982  31.1982
    31.1984  33.5542  36.2668  36.2668  36.2670  39.1027  41.1965  41.1968
    42.9017  42.9019  42.9020  46.5117  47.6116  47.6118  51.8174  51.8176
    55.1887  55.1887  55.1889  55.4516

          k = 0.0476-0.0476 0.0952 (  2919 PWs)   bands (ev):

     7.4490  10.1672  11.0130  11.0130  11.4548  11.4548  11.5106  12.3120
    12.6804  12.6804  12.8458  13.0434  13.1334  13.7749  13.8092  13.8719
    13.8719  14.1456  14.7112  14.7409  14.7409  15.4319  18.7032  18.7032
    22.9213  22.9214  26.7684  27.3969  27.3970  30.4382  30.4383  30.8644
    31.0401  32.7026  36.7255  37.6875  37.9335  38.8265  38.8267  42.3744
    43.5903  44.4938  47.0716  47.0718  47.9315  49.0356  50.1959  50.1961
    50.7097  52.9533  53.0449  55.7803

          k =-0.0952 0.0476 0.0476 (  2919 PWs)   bands (ev):

     7.4490  10.1672  11.0130  11.0130  11.4548  11.4548  11.5106  12.3120
    12.6804  12.6804  12.8458  13.0433  13.1335  13.7749  13.8092  13.8719
    13.8719  14.1456  14.7112  14.7409  14.7409  15.4318  18.7032  18.7032
    22.9214  22.9214  26.7682  27.3969  27.3970  30.4381  30.4382  30.8644
    31.0401  32.7028  36.7256  37.6876  37.9337  38.8266  38.8266  42.3743
    43.5902  44.4935  47.0718  47.0719  47.9313  49.0356  50.1961  50.1961
    50.7096  52.9534  53.0450  55.7804

          k = 0.0476-0.0476-0.1427 (  2922 PWs)   bands (ev):

     8.8905   8.8917  11.4407  11.4407  11.5082  11.5082  11.9201  11.9219
    12.2980  12.2980  12.8249  12.8269  13.3967  13.3972  13.6810  13.6810
    14.2969  14.2983  14.4606  14.4607  14.6933  14.6933  19.7824  19.7825
    21.4538  21.4539  28.3269  28.3270  28.5928  28.5934  29.0470  29.0471
    35.0124  35.0142  35.3919  35.3957  38.1761  38.1800  42.1916  42.1919
    44.8490  44.8513  45.3647  45.3649  49.4062  49.4091  50.8599  50.8609
    52.2259  52.2262  53.8675  53.8677

          k = 0.0952-0.0476 0.0952 (  2911 PWs)   bands (ev):

     8.3349  10.6151  10.6151  11.1269  11.6208  11.7617  11.7617  12.2881
    12.4941  12.4941  12.6191  12.9328  13.0822  13.5359  13.5359  13.5381
    13.8991  14.4598  14.6086  14.6086  14.6254  16.3699  16.3699  18.9028
    21.1514  24.1251  24.1251  28.1106  28.1856  31.2030  31.2030  32.2185
    32.2185  34.0774  35.2723  36.9399  39.3452  39.3452  40.0839  43.1578
    43.7333  44.7365  46.4637  46.4637  49.2540  49.2540  50.3563  50.5861
    50.9079  51.6982  52.3739  52.8602

          k =-0.0952 0.0476 0.0952 (  2911 PWs)   bands (ev):

     8.3349  10.6151  10.6151  11.1269  11.6208  11.7617  11.7617  12.2881
    12.4941  12.4941  12.6191  12.9328  13.0822  13.5359  13.5359  13.5380
    13.8991  14.4599  14.6086  14.6086  14.6254  16.3698  16.3699  18.9028
    21.1515  24.1249  24.1251  28.1106  28.1856  31.2030  31.2031  32.2185
    32.2186  34.0772  35.2725  36.9397  39.3453  39.3454  40.0838  43.1577
    43.7332  44.7364  46.4638  46.4638  49.2540  49.2541  50.3562  50.5859
    50.9080  51.6979  52.3741  52.8602

          k = 0.0952-0.0476-0.1427 (  2908 PWs)   bands (ev):

     9.5553   9.5561  10.9784  10.9788  11.8815  11.8817  12.1209  12.1224
    12.4743  12.4750  12.6613  12.6627  13.2113  13.2117  13.3925  13.3928
    14.2179  14.2187  14.5163  14.5169  15.0660  15.0662  17.6048  17.6058
    22.1233  22.1240  25.8687  25.8692  29.5408  29.5415  33.1014  33.1016
    33.3274  33.3280  36.9214  36.9257  40.1273  40.1282  40.4743  40.4751
    45.1862  45.1865  45.6818  45.6840  47.6912  47.6925  50.6173  50.6190
    51.7367  51.7377  53.9868  53.9901

          k = 0.0952-0.0952 0.0952 (  2941 PWs)   bands (ev):

     9.0000  10.5670  10.5671  10.5671  12.0774  12.0774  12.0774  12.5553
    12.7730  12.7730  12.7730  12.8999  12.8999  13.1732  13.1733  13.1733
    14.3396  14.3396  14.7513  14.7513  14.7513  16.6213  16.6214  16.6214
    21.7535  21.7536  21.7537  25.3808  32.5517  32.5518  32.5518  35.3115
    35.3115  35.3117  37.2925  37.2925  37.2927  37.6261  40.0442  40.0443
    44.4611  44.4611  47.7961  48.0212  48.0212  48.0213  48.1484  48.1484
    48.1486  52.4882  52.4884  52.4884

          k = 0.0952-0.0952-0.1427 (  2944 PWs)   bands (ev):

     9.8250   9.8254  10.5268  10.5268  12.2699  12.2699  12.5830  12.5840
    12.8303  12.8316  12.9337  12.9338  12.9765  12.9765  13.0407  13.0407
    14.6529  14.6531  14.6804  14.6805  14.8787  14.8789  16.8105  16.8106
    20.8230  20.8231  23.2622  23.2627  33.4287  33.4288  34.7195  34.7196
    36.2260  36.2280  37.3246  37.3254  39.0802  39.0832  39.4205  39.4208
    44.6854  44.6856  44.8863  44.8879  46.0320  46.0325  48.5179  48.5180
    49.6671  49.6677  53.0954  53.0955

     the Fermi energy is    14.4960 ev

!    total energy              =    -343.63028173 Ry
     Harris-Foulkes estimate   =    -343.63028173 Ry
     estimated scf accuracy    <          9.4E-11 Ry

     The total energy is the sum of the following terms:

     one-electron contribution =      -6.35637463 Ry
     hartree contribution      =      60.34050886 Ry
     xc contribution           =    -120.51466307 Ry
     ewald contribution        =    -277.05132255 Ry
     Dispersion Correction     =      -0.04785615 Ry
     smearing contrib. (-TS)   =      -0.00057418 Ry

     total magnetization       =     2.84 Bohr mag/cell
     absolute magnetization    =     3.25 Bohr mag/cell

     convergence has been achieved in  11 iterations

     Forces acting on atoms (Ry/au):

     atom    1 type  1   force =    -0.00013320   -0.00013320    0.00013291
     atom    2 type  1   force =     0.00013349    0.00013349    0.00013349
     atom    3 type  1   force =    -0.00013320    0.00013291   -0.00013320
     atom    4 type  1   force =     0.00013291   -0.00013320   -0.00013320

     Total force =     0.000461     Total SCF correction =     0.000002


     entering subroutine stress ...

          total   stress  (Ry/bohr**3)                   (kbar)     P=    0.57
   0.00000388  -0.00000004  -0.00000004          0.57     -0.01     -0.01
  -0.00000004   0.00000388  -0.00000004         -0.01      0.57     -0.01
  -0.00000004  -0.00000004   0.00000388         -0.01     -0.01      0.57


     number of scf cycles    =   4
     number of bfgs steps    =   3

     enthalpy old            =    -343.6302354323 Ry
     enthalpy new            =    -343.6302817256 Ry

     CASE: enthalpy_new < enthalpy_old

     new trust radius        =       0.0006840933 bohr
     new conv_thr            =            1.0E-10 Ry

     new unit-cell volume =    290.12947 a.u.^3 (    42.99275 Ang^3 )

CELL_PARAMETERS (alat=  1.88972590)
   3.503201624   0.000003910   0.000003910
   0.000003910   3.503201624   0.000003910
   0.000003910   0.000003910   3.503201624

ATOMIC_POSITIONS (alat)
Ni1      1.755500521   1.755500521   0.003883872
Ni1      0.003877890   0.003877890   0.003877890
Ni1      1.755500521   0.003883872   1.755500521
Ni1      0.003883872   1.755500521   1.755500521



     Writing output data file Ni-ferromag.save
     NEW-OLD atomic charge density approx. for the potential

     Check: negative/imaginary core charge=   -0.000005    0.000000
     extrapolated charge   40.01048, renormalised to   40.00000

     total cpu time spent up to now is     2365.8 secs

     Self-consistent Calculation

     iteration #  1     ecut=    70.00 Ry     beta=0.20
     Davidson diagonalization with overlap
     ethr =  1.00E-06,  avg # of iterations =  2.0

     Threshold (ethr) on eigenvalues was too large:
     Diagonalizing with lowered threshold

     Davidson diagonalization with overlap
     ethr =  8.90E-08,  avg # of iterations =  1.0

     total cpu time spent up to now is     2469.6 secs

     total energy              =    -343.63025428 Ry
     Harris-Foulkes estimate   =    -343.61925652 Ry
     estimated scf accuracy    <       0.00003566 Ry

     total magnetization       =     2.84 Bohr mag/cell
     absolute magnetization    =     3.26 Bohr mag/cell

     iteration #  2     ecut=    70.00 Ry     beta=0.20
     Davidson diagonalization with overlap
     ethr =  8.91E-08,  avg # of iterations =  1.5

     total cpu time spent up to now is     2512.6 secs

     total energy              =    -343.63027693 Ry
     Harris-Foulkes estimate   =    -343.63027964 Ry
     estimated scf accuracy    <       0.00001406 Ry

     total magnetization       =     2.83 Bohr mag/cell
     absolute magnetization    =     3.25 Bohr mag/cell

     iteration #  3     ecut=    70.00 Ry     beta=0.20
     Davidson diagonalization with overlap
     ethr =  3.52E-08,  avg # of iterations =  1.0

     total cpu time spent up to now is     2554.9 secs

     total energy              =    -343.63027400 Ry
     Harris-Foulkes estimate   =    -343.63027739 Ry
     estimated scf accuracy    <       0.00000484 Ry

     total magnetization       =     2.84 Bohr mag/cell
     absolute magnetization    =     3.25 Bohr mag/cell

     iteration #  4     ecut=    70.00 Ry     beta=0.20
     Davidson diagonalization with overlap
     ethr =  1.21E-08,  avg # of iterations =  1.7

     total cpu time spent up to now is     2598.4 secs

     total energy              =    -343.63027679 Ry
     Harris-Foulkes estimate   =    -343.63027751 Ry
     estimated scf accuracy    <       0.00000527 Ry

     total magnetization       =     2.84 Bohr mag/cell
     absolute magnetization    =     3.25 Bohr mag/cell

     iteration #  5     ecut=    70.00 Ry     beta=0.20
     Davidson diagonalization with overlap
     ethr =  1.21E-08,  avg # of iterations =  1.0

     total cpu time spent up to now is     2640.7 secs

     total energy              =    -343.63027660 Ry
     Harris-Foulkes estimate   =    -343.63027687 Ry
     estimated scf accuracy    <       0.00000269 Ry

     total magnetization       =     2.84 Bohr mag/cell
     absolute magnetization    =     3.25 Bohr mag/cell

     iteration #  6     ecut=    70.00 Ry     beta=0.20
     Davidson diagonalization with overlap
     ethr =  6.73E-09,  avg # of iterations =  1.0

     total cpu time spent up to now is     2682.9 secs

     total energy              =    -343.63027596 Ry
     Harris-Foulkes estimate   =    -343.63027662 Ry
     estimated scf accuracy    <       0.00000169 Ry

     total magnetization       =     2.84 Bohr mag/cell
     absolute magnetization    =     3.25 Bohr mag/cell

     iteration #  7     ecut=    70.00 Ry     beta=0.20
     Davidson diagonalization with overlap
     ethr =  4.24E-09,  avg # of iterations =  1.0

     total cpu time spent up to now is     2725.2 secs

     total energy              =    -343.63027621 Ry
     Harris-Foulkes estimate   =    -343.63027621 Ry
     estimated scf accuracy    <       0.00000001 Ry

     total magnetization       =     2.84 Bohr mag/cell
     absolute magnetization    =     3.25 Bohr mag/cell

     iteration #  8     ecut=    70.00 Ry     beta=0.20
     Davidson diagonalization with overlap
     ethr =  3.17E-11,  avg # of iterations =  1.8

     total cpu time spent up to now is     2768.5 secs

     total energy              =    -343.63027622 Ry
     Harris-Foulkes estimate   =    -343.63027622 Ry
     estimated scf accuracy    <       0.00000004 Ry

     total magnetization       =     2.84 Bohr mag/cell
     absolute magnetization    =     3.25 Bohr mag/cell

     iteration #  9     ecut=    70.00 Ry     beta=0.20
     Davidson diagonalization with overlap
     ethr =  3.17E-11,  avg # of iterations =  1.0

     total cpu time spent up to now is     2810.7 secs

     total energy              =    -343.63027622 Ry
     Harris-Foulkes estimate   =    -343.63027622 Ry
     estimated scf accuracy    <       0.00000006 Ry

     total magnetization       =     2.84 Bohr mag/cell
     absolute magnetization    =     3.25 Bohr mag/cell

     iteration # 10     ecut=    70.00 Ry     beta=0.20
     Davidson diagonalization with overlap
     ethr =  3.17E-11,  avg # of iterations =  1.0

     total cpu time spent up to now is     2853.0 secs

     total energy              =    -343.63027620 Ry
     Harris-Foulkes estimate   =    -343.63027622 Ry
     estimated scf accuracy    <       0.00000005 Ry

     total magnetization       =     2.84 Bohr mag/cell
     absolute magnetization    =     3.25 Bohr mag/cell

     iteration # 11     ecut=    70.00 Ry     beta=0.20
     Davidson diagonalization with overlap
     ethr =  3.17E-11,  avg # of iterations =  1.8

     Magnetic moment per site:
     atom:    1    charge:    3.0051    magn:    0.3349    constr:    0.0000
     atom:    2    charge:    3.0033    magn:    0.3347    constr:    0.0000
     atom:    3    charge:    3.0051    magn:    0.3349    constr:    0.0000
     atom:    4    charge:    3.0051    magn:    0.3349    constr:    0.0000

     total cpu time spent up to now is     2897.0 secs

     End of self-consistent calculation

 ------ SPIN UP ------------


          k = 0.0000 0.0000 0.0000 (  2945 PWs)   bands (ev):

     5.4296   9.7133   9.7133   9.7133  10.1663  10.1663  10.1663  11.9450
    11.9451  11.9451  13.1237  13.1237  13.8414  13.8414  13.8414  13.9313
    13.9313  13.9313  13.9313  13.9313  13.9313  17.0700  17.0700  17.0700
    23.8073  23.8074  23.8074  29.5654  29.5654  29.5654  29.5655  29.5655
    29.5655  34.6423  34.6423  34.6423  37.9872  37.9874  37.9874  38.4933
    42.4686  42.4688  42.4688  46.0654  46.0656  46.0656  48.1709  55.1635
    55.1636  55.1636  57.6073  59.0292

          k =-0.0000-0.0000 0.0476 (  2910 PWs)   bands (ev):

     5.7958   9.7354   9.8974   9.8974  10.2768  10.2927  10.2927  11.8163
    12.0474  12.0474  13.0058  13.1704  13.2774  13.2774  13.6880  13.6880
    13.7554  13.7554  13.7919  13.9316  13.9316  15.4691  18.0285  18.0285
    23.9032  23.9033  26.0566  27.8136  27.8136  28.4418  28.4419  30.1256
    30.1257  34.7585  36.8152  36.8152  37.8573  38.1192  39.9446  39.9447
    40.2466  40.2467  40.9136  47.4856  48.1230  48.1231  49.1451  51.5540
    56.2590  56.2590  56.6698  56.6698

          k =-0.0000-0.0000 0.0952 (  2910 PWs)   bands (ev):

     6.8451   9.5061  10.3343  10.3344  10.5844  10.6758  10.6758  11.4723
    12.2218  12.2218  12.3440  12.3440  12.7180  13.2990  13.3050  13.3095
    13.3096  13.3167  13.3167  13.6577  13.9321  13.9321  19.9908  19.9908
    24.2206  24.2206  25.0402  25.0402  26.6736  26.6736  30.3562  31.7046
    31.7048  35.1218  36.7242  37.0260  37.0261  38.3463  38.6711  40.8593
    40.8593  44.1086  44.1086  44.1405  50.9216  51.0442  51.0443  51.0469
    51.0469  55.0317  55.9349  55.9350

          k = 0.0000 0.0000-0.1427 (  2906 PWs)   bands (ev):

     8.3443   8.3443  10.6104  10.6104  11.0193  11.0193  11.3223  11.3223
    11.3224  11.3224  12.5409  12.5410  12.7960  12.7960  12.7961  12.7961
    13.0610  13.0610  13.4769  13.4770  13.9324  13.9324  22.3761  22.3761
    22.3762  22.3762  24.5939  24.5940  25.7280  25.7281  34.0822  34.0823
    34.0823  34.0824  34.9058  34.9060  35.7695  35.7695  40.2645  40.2648
    45.6603  45.6603  45.6606  45.6606  47.6143  47.6144  52.2858  52.2858
    54.1721  54.1722  54.1724  54.1724

          k =-0.0000 0.0476 0.0476 (  2911 PWs)   bands (ev):

     6.1534   9.9337   9.9337  10.0606  10.3942  10.3942  10.4080  11.7564
    12.0924  12.1094  12.9315  12.9812  12.9898  12.9898  13.1656  13.5593
    13.6839  13.6839  13.7541  13.7541  13.8155  16.4011  16.4011  18.7982
    23.8976  25.0964  26.2438  26.2439  28.2913  28.2913  28.9340  28.9340
    30.6533  36.0317  36.1157  37.0236  37.0236  37.3293  40.1122  40.1123
    41.2681  42.5999  43.5279  45.2283  46.3587  49.7831  50.4515  53.0884
    53.6654  55.3460  55.3460  56.2998

          k =-0.0000 0.0476 0.0952 (  2916 PWs)   bands (ev):

     7.1749   9.7421  10.4157  10.4642  10.6759  10.7291  10.7483  11.4754
    11.9832  12.1229  12.2382  12.3557  12.3811  12.8142  13.2356  13.3141
    13.3209  13.3446  13.4970  13.7508  13.7568  14.4344  18.0152  20.5808
    22.0786  24.6058  25.5015  26.5307  27.3982  29.6044  29.8998  29.9524
    31.0123  33.7206  34.4639  37.6759  38.6286  40.3868  40.5655  40.7442
    41.1150  44.0361  45.0280  47.0541  47.7819  48.5839  49.8894  51.3315
    52.9362  53.2575  54.8128  56.1980

          k = 0.0000 0.0476-0.1427 (  2906 PWs)   bands (ev):

     8.6257   8.6258  10.7629  10.7629  11.0710  11.0711  11.1899  11.1900
    11.3368  11.3369  12.1675  12.1676  12.7968  12.7969  13.0262  13.0263
    13.0460  13.0461  13.6604  13.6604  13.7483  13.7484  19.8835  19.8836
    22.8752  22.8754  25.4094  25.4095  28.3065  28.3066  31.4940  31.4940
    32.0176  32.0176  35.8256  35.8258  38.8250  38.8250  42.2088  42.2090
    43.1111  43.1112  45.9364  45.9366  50.0778  50.0780  50.3512  50.3513
    52.6091  52.6092  53.1988  53.1990

          k =-0.0000 0.0952 0.0952 (  2918 PWs)   bands (ev):

     8.1013  10.3296  10.3296  10.6955  10.9440  10.9440  10.9578  11.4055
    11.6527  11.6527  11.8073  12.1255  12.4865  12.7281  13.0197  13.1748
    13.1748  13.3148  13.3148  13.4847  13.7001  15.6802  15.6802  19.2981
    22.1072  25.1564  26.7742  26.7743  27.8935  27.8935  30.9819  31.6378
    31.6378  31.7336  33.6012  36.8349  41.5244  41.8769  41.8769  43.0716
    43.4095  43.7681  43.7682  47.1853  47.3257  48.4711  48.4711  51.6697
    52.1737  52.1878  53.1958  55.3470

          k = 0.0000 0.0952-0.1427 (  2914 PWs)   bands (ev):

     9.3683   9.3683  10.8003  10.8004  11.1982  11.1983  11.2058  11.2058
    11.3554  11.3555  11.8617  11.8617  12.8336  12.8336  12.8343  12.8343
    12.9004  12.9004  13.3497  13.3497  14.3615  14.3615  17.2114  17.2114
    24.2310  24.2311  26.2243  26.2244  28.6496  28.6497  29.5352  29.5353
    32.9463  32.9464  36.7878  36.7880  40.3615  40.3616  43.0465  43.0466
    43.2134  43.2135  46.7368  46.7370  47.9202  47.9204  50.4239  50.4240
    51.7573  51.7575  53.5595  53.5595

          k = 0.0000-0.1427-0.1427 (  2968 PWs)   bands (ev):

    10.2213  10.2213  10.2214  10.2214  11.3174  11.3174  11.3175  11.3175
    11.6266  11.6266  11.6266  11.6266  12.6875  12.6875  12.6875  12.6875
    13.0014  13.0014  13.0015  13.0015  15.4316  15.4317  15.4317  15.4317
    26.2051  26.2052  26.2052  26.2053  27.5760  27.5760  27.5761  27.5761
    37.8897  37.8897  37.8898  37.8898  38.4969  38.4970  38.4971  38.4972
    47.1756  47.1756  47.1756  47.1756  49.1862  49.1863  49.1864  49.1865
    51.8141  51.8141  51.8142  51.8143

          k = 0.0476 0.0476 0.0476 (  2905 PWs)   bands (ev):

     6.4991  10.0946  10.0946  10.0946  10.5087  10.5087  10.5087  11.7215
    12.1291  12.1291  12.6859  12.6859  12.6859  13.0789  13.0789  13.3259
    13.3259  13.3259  13.8697  13.8697  13.8697  17.0282  17.0282  17.0282
    25.3232  25.3232  25.3232  26.5889  26.5889  26.5889  31.1685  31.1685
    31.1685  33.4792  36.1630  36.1630  36.1630  39.2502  41.1344  41.1344
    42.8072  42.8072  42.8072  46.5894  47.6445  47.6445  51.6379  51.6379
    55.1045  55.2244  55.2244  55.2244

          k = 0.0476 0.0476 0.0952 (  2919 PWs)   bands (ev):

     7.4805   9.9008  10.4776  10.4776  10.7943  10.8224  10.8224  11.5121
    11.9736  11.9736  12.1689  12.2083  12.2685  12.9238  12.9945  13.0801
    13.0801  13.3183  13.7724  13.7724  13.8047  14.7962  18.3703  18.3703
    22.7043  22.7043  26.6167  27.2402  27.2402  30.3554  30.3554  30.7421
    30.9446  32.6479  36.6420  37.7737  37.8471  38.7872  38.7872  42.3572
    43.4993  44.4662  47.0166  47.0166  47.8784  49.0797  50.1964  50.1964
    50.6917  53.0132  53.0737  55.6520

          k = 0.0476 0.0476-0.1427 (  2922 PWs)   bands (ev):

     8.8528   8.8528  10.8648  10.8648  10.9228  10.9228  11.1659  11.1660
    11.5797  11.5798  12.0717  12.0718  12.5416  12.5417  12.9125  12.9125
    13.4878  13.4879  13.5943  13.5944  13.7164  13.7164  19.5191  19.5191
    21.1431  21.1431  28.2046  28.2047  28.4433  28.4434  28.9241  28.9241
    34.9353  34.9354  35.4125  35.4127  38.0913  38.0915  42.2010  42.2010
    44.7521  44.7523  45.3658  45.3658  49.4767  49.4769  50.8955  50.8956
    52.1807  52.1807  53.6771  53.6771

          k = 0.0476 0.0952 0.0952 (  2911 PWs)   bands (ev):

     8.3193  10.2185  10.2185  10.5046  11.1098  11.1558  11.1558  11.5572
    11.7697  11.7697  11.9029  12.1276  12.2535  12.7317  12.7317  12.7481
    13.0509  13.6058  13.6750  13.6903  13.6903  15.8109  15.8110  18.6222
    20.8008  23.9009  23.9009  27.9409  28.0501  31.1315  31.1315  32.1174
    32.1174  34.0141  35.2385  36.9059  39.3214  39.3214  40.1516  43.0335
    43.7318  44.7810  46.4593  46.4593  49.1880  49.1880  50.4140  50.5914
    50.9207  51.6135  52.2970  52.9223

          k = 0.0476 0.0952-0.1427 (  2908 PWs)   bands (ev):

     9.4024   9.4025  10.4397  10.4397  11.3233  11.3233  11.4713  11.4714
    11.7766  11.7766  11.8973  11.8973  12.4028  12.4028  12.6135  12.6135
    13.3480  13.3480  13.5756  13.5756  14.2678  14.2678  17.1885  17.1885
    21.8166  21.8166  25.6614  25.6615  29.4327  29.4328  33.0367  33.0367
    33.2501  33.2502  36.9017  36.9019  40.1344  40.1345  40.4427  40.4428
    45.1891  45.1892  45.6809  45.6810  47.7003  47.7005  50.5685  50.5686
    51.7868  51.7869  53.8989  53.8990

          k = 0.0476-0.1427-0.1427 (  2936 PWs)   bands (ev):

     9.9718   9.9718   9.9718   9.9718  11.7143  11.7143  11.7143  11.7143
    11.8014  11.8014  11.8014  11.8015  12.3742  12.3742  12.3742  12.3743
    13.3306  13.3306  13.3306  13.3306  15.3426  15.3426  15.3426  15.3426
    23.4502  23.4503  23.4503  23.4503  30.9703  30.9704  30.9704  30.9704
    38.1702  38.1702  38.1703  38.1703  38.3407  38.3408  38.3409  38.3410
    46.6522  46.6522  46.6523  46.6523  46.7540  46.7541  46.7541  46.7542
    54.8057  54.8057  54.8058  54.8059

          k = 0.0952 0.0952 0.0952 (  2941 PWs)   bands (ev):

     8.8631  10.0535  10.0535  10.0535  11.5143  11.5143  11.5143  12.0282
    12.0890  12.0890  12.0890  12.0944  12.0944  12.3776  12.3776  12.3776
    13.4536  13.4536  13.8185  13.8185  13.8185  16.1893  16.1893  16.1893
    21.4081  21.4081  21.4081  25.1479  32.4972  32.4972  32.4972  35.2413
    35.2413  35.2413  37.2710  37.2711  37.2711  37.7896  39.9484  39.9484
    44.4418  44.4418  47.7702  48.0624  48.0624  48.0624  48.1364  48.1364
    48.1364  52.4450  52.4450  52.4450

          k = 0.0952 0.0952-0.1427 (  2944 PWs)   bands (ev):

     9.4891   9.4892   9.9850   9.9850  11.6340  11.6340  11.9205  11.9205
    12.1372  12.1372  12.2575  12.2575  12.2722  12.2723  12.3722  12.3722
    13.7390  13.7390  13.7468  13.7468  14.1579  14.1579  16.4736  16.4736
    20.3791  20.3792  22.9658  22.9658  33.4130  33.4130  34.6245  34.6245
    36.3280  36.3281  37.2434  37.2435  38.9917  38.9919  39.4371  39.4371
    44.6487  44.6487  44.8998  44.9000  46.0135  46.0136  48.5475  48.5475
    49.6025  49.6026  52.9746  52.9746

          k = 0.0952-0.1427-0.1427 (  2936 PWs)   bands (ev):

     9.6647   9.6647   9.6648   9.6648  11.8800  11.8800  11.8800  11.8800
    12.0697  12.0697  12.0697  12.0697  12.8191  12.8192  12.8192  12.8192
    13.6669  13.6670  13.6670  13.6670  14.9661  14.9661  14.9661  14.9661
    21.0925  21.0926  21.0926  21.0926  35.1525  35.1526  35.1526  35.1527
    38.2168  38.2168  38.2169  38.2169  38.9371  38.9371  38.9372  38.9372
    44.0906  44.0906  44.0907  44.0907  45.1539  45.1539  45.1539  45.1540
    50.4167  50.4167  50.4167  50.4168

          k =-0.1427-0.1427-0.1427 (  2872 PWs)   bands (ev):

     9.5488   9.5488   9.5488   9.5488  11.9582  11.9582  11.9582  11.9582
    11.9582  11.9582  11.9582  11.9582  13.7944  13.7944  13.7944  13.7944
    13.7944  13.7944  13.7944  13.7944  14.2912  14.2913  14.2913  14.2913
    20.2114  20.2114  20.2114  20.2115  36.9484  36.9485  36.9485  36.9486
    39.5736  39.5736  39.5736  39.5736  39.5737  39.5737  39.5737  39.5737
    42.7994  42.7995  42.7995  42.7995  42.7995  42.7995  42.7996  42.7996
    48.7706  48.7706  48.7706  48.7707

          k =-0.0476 0.0000 0.0476 (  2911 PWs)   bands (ev):

     6.1534   9.9337   9.9337  10.0606  10.3942  10.3942  10.4080  11.7564
    12.0924  12.1094  12.9315  12.9812  12.9898  12.9898  13.1656  13.5593
    13.6839  13.6839  13.7541  13.7541  13.8155  16.4011  16.4011  18.7982
    23.8976  25.0964  26.2439  26.2439  28.2913  28.2913  28.9340  28.9340
    30.6532  36.0316  36.1158  37.0236  37.0236  37.3294  40.1123  40.1123
    41.2681  42.6000  43.5278  45.2283  46.3586  49.7830  50.4516  53.0885
    53.6654  55.3461  55.3461  56.2998

          k =-0.0476-0.0000 0.0952 (  2916 PWs)   bands (ev):

     7.1749   9.7421  10.4157  10.4642  10.6759  10.7291  10.7483  11.4754
    11.9832  12.1229  12.2382  12.3556  12.3811  12.8142  13.2356  13.3141
    13.3210  13.3446  13.4970  13.7508  13.7568  14.4344  18.0151  20.5808
    22.0786  24.6058  25.5015  26.5307  27.3982  29.6044  29.8998  29.9524
    31.0123  33.7207  34.4639  37.6759  38.6285  40.3867  40.5655  40.7442
    41.1150  44.0361  45.0279  47.0543  47.7819  48.5838  49.8895  51.3315
    52.9363  53.2576  54.8128  56.1979

          k =-0.0952 0.0000 0.0952 (  2918 PWs)   bands (ev):

     8.1014  10.3296  10.3296  10.6955  10.9440  10.9440  10.9578  11.4055
    11.6526  11.6527  11.8073  12.1256  12.4865  12.7281  13.0196  13.1748
    13.1748  13.3148  13.3148  13.4847  13.7001  15.6802  15.6802  19.2981
    22.1072  25.1565  26.7742  26.7742  27.8935  27.8935  30.9819  31.6378
    31.6378  31.7336  33.6011  36.8349  41.5244  41.8770  41.8770  43.0716
    43.4094  43.7682  43.7683  47.1852  47.3256  48.4712  48.4712  51.6699
    52.1736  52.1877  53.1957  55.3471

          k = 0.0476-0.0476 0.0476 (  2905 PWs)   bands (ev):

     6.4991  10.0946  10.0946  10.0946  10.5087  10.5087  10.5087  11.7215
    12.1291  12.1291  12.6859  12.6859  12.6859  13.0789  13.0789  13.3259
    13.3259  13.3259  13.8697  13.8697  13.8697  17.0282  17.0282  17.0282
    25.3231  25.3232  25.3232  26.5889  26.5889  26.5889  31.1684  31.1684
    31.1685  33.4793  36.1629  36.1629  36.1630  39.2501  41.1342  41.1344
    42.8072  42.8073  42.8074  46.5893  47.6444  47.6445  51.6378  51.6379
    55.1045  55.2244  55.2244  55.2245

          k = 0.0476-0.0476 0.0952 (  2919 PWs)   bands (ev):

     7.4805   9.9008  10.4776  10.4776  10.7943  10.8224  10.8224  11.5121
    11.9736  11.9736  12.1689  12.2083  12.2685  12.9238  12.9945  13.0801
    13.0802  13.3183  13.7724  13.7724  13.8047  14.7962  18.3703  18.3703
    22.7042  22.7043  26.6167  27.2403  27.2403  30.3553  30.3554  30.7422
    30.9446  32.6479  36.6420  37.7736  37.8470  38.7871  38.7872  42.3572
    43.4994  44.4662  47.0167  47.0168  47.8784  49.0796  50.1964  50.1965
    50.6917  53.0132  53.0737  55.6519

          k =-0.0952 0.0476 0.0476 (  2919 PWs)   bands (ev):

     7.4805   9.9008  10.4776  10.4776  10.7943  10.8224  10.8224  11.5121
    11.9736  11.9736  12.1689  12.2083  12.2685  12.9238  12.9945  13.0801
    13.0801  13.3183  13.7724  13.7724  13.8047  14.7962  18.3703  18.3703
    22.7043  22.7043  26.6166  27.2403  27.2403  30.3553  30.3553  30.7422
    30.9446  32.6480  36.6420  37.7737  37.8471  38.7871  38.7872  42.3571
    43.4994  44.4660  47.0168  47.0168  47.8783  49.0796  50.1964  50.1965
    50.6917  53.0133  53.0738  55.6520

          k = 0.0476-0.0476-0.1427 (  2922 PWs)   bands (ev):

     8.8528   8.8528  10.8648  10.8648  10.9228  10.9228  11.1659  11.1660
    11.5797  11.5798  12.0717  12.0718  12.5416  12.5417  12.9125  12.9125
    13.4878  13.4879  13.5943  13.5944  13.7164  13.7164  19.5190  19.5191
    21.1431  21.1431  28.2046  28.2047  28.4434  28.4434  28.9241  28.9241
    34.9352  34.9353  35.4125  35.4127  38.0913  38.0914  42.2010  42.2011
    44.7523  44.7524  45.3657  45.3658  49.4768  49.4769  50.8955  50.8955
    52.1807  52.1808  53.6771  53.6772

          k = 0.0952-0.0476 0.0952 (  2911 PWs)   bands (ev):

     8.3193  10.2185  10.2185  10.5046  11.1098  11.1558  11.1558  11.5572
    11.7697  11.7697  11.9029  12.1276  12.2535  12.7317  12.7317  12.7481
    13.0509  13.6058  13.6750  13.6903  13.6903  15.8109  15.8110  18.6222
    20.8008  23.9009  23.9009  27.9410  28.0501  31.1314  31.1315  32.1174
    32.1174  34.0141  35.2384  36.9059  39.3213  39.3213  40.1515  43.0335
    43.7317  44.7810  46.4593  46.4594  49.1881  49.1881  50.4140  50.5915
    50.9206  51.6135  52.2971  52.9224

          k =-0.0952 0.0476 0.0952 (  2911 PWs)   bands (ev):

     8.3193  10.2185  10.2185  10.5046  11.1098  11.1558  11.1558  11.5572
    11.7697  11.7697  11.9029  12.1276  12.2534  12.7317  12.7317  12.7481
    13.0509  13.6058  13.6750  13.6903  13.6903  15.8109  15.8109  18.6222
    20.8008  23.9009  23.9009  27.9410  28.0501  31.1314  31.1315  32.1174
    32.1175  34.0140  35.2385  36.9058  39.3214  39.3214  40.1515  43.0334
    43.7317  44.7810  46.4594  46.4594  49.1881  49.1881  50.4140  50.5914
    50.9207  51.6134  52.2972  52.9224

          k = 0.0952-0.0476-0.1427 (  2908 PWs)   bands (ev):

     9.4025   9.4025  10.4397  10.4397  11.3233  11.3233  11.4714  11.4714
    11.7766  11.7766  11.8973  11.8973  12.4027  12.4028  12.6135  12.6135
    13.3480  13.3481  13.5756  13.5756  14.2678  14.2678  17.1885  17.1885
    21.8165  21.8166  25.6615  25.6615  29.4328  29.4328  33.0366  33.0366
    33.2501  33.2502  36.9017  36.9018  40.1344  40.1345  40.4426  40.4427
    45.1891  45.1891  45.6809  45.6810  47.7004  47.7005  50.5685  50.5686
    51.7869  51.7869  53.8989  53.8990

          k = 0.0952-0.0952 0.0952 (  2941 PWs)   bands (ev):

     8.8631  10.0535  10.0535  10.0535  11.5143  11.5143  11.5143  12.0282
    12.0890  12.0890  12.0890  12.0944  12.0944  12.3776  12.3776  12.3776
    13.4536  13.4536  13.8185  13.8185  13.8185  16.1893  16.1893  16.1893
    21.4081  21.4081  21.4081  25.1480  32.4972  32.4973  32.4973  35.2412
    35.2412  35.2413  37.2710  37.2710  37.2711  37.7895  39.9483  39.9484
    44.4417  44.4417  47.7702  48.0624  48.0625  48.0625  48.1363  48.1364
    48.1365  52.4451  52.4452  52.4452

          k = 0.0952-0.0952-0.1427 (  2944 PWs)   bands (ev):

     9.4892   9.4892   9.9850   9.9850  11.6340  11.6341  11.9205  11.9205
    12.1371  12.1372  12.2575  12.2575  12.2722  12.2723  12.3722  12.3722
    13.7390  13.7390  13.7468  13.7468  14.1579  14.1579  16.4736  16.4736
    20.3791  20.3791  22.9658  22.9659  33.4130  33.4131  34.6245  34.6246
    36.3280  36.3281  37.2433  37.2434  38.9917  38.9918  39.4370  39.4372
    44.6486  44.6487  44.8999  44.8999  46.0135  46.0135  48.5476  48.5476
    49.6025  49.6026  52.9747  52.9747

 ------ SPIN DOWN ----------


          k = 0.0000 0.0000 0.0000 (  2945 PWs)   bands (ev):

     5.3750  10.1754  10.1754  10.1754  10.8847  10.8847  10.8847  12.8256
    12.8257  12.8257  13.9040  13.9040  14.6557  14.6557  14.6557  14.9410
    14.9410  14.9410  14.9410  14.9410  14.9410  16.9912  16.9912  16.9912
    24.1130  24.1131  24.1131  29.5516  29.5516  29.5517  29.5517  29.5518
    29.5518  34.8066  34.8066  34.8066  38.1307  38.1309  38.1309  38.2877
    42.4394  42.4395  42.4395  46.1379  46.1380  46.1380  48.0114  55.3525
    55.3525  55.3525  58.1274  59.5465

          k =-0.0000-0.0000 0.0476 (  2910 PWs)   bands (ev):

     5.7411  10.1510  10.3696  10.3696  11.0041  11.0085  11.0085  12.6837
    12.9321  12.9321  13.7765  13.9528  14.0977  14.0977  14.4887  14.4887
    14.6037  14.7484  14.7484  14.9413  14.9413  15.5393  18.1353  18.1353
    24.1938  24.1939  26.2585  27.8822  27.8822  28.4691  28.4692  30.1281
    30.1283  34.9102  36.8961  36.8961  37.7186  38.2603  40.0651  40.0653
    40.2885  40.2886  40.8438  47.5062  48.0968  48.0969  49.2169  51.5448
    56.4702  56.4702  56.5963  56.5963

          k =-0.0000-0.0000 0.0952 (  2910 PWs)   bands (ev):

     6.7947   9.7142  10.8310  10.8310  11.3371  11.3863  11.3863  12.3054
    12.9513  12.9513  13.2418  13.2418  13.4558  13.6756  14.0768  14.0768
    14.0873  14.2734  14.2734  14.4631  14.9419  14.9419  20.1759  20.1759
    24.4668  24.4669  25.1810  25.1810  26.7717  26.7718  30.4519  31.7416
    31.7417  35.2358  36.6896  37.0974  37.0976  38.2560  38.8171  40.8647
    40.8647  44.2079  44.2080  44.3586  50.8772  50.9493  50.9493  50.9734
    50.9734  54.9274  56.1758  56.1758

          k = 0.0000 0.0000-0.1427 (  2906 PWs)   bands (ev):

     8.3378   8.3378  11.1227  11.1227  11.8100  11.8100  12.0317  12.0317
    12.0318  12.0318  13.1890  13.1891  13.7179  13.7180  13.7180  13.7180
    13.8072  13.8072  14.2736  14.2737  14.9422  14.9422  22.5577  22.5577
    22.5578  22.5578  24.7907  24.7907  25.8854  25.8854  34.1473  34.1474
    34.1474  34.1475  34.8860  34.8862  35.8209  35.8210  40.4565  40.4568
    45.6159  45.6159  45.6162  45.6162  47.6883  47.6884  52.4749  52.4749
    54.0618  54.0619  54.0621  54.0622

          k =-0.0000 0.0476 0.0476 (  2911 PWs)   bands (ev):

     6.0997  10.3619  10.3619  10.5516  11.1079  11.1184  11.1184  12.6100
    12.9825  12.9869  13.6967  13.7380  13.7380  13.7499  13.9529  14.3502
    14.4763  14.4763  14.7472  14.7472  14.8178  16.7156  16.7156  18.9638
    24.1563  25.2260  26.4326  26.4326  28.3742  28.3743  28.9750  28.9750
    30.6643  36.1075  36.1358  37.0943  37.0943  37.3469  40.2301  40.2302
    41.1873  42.6872  43.4970  45.1719  46.4194  49.9417  50.3769  53.2611
    53.6309  55.3080  55.3080  56.2401

          k =-0.0000 0.0476 0.0952 (  2916 PWs)   bands (ev):

     7.1293   9.9647  10.8781  10.9964  11.3913  11.4240  11.4654  12.2976
    12.6748  12.8439  13.0375  13.0778  13.2580  13.5788  14.0008  14.0863
    14.1562  14.2425  14.2718  14.7443  14.7535  15.1437  18.3538  20.7848
    22.2771  24.8338  25.6532  26.6655  27.5234  29.7129  29.9616  30.0230
    31.1097  33.7988  34.5064  37.7179  38.6666  40.3384  40.5131  40.8640
    41.1147  44.1182  45.2324  47.1206  47.7044  48.5663  49.8734  51.2568
    52.8918  53.1669  55.0325  56.4504

          k = 0.0000 0.0476-0.1427 (  2906 PWs)   bands (ev):

     8.6313   8.6314  11.2663  11.2663  11.8544  11.8545  11.8669  11.8670
    12.0489  12.0490  12.9086  12.9087  13.7214  13.7215  13.7960  13.7960
    13.7963  13.7964  14.4992  14.4992  14.7427  14.7428  20.1650  20.1651
    23.0684  23.0685  25.5809  25.5810  28.4235  28.4236  31.6080  31.6081
    32.0755  32.0755  35.8508  35.8511  38.8263  38.8264  42.3614  42.3617
    43.1041  43.1043  45.8884  45.8887  50.1432  50.1435  50.2836  50.2837
    52.5255  52.5257  53.3667  53.3668

          k =-0.0000 0.0952 0.0952 (  2918 PWs)   bands (ev):

     8.0792  10.6029  10.6029  11.3599  11.4421  11.6799  11.6799  12.1997
    12.3461  12.3461  12.5197  12.9170  13.4020  13.4752  13.7734  13.9124
    13.9124  14.2759  14.2759  14.4658  14.5426  16.2856  16.2856  19.6057
    22.3264  25.3549  26.9411  26.9412  27.9946  27.9947  31.1129  31.7266
    31.7266  31.8011  33.6537  36.8707  41.4609  41.8589  41.8589  43.1063
    43.2922  43.8105  43.8106  47.3066  47.3550  48.5160  48.5160  51.7292
    52.0647  52.1284  53.3991  55.2498

          k = 0.0000 0.0952-0.1427 (  2914 PWs)   bands (ev):

     9.4296   9.4297  11.2201  11.2201  11.8459  11.8460  11.9613  11.9614
    12.0762  12.0763  12.5988  12.5988  13.5681  13.5681  13.6419  13.6419
    13.7682  13.7682  14.3185  14.3185  15.1677  15.1678  17.6756  17.6757
    24.4362  24.4363  26.3761  26.3762  28.8119  28.8120  29.6253  29.6254
    33.0181  33.0182  36.8154  36.8157  40.3604  40.3605  42.9924  42.9925
    43.2317  43.2318  46.6751  46.6753  48.0025  48.0027  50.3712  50.3714
    51.8782  51.8784  53.4741  53.4742

          k = 0.0000-0.1427-0.1427 (  2968 PWs)   bands (ev):

    10.4407  10.4408  10.4408  10.4408  12.0555  12.0556  12.0556  12.0557
    12.2960  12.2960  12.2960  12.2960  13.4254  13.4254  13.4254  13.4254
    13.9507  13.9508  13.9508  13.9509  16.1137  16.1137  16.1137  16.1137
    26.4002  26.4003  26.4003  26.4004  27.6995  27.6996  27.6996  27.6997
    37.9639  37.9639  37.9640  37.9640  38.4630  38.4631  38.4632  38.4633
    47.0557  47.0557  47.0557  47.0558  49.1754  49.1755  49.1756  49.1757
    51.9153  51.9153  51.9154  51.9154

          k = 0.0476 0.0476 0.0476 (  2905 PWs)   bands (ev):

     6.4483  10.5498  10.5498  10.5498  11.2096  11.2096  11.2096  12.5551
    13.0075  13.0075  13.3968  13.3968  13.3968  13.8654  13.8654  14.1573
    14.1573  14.1573  14.8183  14.8183  14.8183  17.3692  17.3692  17.3692
    25.4547  25.4547  25.4547  26.7622  26.7622  26.7622  31.1904  31.1904
    31.1904  33.5458  36.2580  36.2580  36.2580  39.0948  41.1870  41.1870
    42.8912  42.8914  42.8914  46.5020  47.6017  47.6017  51.8046  51.8046
    55.1776  55.1776  55.1776  55.4418

          k = 0.0476 0.0476 0.0952 (  2919 PWs)   bands (ev):

     7.4454  10.1635  11.0093  11.0093  11.4510  11.4510  11.5069  12.3079
    12.6762  12.6762  12.8415  13.0390  13.1291  13.7703  13.8046  13.8672
    13.8673  14.1409  14.7062  14.7359  14.7360  15.4266  18.6973  18.6973
    22.9145  22.9145  26.7609  27.3893  27.3893  30.4302  30.4303  30.8563
    31.0321  32.6944  36.7166  37.6797  37.9243  38.8175  38.8176  42.3648
    43.5796  44.4836  47.0608  47.0608  47.9205  49.0254  50.1852  50.1853
    50.6987  52.9426  53.0339  55.7669

          k = 0.0476 0.0476-0.1427 (  2922 PWs)   bands (ev):

     8.8873   8.8874  11.4370  11.4370  11.5043  11.5043  11.9171  11.9171
    12.2939  12.2939  12.8216  12.8217  13.3925  13.3925  13.6764  13.6764
    14.2927  14.2928  14.4558  14.4558  14.6883  14.6883  19.7764  19.7764
    21.4471  21.4471  28.3196  28.3196  28.5853  28.5854  29.0387  29.0388
    35.0046  35.0047  35.3858  35.3860  38.1686  38.1688  42.1823  42.1824
    44.8390  44.8392  45.3548  45.3548  49.3973  49.3975  50.8498  50.8499
    52.2142  52.2142  53.8566  53.8566

          k = 0.0476 0.0952 0.0952 (  2911 PWs)   bands (ev):

     8.3312  10.6114  10.6114  11.1231  11.6170  11.7579  11.7579  12.2841
    12.4900  12.4900  12.6150  12.9285  13.0779  13.5314  13.5314  13.5335
    13.8945  14.4550  14.6037  14.6037  14.6205  16.3644  16.3644  18.8969
    21.1447  24.1179  24.1180  28.1028  28.1778  31.1953  31.1953  32.2100
    32.2100  34.0687  35.2641  36.9311  39.3362  39.3362  40.0753  43.1471
    43.7236  44.7269  46.4533  46.4533  49.2427  49.2428  50.3457  50.5751
    50.8971  51.6860  52.3626  52.8493

          k = 0.0476 0.0952-0.1427 (  2908 PWs)   bands (ev):

     9.5519   9.5520  10.9748  10.9748  11.8777  11.8777  12.1176  12.1177
    12.4705  12.4705  12.6578  12.6579  13.2071  13.2071  13.3882  13.3882
    14.2135  14.2135  14.5117  14.5117  15.0610  15.0610  17.5996  17.5996
    22.1168  22.1168  25.8615  25.8615  29.5333  29.5334  33.0934  33.0935
    33.3191  33.3192  36.9147  36.9149  40.1186  40.1187  40.4653  40.4654
    45.1763  45.1764  45.6727  45.6728  47.6812  47.6814  50.6067  50.6069
    51.7262  51.7263  53.9762  53.9797

          k = 0.0476-0.1427-0.1427 (  2936 PWs)   bands (ev):

    10.3288  10.3288  10.3288  10.3288  12.2848  12.2849  12.2849  12.2849
    12.5047  12.5047  12.5047  12.5047  13.1516  13.1516  13.1516  13.1516
    14.2428  14.2428  14.2428  14.2429  15.9884  15.9884  15.9884  15.9884
    23.7079  23.7080  23.7080  23.7081  31.0530  31.0531  31.0531  31.0532
    38.2425  38.2425  38.2425  38.2426  38.2916  38.2917  38.2917  38.2918
    46.5840  46.5840  46.5841  46.5841  46.7797  46.7798  46.7798  46.7799
    54.8701  54.8701  54.8702  55.0826

          k = 0.0952 0.0952 0.0952 (  2941 PWs)   bands (ev):

     8.9962  10.5634  10.5634  10.5634  12.0734  12.0734  12.0734  12.5511
    12.7688  12.7688  12.7688  12.8956  12.8956  13.1689  13.1689  13.1689
    14.3348  14.3348  14.7463  14.7463  14.7463  16.6159  16.6159  16.6159
    21.7467  21.7467  21.7468  25.3733  32.5436  32.5437  32.5437  35.3027
    35.3028  35.3028  37.2837  37.2838  37.2838  37.6187  40.0345  40.0345
    44.4511  44.4511  47.7854  48.0109  48.0109  48.0109  48.1378  48.1379
    48.1379  52.4762  52.4763  52.4763

          k = 0.0952 0.0952-0.1427 (  2944 PWs)   bands (ev):

     9.8215   9.8215  10.5232  10.5232  12.2658  12.2658  12.5793  12.5794
    12.8266  12.8266  12.9294  12.9295  12.9722  12.9722  13.0364  13.0364
    14.6480  14.6480  14.6755  14.6755  14.8738  14.8738  16.8052  16.8052
    20.8162  20.8163  23.2552  23.2553  33.4208  33.4209  34.7105  34.7106
    36.2193  36.2195  37.3158  37.3159  39.0720  39.0721  39.4117  39.4117
    44.6753  44.6753  44.8771  44.8773  46.0219  46.0220  48.5074  48.5074
    49.6560  49.6561  53.0836  53.0837

          k = 0.0952-0.1427-0.1427 (  2936 PWs)   bands (ev):

    10.1355  10.1355  10.1356  10.1356  12.6131  12.6131  12.6131  12.6131
    12.8457  12.8457  12.8457  12.8457  13.2596  13.2596  13.2597  13.2597
    14.5853  14.5853  14.5853  14.5853  15.4977  15.4977  15.4977  15.4977
    21.4853  21.4854  21.4854  21.4854  35.1266  35.1268  35.1268  35.1269
    38.1858  38.1859  38.1859  38.1860  39.0063  39.0063  39.0064  39.0064
    44.1227  44.1227  44.1228  44.1229  45.1467  45.1467  45.1467  45.1468
    50.5071  50.5072  50.5072  50.5072

          k =-0.1427-0.1427-0.1427 (  2872 PWs)   bands (ev):

    10.0503  10.0503  10.0503  10.0503  12.7313  12.7313  12.7313  12.7313
    12.7313  12.7313  12.7313  12.7313  14.1919  14.1920  14.1920  14.1920
    14.7180  14.7180  14.7180  14.7180  14.7180  14.7180  14.7180  14.7180
    20.6937  20.6938  20.6938  20.6938  36.7643  36.7645  36.7645  36.7646
    39.6436  39.6436  39.6437  39.6437  39.6437  39.6437  39.6438  39.6438
    42.8299  42.8299  42.8299  42.8300  42.8300  42.8300  42.8301  42.8301
    48.8847  48.8847  48.8847  48.8847

          k =-0.0476 0.0000 0.0476 (  2911 PWs)   bands (ev):

     6.0997  10.3619  10.3619  10.5516  11.1079  11.1184  11.1184  12.6100
    12.9825  12.9869  13.6967  13.7380  13.7380  13.7499  13.9529  14.3502
    14.4763  14.4763  14.7472  14.7472  14.8178  16.7156  16.7156  18.9638
    24.1563  25.2261  26.4326  26.4326  28.3742  28.3743  28.9750  28.9750
    30.6642  36.1075  36.1357  37.0943  37.0943  37.3470  40.2301  40.2302
    41.1873  42.6874  43.4969  45.1718  46.4193  49.9416  50.3770  53.2611
    53.6309  55.3081  55.3081  56.2400

          k =-0.0476-0.0000 0.0952 (  2916 PWs)   bands (ev):

     7.1293   9.9647  10.8781  10.9964  11.3913  11.4240  11.4654  12.2976
    12.6748  12.8439  13.0375  13.0778  13.2580  13.5788  14.0007  14.0863
    14.1562  14.2425  14.2718  14.7443  14.7535  15.1437  18.3538  20.7848
    22.2771  24.8338  25.6532  26.6655  27.5234  29.7129  29.9615  30.0229
    31.1097  33.7988  34.5064  37.7180  38.6665  40.3383  40.5131  40.8640
    41.1147  44.1183  45.2323  47.1207  47.7043  48.5662  49.8735  51.2568
    52.8919  53.1670  55.0325  56.4504

          k =-0.0952 0.0000 0.0952 (  2918 PWs)   bands (ev):

     8.0792  10.6029  10.6029  11.3599  11.4422  11.6799  11.6799  12.1997
    12.3461  12.3461  12.5197  12.9170  13.4020  13.4752  13.7734  13.9124
    13.9124  14.2759  14.2759  14.4658  14.5426  16.2856  16.2856  19.6058
    22.3264  25.3549  26.9411  26.9411  27.9946  27.9947  31.1129  31.7266
    31.7266  31.8011  33.6536  36.8706  41.4608  41.8589  41.8589  43.1063
    43.2921  43.8106  43.8107  47.3065  47.3549  48.5160  48.5161  51.7293
    52.0646  52.1284  53.3990  55.2499

          k = 0.0476-0.0476 0.0476 (  2905 PWs)   bands (ev):

     6.4483  10.5498  10.5498  10.5498  11.2096  11.2096  11.2096  12.5551
    13.0075  13.0075  13.3968  13.3968  13.3968  13.8654  13.8654  14.1573
    14.1573  14.1573  14.8183  14.8183  14.8183  17.3692  17.3692  17.3692
    25.4547  25.4548  25.4548  26.7622  26.7622  26.7622  31.1903  31.1903
    31.1904  33.5459  36.2579  36.2579  36.2580  39.0948  41.1869  41.1870
    42.8913  42.8914  42.8915  46.5019  47.6016  47.6017  51.8045  51.8046
    55.1776  55.1776  55.1777  55.4418

          k = 0.0476-0.0476 0.0952 (  2919 PWs)   bands (ev):

     7.4454  10.1635  11.0093  11.0093  11.4510  11.4510  11.5069  12.3079
    12.6762  12.6762  12.8415  13.0390  13.1291  13.7703  13.8046  13.8672
    13.8673  14.1409  14.7062  14.7359  14.7359  15.4266  18.6972  18.6973
    22.9145  22.9146  26.7609  27.3893  27.3893  30.4302  30.4303  30.8564
    31.0321  32.6943  36.7165  37.6796  37.9242  38.8174  38.8176  42.3648
    43.5798  44.4836  47.0609  47.0610  47.9205  49.0254  50.1852  50.1853
    50.6986  52.9427  53.0339  55.7669

          k =-0.0952 0.0476 0.0476 (  2919 PWs)   bands (ev):

     7.4454  10.1635  11.0093  11.0093  11.4510  11.4510  11.5069  12.3079
    12.6762  12.6762  12.8415  13.0390  13.1291  13.7703  13.8046  13.8672
    13.8673  14.1409  14.7062  14.7359  14.7359  15.4266  18.6972  18.6973
    22.9145  22.9146  26.7608  27.3893  27.3893  30.4301  30.4302  30.8564
    31.0321  32.6944  36.7166  37.6796  37.9243  38.8175  38.8175  42.3647
    43.5797  44.4834  47.0609  47.0610  47.9204  49.0254  50.1853  50.1853
    50.6986  52.9427  53.0340  55.7669

          k = 0.0476-0.0476-0.1427 (  2922 PWs)   bands (ev):

     8.8873   8.8874  11.4370  11.4370  11.5043  11.5043  11.9171  11.9171
    12.2939  12.2939  12.8216  12.8217  13.3925  13.3925  13.6764  13.6764
    14.2927  14.2928  14.4558  14.4558  14.6883  14.6883  19.7764  19.7764
    21.4470  21.4471  28.3196  28.3196  28.5854  28.5854  29.0388  29.0388
    35.0045  35.0046  35.3858  35.3860  38.1686  38.1687  42.1823  42.1824
    44.8392  44.8393  45.3548  45.3549  49.3974  49.3975  50.8498  50.8499
    52.2141  52.2143  53.8566  53.8567

          k = 0.0952-0.0476 0.0952 (  2911 PWs)   bands (ev):

     8.3312  10.6114  10.6114  11.1231  11.6170  11.7579  11.7579  12.2841
    12.4900  12.4900  12.6149  12.9285  13.0779  13.5314  13.5314  13.5335
    13.8945  14.4550  14.6037  14.6037  14.6205  16.3644  16.3644  18.8969
    21.1447  24.1180  24.1180  28.1030  28.1778  31.1952  31.1953  32.2100
    32.2100  34.0687  35.2640  36.9311  39.3361  39.3361  40.0752  43.1471
    43.7235  44.7269  46.4534  46.4534  49.2428  49.2429  50.3457  50.5752
    50.8970  51.6861  52.3627  52.8494

          k =-0.0952 0.0476 0.0952 (  2911 PWs)   bands (ev):

     8.3312  10.6114  10.6114  11.1232  11.6170  11.7579  11.7579  12.2841
    12.4900  12.4900  12.6149  12.9285  13.0779  13.5314  13.5314  13.5335
    13.8945  14.4550  14.6037  14.6037  14.6205  16.3644  16.3644  18.8970
    21.1447  24.1179  24.1180  28.1029  28.1778  31.1952  31.1953  32.2100
    32.2100  34.0686  35.2641  36.9310  39.3362  39.3362  40.0752  43.1470
    43.7235  44.7268  46.4534  46.4535  49.2428  49.2429  50.3457  50.5751
    50.8971  51.6860  52.3628  52.8494

          k = 0.0952-0.0476-0.1427 (  2908 PWs)   bands (ev):

     9.5519   9.5520  10.9748  10.9748  11.8777  11.8777  12.1176  12.1177
    12.4705  12.4705  12.6578  12.6579  13.2071  13.2071  13.3882  13.3882
    14.2135  14.2135  14.5117  14.5117  15.0610  15.0610  17.5996  17.5996
    22.1167  22.1168  25.8615  25.8616  29.5333  29.5334  33.0933  33.0934
    33.3191  33.3192  36.9147  36.9149  40.1186  40.1187  40.4652  40.4653
    45.1763  45.1764  45.6727  45.6728  47.6813  47.6814  50.6068  50.6069
    51.7264  51.7264  53.9761  53.9796

          k = 0.0952-0.0952 0.0952 (  2941 PWs)   bands (ev):

     8.9963  10.5634  10.5634  10.5634  12.0734  12.0734  12.0734  12.5511
    12.7688  12.7688  12.7688  12.8956  12.8956  13.1689  13.1689  13.1689
    14.3348  14.3348  14.7463  14.7463  14.7463  16.6159  16.6159  16.6159
    21.7467  21.7467  21.7468  25.3734  32.5437  32.5437  32.5438  35.3026
    35.3027  35.3028  37.2837  37.2838  37.2838  37.6186  40.0344  40.0345
    44.4510  44.4511  47.7854  48.0109  48.0110  48.0110  48.1378  48.1378
    48.1379  52.4764  52.4764  52.4765

          k = 0.0952-0.0952-0.1427 (  2944 PWs)   bands (ev):

     9.8215   9.8215  10.5232  10.5232  12.2658  12.2658  12.5793  12.5794
    12.8266  12.8267  12.9294  12.9294  12.9722  12.9722  13.0364  13.0364
    14.6480  14.6480  14.6755  14.6755  14.8738  14.8738  16.8051  16.8052
    20.8162  20.8163  23.2553  23.2553  33.4209  33.4209  34.7106  34.7106
    36.2193  36.2195  37.3158  37.3158  39.0720  39.0721  39.4116  39.4118
    44.6752  44.6753  44.8771  44.8772  46.0219  46.0219  48.5074  48.5075
    49.6560  49.6561  53.0837  53.0837

     the Fermi energy is    14.4911 ev

!    total energy              =    -343.63027621 Ry
     Harris-Foulkes estimate   =    -343.63027621 Ry
     estimated scf accuracy    <          1.8E-11 Ry

     The total energy is the sum of the following terms:

     one-electron contribution =      -6.39245640 Ry
     hartree contribution      =      60.35174698 Ry
     xc contribution           =    -120.51401590 Ry
     ewald contribution        =    -277.02713951 Ry
     Dispersion Correction     =      -0.04783881 Ry
     smearing contrib. (-TS)   =      -0.00057257 Ry

     total magnetization       =     2.84 Bohr mag/cell
     absolute magnetization    =     3.25 Bohr mag/cell

     convergence has been achieved in  11 iterations

     Forces acting on atoms (Ry/au):

     atom    1 type  1   force =     0.00000087    0.00000087   -0.00000115
     atom    2 type  1   force =    -0.00000059   -0.00000059   -0.00000059
     atom    3 type  1   force =     0.00000087   -0.00000115    0.00000087
     atom    4 type  1   force =    -0.00000115    0.00000087    0.00000087

     Total force =     0.000003     Total SCF correction =     0.000001
     SCF correction compared to forces is large: reduce conv_thr to get better values


     entering subroutine stress ...

          total   stress  (Ry/bohr**3)                   (kbar)     P=   -0.00
  -0.00000000  -0.00000002  -0.00000002         -0.00     -0.00     -0.00
  -0.00000002  -0.00000000  -0.00000002         -0.00     -0.00     -0.00
  -0.00000002  -0.00000002  -0.00000000         -0.00     -0.00     -0.00


     bfgs converged in   5 scf cycles and   4 bfgs steps
     (criteria: energy <  1.0E-04, force <  1.0E-03, cell <  5.0E-01)

     End of BFGS Geometry Optimization

     Final enthalpy =    -343.6302762065 Ry
Begin final coordinates
     new unit-cell volume =    290.12947 a.u.^3 (    42.99275 Ang^3 )

CELL_PARAMETERS (alat=  1.88972590)
   3.503201624   0.000003910   0.000003910
   0.000003910   3.503201624   0.000003910
   0.000003910   0.000003910   3.503201624

ATOMIC_POSITIONS (alat)
Ni1      1.755500521   1.755500521   0.003883872
Ni1      0.003877890   0.003877890   0.003877890
Ni1      1.755500521   0.003883872   1.755500521
Ni1      0.003883872   1.755500521   1.755500521
End final coordinates



     A final scf calculation at the relaxed structure.
     The G-vectors are recalculated for the final unit cell
     Results may differ from those at the preceding step.

     G-vector sticks info
     --------------------
     sticks:   dense  smooth     PW     G-vecs:    dense   smooth      PW
     Sum        1389     973    293                39127    22983    3791

     Generating pointlists ...

     Title: 
     Ni-ferro-mag                                                               


     bravais-lattice index     =            0
     lattice parameter (alat)  =       1.8897  a.u.
     unit-cell volume          =     290.1295 (a.u.)^3
     number of atoms/cell      =            4
     number of atomic types    =            1
     number of electrons       =        40.00
     number of Kohn-Sham states=           52
     kinetic-energy cutoff     =      70.0000  Ry
     charge density cutoff     =     400.0000  Ry
     convergence threshold     =      1.0E-10
     mixing beta               =       0.2000
     number of iterations used =            8  plain     mixing
     Exchange-correlation      =  SLA  PW   PBE  PBE ( 1  4  3  4 0 0)

     celldm(1)=   1.889726  celldm(2)=   0.000000  celldm(3)=   0.000000
     celldm(4)=   0.000000  celldm(5)=   0.000000  celldm(6)=   0.000000

     crystal axes: (cart. coord. in units of alat)
               a(1) = (   3.503202   0.000004   0.000004 )  
               a(2) = (   0.000004   3.503202   0.000004 )  
               a(3) = (   0.000004   0.000004   3.503202 )  

     reciprocal axes: (cart. coord. in units 2 pi/alat)
               b(1) = (  0.285453 -0.000000 -0.000000 )  
               b(2) = ( -0.000000  0.285453 -0.000000 )  
               b(3) = ( -0.000000 -0.000000  0.285453 )  


     PseudoPot. # 1 for Ni read from file:
     /home/eliot/pseudo/Ni.pbe-nd-rrkjus.UPF
     MD5 check sum: 8081f0a005c9a5470caab1a58e82ecb2
     Pseudo is Ultrasoft + core correction, Zval = 10.0
     Generated by new atomic code, or converted to UPF format
     Using radial grid of 1203 points,  6 beta functions with: 
                l(1) =   0
                l(2) =   0
                l(3) =   1
                l(4) =   1
                l(5) =   2
                l(6) =   2
     Q(r) pseudized with 0 coefficients 


     atomic species   valence    mass     pseudopotential
        Ni1           10.00    58.69340     Ni( 1.00)

     Starting magnetic structure 
     atomic species   magnetization
        Ni1          0.500

      6 Sym. Ops. (no inversion) found



   Cartesian axes

     site n.     atom                  positions (alat units)
         1           Ni1 tau(   1) = (   1.7555005   1.7555005   0.0038839  )
         2           Ni1 tau(   2) = (   0.0038779   0.0038779   0.0038779  )
         3           Ni1 tau(   3) = (   1.7555005   0.0038839   1.7555005  )
         4           Ni1 tau(   4) = (   0.0038839   1.7555005   1.7555005  )

     number of k points=    32  Methfessel-Paxton smearing, width (Ry)=  0.0500
                       cart. coord. in units 2pi/alat
        k(    1) = (   0.0000000   0.0000000   0.0000000), wk =   0.0046296
        k(    2) = (  -0.0000001  -0.0000001   0.0475755), wk =   0.0277778
        k(    3) = (  -0.0000001  -0.0000001   0.0951511), wk =   0.0277778
        k(    4) = (   0.0000002   0.0000002  -0.1427266), wk =   0.0138889
        k(    5) = (  -0.0000001   0.0475755   0.0475755), wk =   0.0277778
        k(    6) = (  -0.0000002   0.0475754   0.0951510), wk =   0.0555556
        k(    7) = (   0.0000001   0.0475757  -0.1427266), wk =   0.0555556
        k(    8) = (  -0.0000002   0.0951509   0.0951509), wk =   0.0277778
        k(    9) = (   0.0000001   0.0951512  -0.1427267), wk =   0.0555556
        k(   10) = (   0.0000003  -0.1427264  -0.1427264), wk =   0.0138889
        k(   11) = (   0.0475754   0.0475754   0.0475754), wk =   0.0092593
        k(   12) = (   0.0475754   0.0475754   0.0951509), wk =   0.0277778
        k(   13) = (   0.0475756   0.0475756  -0.1427267), wk =   0.0277778
        k(   14) = (   0.0475753   0.0951509   0.0951509), wk =   0.0277778
        k(   15) = (   0.0475756   0.0951512  -0.1427267), wk =   0.0555556
        k(   16) = (   0.0475758  -0.1427265  -0.1427265), wk =   0.0277778
        k(   17) = (   0.0951508   0.0951508   0.0951508), wk =   0.0092593
        k(   18) = (   0.0951511   0.0951511  -0.1427268), wk =   0.0277778
        k(   19) = (   0.0951514  -0.1427265  -0.1427265), wk =   0.0277778
        k(   20) = (  -0.1427263  -0.1427263  -0.1427263), wk =   0.0046296
        k(   21) = (  -0.0475756   0.0000000   0.0475756), wk =   0.0277778
        k(   22) = (  -0.0475756  -0.0000001   0.0951511), wk =   0.0555556
        k(   23) = (  -0.0951512   0.0000000   0.0951512), wk =   0.0277778
        k(   24) = (   0.0475755  -0.0475756   0.0475755), wk =   0.0277778
        k(   25) = (   0.0475755  -0.0475757   0.0951511), wk =   0.0555556
        k(   26) = (  -0.0951512   0.0475756   0.0475756), wk =   0.0277778
        k(   27) = (   0.0475757  -0.0475754  -0.1427266), wk =   0.0277778
        k(   28) = (   0.0951510  -0.0475757   0.0951510), wk =   0.0277778
        k(   29) = (  -0.0951512   0.0475755   0.0951511), wk =   0.0555556
        k(   30) = (   0.0951513  -0.0475755  -0.1427266), wk =   0.0555556
        k(   31) = (   0.0951511  -0.0951513   0.0951511), wk =   0.0277778
        k(   32) = (   0.0951513  -0.0951510  -0.1427266), wk =   0.0277778

     Dense  grid:    39127 G-vectors     FFT dimensions: (  45,  45,  45)

     Smooth grid:    22983 G-vectors     FFT dimensions: (  36,  36,  36)

     Largest allocated arrays     est. size (Mb)     dimensions
        Kohn-Sham Wavefunctions         2.30 Mb     (    2897,   52)
        NL pseudopotentials             3.18 Mb     (    2897,   72)
        Each V/rho on FFT grid          2.78 Mb     (   91125,   2)
        Each G-vector array             0.30 Mb     (   39127)
        G-vector shells                 0.02 Mb     (    2639)
     Largest temporary arrays     est. size (Mb)     dimensions
        Auxiliary wavefunctions         9.19 Mb     (    2897,  208)
        Each subspace H/S matrix        0.66 Mb     (     208,  208)
        Each <psi_i|beta_j> matrix      0.06 Mb     (      72,   52)
        Arrays for rho mixing          11.12 Mb     (   91125,    8)

     Check: negative/imaginary core charge=   -0.000005    0.000000

     Initial potential from superposition of free atoms

     starting charge   39.99816, renormalised to   40.00000
     Starting wfc are   24 randomized atomic wfcs +   28 random wfc

     Writing output data file Ni-ferromag.save

     total cpu time spent up to now is     2944.8 secs

     Self-consistent Calculation

     iteration #  1     ecut=    70.00 Ry     beta=0.20
     Davidson diagonalization with overlap
     c_bands:  1 eigenvalues not converged
     c_bands:  1 eigenvalues not converged
     c_bands:  2 eigenvalues not converged
     c_bands:  1 eigenvalues not converged
     c_bands:  1 eigenvalues not converged
     c_bands:  2 eigenvalues not converged
     c_bands:  2 eigenvalues not converged
     c_bands:  1 eigenvalues not converged
     ethr =  1.00E-06,  avg # of iterations = 13.6

     total cpu time spent up to now is     3135.4 secs

     total energy              =    -342.90492316 Ry
     Harris-Foulkes estimate   =    -343.17855987 Ry
     estimated scf accuracy    <       2.41854529 Ry

     total magnetization       =     6.87 Bohr mag/cell
     absolute magnetization    =     6.88 Bohr mag/cell

     iteration #  2     ecut=    70.00 Ry     beta=0.20
     Davidson diagonalization with overlap
     ethr =  6.05E-03,  avg # of iterations =  1.0

     total cpu time spent up to now is     3176.6 secs

     total energy              =    -343.20669454 Ry
     Harris-Foulkes estimate   =    -343.03986990 Ry
     estimated scf accuracy    <       0.78014056 Ry

     total magnetization       =     5.74 Bohr mag/cell
     absolute magnetization    =     5.83 Bohr mag/cell

     iteration #  3     ecut=    70.00 Ry     beta=0.20
     Davidson diagonalization with overlap
     ethr =  1.95E-03,  avg # of iterations =  1.3

     total cpu time spent up to now is     3218.2 secs

     total energy              =    -343.53954453 Ry
     Harris-Foulkes estimate   =    -343.28059090 Ry
     estimated scf accuracy    <       0.35892354 Ry

     total magnetization       =     4.50 Bohr mag/cell
     absolute magnetization    =     4.82 Bohr mag/cell

     iteration #  4     ecut=    70.00 Ry     beta=0.20
     Davidson diagonalization with overlap
     ethr =  8.97E-04,  avg # of iterations =  1.3

     total cpu time spent up to now is     3259.5 secs

     total energy              =    -343.62409870 Ry
     Harris-Foulkes estimate   =    -343.65329053 Ry
     estimated scf accuracy    <       0.11948319 Ry

     total magnetization       =     2.58 Bohr mag/cell
     absolute magnetization    =     3.20 Bohr mag/cell

     iteration #  5     ecut=    70.00 Ry     beta=0.20
     Davidson diagonalization with overlap
     ethr =  2.99E-04,  avg # of iterations =  1.0

     total cpu time spent up to now is     3300.4 secs

     total energy              =    -343.62398207 Ry
     Harris-Foulkes estimate   =    -343.63101192 Ry
     estimated scf accuracy    <       0.02374866 Ry

     total magnetization       =     2.62 Bohr mag/cell
     absolute magnetization    =     3.23 Bohr mag/cell

     iteration #  6     ecut=    70.00 Ry     beta=0.20
     Davidson diagonalization with overlap
     ethr =  5.94E-05,  avg # of iterations =  2.2

     total cpu time spent up to now is     3342.9 secs

     total energy              =    -343.62663610 Ry
     Harris-Foulkes estimate   =    -343.62745366 Ry
     estimated scf accuracy    <       0.00100791 Ry

     total magnetization       =     2.69 Bohr mag/cell
     absolute magnetization    =     3.28 Bohr mag/cell

     iteration #  7     ecut=    70.00 Ry     beta=0.20
     Davidson diagonalization with overlap
     ethr =  2.52E-06,  avg # of iterations =  4.2

     total cpu time spent up to now is     3390.3 secs

     total energy              =    -343.62985092 Ry
     Harris-Foulkes estimate   =    -343.62861029 Ry
     estimated scf accuracy    <       0.00185523 Ry

     total magnetization       =     3.01 Bohr mag/cell
     absolute magnetization    =     3.48 Bohr mag/cell

     iteration #  8     ecut=    70.00 Ry     beta=0.20
     Davidson diagonalization with overlap
     ethr =  2.52E-06,  avg # of iterations =  1.0

     total cpu time spent up to now is     3431.2 secs

     total energy              =    -343.63018442 Ry
     Harris-Foulkes estimate   =    -343.63015380 Ry
     estimated scf accuracy    <       0.00014231 Ry

     total magnetization       =     2.90 Bohr mag/cell
     absolute magnetization    =     3.35 Bohr mag/cell

     iteration #  9     ecut=    70.00 Ry     beta=0.20
     Davidson diagonalization with overlap
     ethr =  3.56E-07,  avg # of iterations =  1.0

     total cpu time spent up to now is     3472.1 secs

     total energy              =    -343.63020822 Ry
     Harris-Foulkes estimate   =    -343.63018624 Ry
     estimated scf accuracy    <       0.00009959 Ry

     total magnetization       =     2.89 Bohr mag/cell
     absolute magnetization    =     3.34 Bohr mag/cell

     iteration # 10     ecut=    70.00 Ry     beta=0.20
     Davidson diagonalization with overlap
     ethr =  2.49E-07,  avg # of iterations =  1.1

     total cpu time spent up to now is     3513.2 secs

     total energy              =    -343.63028538 Ry
     Harris-Foulkes estimate   =    -343.63028527 Ry
     estimated scf accuracy    <       0.00000176 Ry

     total magnetization       =     2.84 Bohr mag/cell
     absolute magnetization    =     3.26 Bohr mag/cell

     iteration # 11     ecut=    70.00 Ry     beta=0.20
     Davidson diagonalization with overlap
     ethr =  4.41E-09,  avg # of iterations =  1.4

     total cpu time spent up to now is     3554.7 secs

     total energy              =    -343.63028508 Ry
     Harris-Foulkes estimate   =    -343.63028558 Ry
     estimated scf accuracy    <       0.00000054 Ry

     total magnetization       =     2.84 Bohr mag/cell
     absolute magnetization    =     3.26 Bohr mag/cell

     iteration # 12     ecut=    70.00 Ry     beta=0.20
     Davidson diagonalization with overlap
     ethr =  1.35E-09,  avg # of iterations =  1.0

     total cpu time spent up to now is     3595.7 secs

     total energy              =    -343.63028510 Ry
     Harris-Foulkes estimate   =    -343.63028522 Ry
     estimated scf accuracy    <       0.00000083 Ry

     total magnetization       =     2.84 Bohr mag/cell
     absolute magnetization    =     3.26 Bohr mag/cell

     iteration # 13     ecut=    70.00 Ry     beta=0.20
     Davidson diagonalization with overlap
     ethr =  1.35E-09,  avg # of iterations =  2.0

     total cpu time spent up to now is     3639.2 secs

     total energy              =    -343.63028590 Ry
     Harris-Foulkes estimate   =    -343.63028608 Ry
     estimated scf accuracy    <          8.2E-09 Ry

     total magnetization       =     2.84 Bohr mag/cell
     absolute magnetization    =     3.25 Bohr mag/cell

     iteration # 14     ecut=    70.00 Ry     beta=0.20
     Davidson diagonalization with overlap
     ethr =  2.05E-11,  avg # of iterations =  2.0

     total cpu time spent up to now is     3688.9 secs

     total energy              =    -343.63028599 Ry
     Harris-Foulkes estimate   =    -343.63028598 Ry
     estimated scf accuracy    <       0.00000008 Ry

     total magnetization       =     2.83 Bohr mag/cell
     absolute magnetization    =     3.25 Bohr mag/cell

     iteration # 15     ecut=    70.00 Ry     beta=0.20
     Davidson diagonalization with overlap
     ethr =  2.05E-11,  avg # of iterations =  2.0

     total cpu time spent up to now is     3738.6 secs

     total energy              =    -343.63028609 Ry
     Harris-Foulkes estimate   =    -343.63028609 Ry
     estimated scf accuracy    <          3.4E-10 Ry

     total magnetization       =     2.84 Bohr mag/cell
     absolute magnetization    =     3.25 Bohr mag/cell

     iteration # 16     ecut=    70.00 Ry     beta=0.20
     Davidson diagonalization with overlap
     ethr =  8.41E-13,  avg # of iterations =  2.1

     total cpu time spent up to now is     3786.3 secs

     total energy              =    -343.63028609 Ry
     Harris-Foulkes estimate   =    -343.63028609 Ry
     estimated scf accuracy    <          2.1E-09 Ry

     total magnetization       =     2.84 Bohr mag/cell
     absolute magnetization    =     3.25 Bohr mag/cell

     iteration # 17     ecut=    70.00 Ry     beta=0.20
     Davidson diagonalization with overlap
     ethr =  8.41E-13,  avg # of iterations =  2.0

     Magnetic moment per site:
     atom:    1    charge:    3.0536    magn:    0.3402    constr:    0.0000
     atom:    2    charge:    3.0514    magn:    0.3400    constr:    0.0000
     atom:    3    charge:    3.0536    magn:    0.3402    constr:    0.0000
     atom:    4    charge:    3.0536    magn:    0.3402    constr:    0.0000

     total cpu time spent up to now is     3833.3 secs

     End of self-consistent calculation

 ------ SPIN UP ------------


          k = 0.0000 0.0000 0.0000 (  2897 PWs)   bands (ev):

     5.4296   9.7133   9.7133   9.7133  10.1663  10.1663  10.1663  11.9450
    11.9451  11.9451  13.1237  13.1237  13.8414  13.8414  13.8414  13.9313
    13.9313  13.9313  13.9313  13.9313  13.9313  17.0700  17.0700  17.0700
    23.8073  23.8074  23.8074  29.5654  29.5654  29.5654  29.5655  29.5655
    29.5655  34.6424  34.6424  34.6424  37.9872  37.9874  37.9874  38.4933
    42.4686  42.4688  42.4688  46.0654  46.0656  46.0656  48.1709  55.1635
    55.1636  55.1636  57.6073  59.0293

          k =-0.0000-0.0000 0.0476 (  2877 PWs)   bands (ev):

     5.7958   9.7354   9.8974   9.8974  10.2768  10.2927  10.2927  11.8163
    12.0474  12.0474  13.0058  13.1704  13.2774  13.2774  13.6880  13.6880
    13.7554  13.7554  13.7919  13.9316  13.9316  15.4691  18.0285  18.0285
    23.9032  23.9033  26.0566  27.8136  27.8136  28.4418  28.4419  30.1256
    30.1257  34.7585  36.8152  36.8152  37.8573  38.1192  39.9446  39.9447
    40.2466  40.2467  40.9136  47.4856  48.1230  48.1231  49.1451  51.5540
    56.2590  56.2590  56.6698  56.6698

          k =-0.0000-0.0000 0.0952 (  2862 PWs)   bands (ev):

     6.8451   9.5061  10.3343  10.3344  10.5844  10.6758  10.6758  11.4723
    12.2218  12.2218  12.3440  12.3440  12.7180  13.2990  13.3050  13.3095
    13.3096  13.3167  13.3167  13.6577  13.9321  13.9321  19.9908  19.9908
    24.2206  24.2207  25.0402  25.0402  26.6736  26.6736  30.3562  31.7046
    31.7048  35.1218  36.7242  37.0260  37.0261  38.3463  38.6712  40.8593
    40.8593  44.1086  44.1087  44.1405  50.9216  51.0442  51.0443  51.0469
    51.0469  55.0317  55.9350  55.9350

          k = 0.0000 0.0000-0.1427 (  2874 PWs)   bands (ev):

     8.3443   8.3443  10.6104  10.6104  11.0193  11.0193  11.3223  11.3223
    11.3224  11.3224  12.5409  12.5410  12.7960  12.7960  12.7960  12.7961
    13.0610  13.0610  13.4769  13.4770  13.9324  13.9324  22.3761  22.3761
    22.3762  22.3762  24.5939  24.5940  25.7280  25.7281  34.0822  34.0823
    34.0823  34.0824  34.9058  34.9060  35.7695  35.7695  40.2645  40.2648
    45.6603  45.6603  45.6606  45.6606  47.6143  47.6144  52.2858  52.2858
    54.1721  54.1722  54.1724  54.1724

          k =-0.0000 0.0476 0.0476 (  2875 PWs)   bands (ev):

     6.1534   9.9337   9.9337  10.0606  10.3942  10.3942  10.4080  11.7564
    12.0924  12.1094  12.9315  12.9812  12.9898  12.9898  13.1656  13.5593
    13.6839  13.6839  13.7541  13.7541  13.8155  16.4011  16.4011  18.7982
    23.8976  25.0964  26.2439  26.2439  28.2913  28.2913  28.9340  28.9340
    30.6533  36.0317  36.1157  37.0236  37.0236  37.3293  40.1123  40.1123
    41.2681  42.5999  43.5279  45.2283  46.3587  49.7831  50.4515  53.0884
    53.6654  55.3460  55.3460  56.2998

          k =-0.0000 0.0476 0.0952 (  2862 PWs)   bands (ev):

     7.1749   9.7421  10.4157  10.4642  10.6759  10.7291  10.7483  11.4754
    11.9832  12.1229  12.2382  12.3557  12.3811  12.8142  13.2356  13.3141
    13.3210  13.3446  13.4970  13.7508  13.7568  14.4344  18.0152  20.5808
    22.0786  24.6058  25.5015  26.5307  27.3982  29.6045  29.8998  29.9524
    31.0123  33.7206  34.4639  37.6759  38.6286  40.3868  40.5655  40.7442
    41.1150  44.0361  45.0280  47.0541  47.7819  48.5839  49.8894  51.3315
    52.9362  53.2575  54.8129  56.1980

          k = 0.0000 0.0476-0.1427 (  2872 PWs)   bands (ev):

     8.6257   8.6258  10.7629  10.7629  11.0710  11.0711  11.1899  11.1900
    11.3368  11.3369  12.1675  12.1676  12.7968  12.7969  13.0262  13.0263
    13.0461  13.0461  13.6604  13.6604  13.7483  13.7484  19.8835  19.8836
    22.8752  22.8754  25.4094  25.4095  28.3066  28.3066  31.4940  31.4940
    32.0176  32.0176  35.8256  35.8258  38.8250  38.8250  42.2088  42.2090
    43.1111  43.1112  45.9364  45.9366  50.0778  50.0780  50.3512  50.3513
    52.6091  52.6092  53.1989  53.1990

          k =-0.0000 0.0952 0.0952 (  2870 PWs)   bands (ev):

     8.1013  10.3296  10.3296  10.6955  10.9440  10.9440  10.9578  11.4055
    11.6527  11.6527  11.8073  12.1255  12.4865  12.7281  13.0197  13.1748
    13.1748  13.3148  13.3148  13.4847  13.7001  15.6802  15.6802  19.2981
    22.1072  25.1565  26.7742  26.7743  27.8935  27.8935  30.9819  31.6378
    31.6378  31.7336  33.6012  36.8350  41.5244  41.8769  41.8770  43.0716
    43.4095  43.7681  43.7682  47.1853  47.3258  48.4711  48.4711  51.6697
    52.1737  52.1878  53.1958  55.3470

          k = 0.0000 0.0952-0.1427 (  2872 PWs)   bands (ev):

     9.3683   9.3683  10.8003  10.8004  11.1982  11.1983  11.2058  11.2058
    11.3554  11.3555  11.8617  11.8617  12.8336  12.8336  12.8343  12.8343
    12.9004  12.9004  13.3497  13.3497  14.3615  14.3615  17.2114  17.2114
    24.2310  24.2311  26.2243  26.2244  28.6496  28.6497  29.5352  29.5353
    32.9463  32.9464  36.7878  36.7880  40.3615  40.3616  43.0465  43.0466
    43.2134  43.2135  46.7368  46.7370  47.9202  47.9204  50.4239  50.4241
    51.7573  51.7575  53.5595  53.5595

          k = 0.0000-0.1427-0.1427 (  2864 PWs)   bands (ev):

    10.2213  10.2213  10.2214  10.2214  11.3174  11.3174  11.3175  11.3175
    11.6266  11.6266  11.6266  11.6266  12.6875  12.6875  12.6875  12.6875
    13.0014  13.0014  13.0015  13.0015  15.4316  15.4317  15.4317  15.4317
    26.2051  26.2052  26.2052  26.2053  27.5760  27.5760  27.5761  27.5761
    37.8897  37.8897  37.8898  37.8899  38.4969  38.4970  38.4971  38.4972
    47.1756  47.1756  47.1756  47.1756  49.1862  49.1863  49.1864  49.1865
    51.8141  51.8141  51.8142  51.8143

          k = 0.0476 0.0476 0.0476 (  2857 PWs)   bands (ev):

     6.4991  10.0946  10.0946  10.0946  10.5087  10.5087  10.5087  11.7215
    12.1291  12.1291  12.6859  12.6859  12.6859  13.0789  13.0789  13.3259
    13.3259  13.3259  13.8697  13.8697  13.8697  17.0282  17.0282  17.0282
    25.3232  25.3232  25.3232  26.5889  26.5889  26.5889  31.1685  31.1685
    31.1685  33.4792  36.1630  36.1630  36.1630  39.2502  41.1344  41.1344
    42.8072  42.8072  42.8072  46.5894  47.6445  47.6445  51.6379  51.6379
    55.1046  55.2244  55.2244  55.2244

          k = 0.0476 0.0476 0.0952 (  2861 PWs)   bands (ev):

     7.4805   9.9008  10.4776  10.4776  10.7943  10.8224  10.8224  11.5121
    11.9736  11.9736  12.1689  12.2083  12.2685  12.9238  12.9945  13.0802
    13.0802  13.3183  13.7724  13.7724  13.8047  14.7962  18.3703  18.3703
    22.7043  22.7043  26.6167  27.2402  27.2403  30.3554  30.3554  30.7421
    30.9446  32.6479  36.6421  37.7737  37.8472  38.7872  38.7872  42.3572
    43.4993  44.4662  47.0166  47.0166  47.8784  49.0797  50.1964  50.1964
    50.6917  53.0132  53.0738  55.6520

          k = 0.0476 0.0476-0.1427 (  2880 PWs)   bands (ev):

     8.8528   8.8528  10.8648  10.8648  10.9228  10.9228  11.1659  11.1660
    11.5797  11.5798  12.0717  12.0718  12.5416  12.5417  12.9125  12.9125
    13.4878  13.4879  13.5943  13.5944  13.7164  13.7164  19.5191  19.5191
    21.1431  21.1431  28.2046  28.2047  28.4433  28.4434  28.9241  28.9241
    34.9353  34.9354  35.4125  35.4127  38.0913  38.0915  42.2010  42.2011
    44.7522  44.7523  45.3658  45.3658  49.4768  49.4770  50.8955  50.8956
    52.1807  52.1808  54.0124  54.0124

          k = 0.0476 0.0952 0.0952 (  2871 PWs)   bands (ev):

     8.3193  10.2185  10.2185  10.5046  11.1098  11.1558  11.1558  11.5572
    11.7697  11.7697  11.9029  12.1276  12.2535  12.7317  12.7317  12.7481
    13.0509  13.6058  13.6750  13.6903  13.6903  15.8109  15.8110  18.6222
    20.8008  23.9009  23.9009  27.9409  28.0501  31.1315  31.1315  32.1174
    32.1174  34.0141  35.2385  36.9059  39.3214  39.3214  40.1516  43.0336
    43.7318  44.7810  46.4593  46.4593  49.1880  49.1880  50.4140  50.5914
    50.9207  51.6135  52.2970  52.9223

          k = 0.0476 0.0952-0.1427 (  2860 PWs)   bands (ev):

     9.4024   9.4025  10.4397  10.4397  11.3233  11.3233  11.4713  11.4714
    11.7766  11.7766  11.8973  11.8973  12.4028  12.4028  12.6135  12.6135
    13.3480  13.3480  13.5756  13.5756  14.2678  14.2678  17.1885  17.1885
    21.8166  21.8166  25.6614  25.6615  29.4327  29.4328  33.0367  33.0367
    33.2501  33.2502  36.9017  36.9019  40.1344  40.1345  40.4427  40.4428
    45.1891  45.1892  45.6809  45.6810  47.7003  47.7005  50.5685  50.5686
    51.7868  51.7869  53.8989  53.8991

          k = 0.0476-0.1427-0.1427 (  2868 PWs)   bands (ev):

     9.9718   9.9718   9.9718   9.9718  11.7143  11.7143  11.7143  11.7143
    11.8014  11.8014  11.8014  11.8015  12.3742  12.3742  12.3742  12.3743
    13.3306  13.3306  13.3306  13.3306  15.3426  15.3426  15.3426  15.3426
    23.4502  23.4503  23.4503  23.4503  30.9703  30.9704  30.9704  30.9704
    38.1702  38.1702  38.1703  38.1703  38.3407  38.3408  38.3409  38.3410
    46.6522  46.6522  46.6523  46.6523  46.7540  46.7541  46.7541  46.7542
    54.8057  54.8058  54.8058  54.8059

          k = 0.0952 0.0952 0.0952 (  2887 PWs)   bands (ev):

     8.8631  10.0535  10.0535  10.0535  11.5143  11.5143  11.5143  12.0282
    12.0890  12.0890  12.0890  12.0944  12.0944  12.3776  12.3776  12.3776
    13.4536  13.4536  13.8185  13.8185  13.8185  16.1893  16.1893  16.1893
    21.4081  21.4081  21.4081  25.1479  32.4972  32.4972  32.4972  35.2413
    35.2413  35.2413  37.2711  37.2711  37.2711  37.7896  39.9484  39.9484
    44.4418  44.4418  47.7702  48.0624  48.0625  48.0625  48.1364  48.1364
    48.1364  52.4450  52.4450  52.4450

          k = 0.0952 0.0952-0.1427 (  2876 PWs)   bands (ev):

     9.4891   9.4892   9.9850   9.9850  11.6340  11.6340  11.9205  11.9205
    12.1372  12.1372  12.2575  12.2575  12.2722  12.2723  12.3722  12.3722
    13.7390  13.7390  13.7468  13.7468  14.1579  14.1579  16.4736  16.4736
    20.3791  20.3792  22.9658  22.9658  33.4130  33.4130  34.6245  34.6245
    36.3280  36.3281  37.2434  37.2435  38.9917  38.9919  39.4371  39.4371
    44.6487  44.6487  44.8999  44.9000  46.0135  46.0136  48.5475  48.5475
    49.6025  49.6026  52.9747  52.9747

          k = 0.0952-0.1427-0.1427 (  2892 PWs)   bands (ev):

     9.6647   9.6647   9.6648   9.6648  11.8800  11.8800  11.8800  11.8800
    12.0697  12.0697  12.0697  12.0697  12.8191  12.8192  12.8192  12.8192
    13.6669  13.6670  13.6670  13.6670  14.9661  14.9661  14.9661  14.9661
    21.0925  21.0926  21.0926  21.0926  35.1525  35.1526  35.1526  35.1527
    38.2168  38.2168  38.2169  38.2169  38.9371  38.9371  38.9372  38.9372
    44.0906  44.0906  44.0907  44.0907  45.1539  45.1540  45.1540  45.1540
    50.4167  50.4167  50.4167  50.4168

          k =-0.1427-0.1427-0.1427 (  2872 PWs)   bands (ev):

     9.5488   9.5488   9.5488   9.5488  11.9582  11.9582  11.9582  11.9582
    11.9582  11.9582  11.9582  11.9582  13.7944  13.7944  13.7944  13.7944
    13.7944  13.7944  13.7944  13.7944  14.2912  14.2913  14.2913  14.2913
    20.2114  20.2114  20.2114  20.2115  36.9484  36.9485  36.9485  36.9486
    39.5736  39.5736  39.5736  39.5736  39.5737  39.5737  39.5737  39.5737
    42.7994  42.7995  42.7995  42.7995  42.7995  42.7995  42.7996  42.7996
    48.7706  48.7706  48.7706  48.7707

          k =-0.0476 0.0000 0.0476 (  2875 PWs)   bands (ev):

     6.1534   9.9337   9.9337  10.0606  10.3942  10.3942  10.4080  11.7564
    12.0924  12.1094  12.9315  12.9812  12.9898  12.9898  13.1656  13.5593
    13.6839  13.6839  13.7541  13.7541  13.8155  16.4011  16.4011  18.7982
    23.8976  25.0964  26.2439  26.2439  28.2913  28.2913  28.9340  28.9340
    30.6532  36.0316  36.1158  37.0236  37.0236  37.3294  40.1123  40.1123
    41.2681  42.6000  43.5278  45.2283  46.3586  49.7830  50.4516  53.0885
    53.6655  55.3461  55.3461  56.2998

          k =-0.0476-0.0000 0.0952 (  2862 PWs)   bands (ev):

     7.1749   9.7421  10.4157  10.4642  10.6759  10.7291  10.7483  11.4754
    11.9832  12.1229  12.2382  12.3556  12.3811  12.8142  13.2356  13.3141
    13.3210  13.3446  13.4970  13.7508  13.7568  14.4344  18.0151  20.5808
    22.0786  24.6058  25.5015  26.5307  27.3982  29.6044  29.8998  29.9524
    31.0123  33.7207  34.4639  37.6760  38.6285  40.3867  40.5655  40.7443
    41.1151  44.0361  45.0279  47.0543  47.7819  48.5838  49.8895  51.3315
    52.9364  53.2576  54.8128  56.1980

          k =-0.0952 0.0000 0.0952 (  2870 PWs)   bands (ev):

     8.1013  10.3296  10.3296  10.6955  10.9440  10.9440  10.9578  11.4055
    11.6526  11.6527  11.8073  12.1256  12.4865  12.7281  13.0196  13.1748
    13.1748  13.3148  13.3148  13.4847  13.7001  15.6802  15.6802  19.2981
    22.1072  25.1565  26.7742  26.7742  27.8935  27.8935  30.9819  31.6378
    31.6378  31.7336  33.6011  36.8349  41.5244  41.8770  41.8770  43.0716
    43.4094  43.7682  43.7683  47.1852  47.3257  48.4712  48.4712  51.6699
    52.1736  52.1877  53.1958  55.3471

          k = 0.0476-0.0476 0.0476 (  2857 PWs)   bands (ev):

     6.4991  10.0946  10.0946  10.0946  10.5087  10.5087  10.5087  11.7215
    12.1291  12.1291  12.6859  12.6859  12.6859  13.0789  13.0789  13.3259
    13.3259  13.3259  13.8697  13.8697  13.8697  17.0282  17.0282  17.0282
    25.3231  25.3232  25.3232  26.5889  26.5889  26.5889  31.1684  31.1684
    31.1685  33.4794  36.1629  36.1629  36.1630  39.2501  41.1342  41.1344
    42.8072  42.8074  42.8074  46.5893  47.6444  47.6445  51.6378  51.6379
    55.1046  55.2244  55.2244  55.2245

          k = 0.0476-0.0476 0.0952 (  2861 PWs)   bands (ev):

     7.4805   9.9008  10.4776  10.4776  10.7943  10.8224  10.8224  11.5121
    11.9736  11.9736  12.1689  12.2083  12.2685  12.9238  12.9945  13.0801
    13.0802  13.3183  13.7724  13.7724  13.8047  14.7962  18.3703  18.3703
    22.7042  22.7043  26.6167  27.2403  27.2403  30.3553  30.3554  30.7422
    30.9446  32.6479  36.6420  37.7736  37.8470  38.7871  38.7872  42.3572
    43.4995  44.4662  47.0167  47.0168  47.8784  49.0796  50.1964  50.1965
    50.6917  53.0133  53.0738  55.6519

          k =-0.0952 0.0476 0.0476 (  2861 PWs)   bands (ev):

     7.4805   9.9008  10.4776  10.4776  10.7943  10.8224  10.8224  11.5121
    11.9736  11.9736  12.1689  12.2083  12.2685  12.9238  12.9945  13.0801
    13.0801  13.3183  13.7724  13.7724  13.8047  14.7962  18.3703  18.3703
    22.7043  22.7043  26.6166  27.2403  27.2403  30.3553  30.3553  30.7422
    30.9446  32.6480  36.6421  37.7737  37.8471  38.7871  38.7872  42.3571
    43.4994  44.4660  47.0168  47.0168  47.8783  49.0796  50.1964  50.1965
    50.6917  53.0133  53.0738  55.6520

          k = 0.0476-0.0476-0.1427 (  2880 PWs)   bands (ev):

     8.8528   8.8528  10.8648  10.8648  10.9228  10.9228  11.1659  11.1660
    11.5797  11.5797  12.0717  12.0718  12.5416  12.5417  12.9125  12.9125
    13.4878  13.4879  13.5943  13.5944  13.7164  13.7164  19.5190  19.5191
    21.1431  21.1431  28.2046  28.2047  28.4434  28.4435  28.9241  28.9241
    34.9352  34.9353  35.4125  35.4127  38.0913  38.0915  42.2010  42.2011
    44.7523  44.7524  45.3657  45.3658  49.4768  49.4769  50.8955  50.8955
    52.1807  52.1808  54.0124  54.0124

          k = 0.0952-0.0476 0.0952 (  2871 PWs)   bands (ev):

     8.3193  10.2185  10.2185  10.5046  11.1098  11.1558  11.1558  11.5572
    11.7697  11.7697  11.9029  12.1276  12.2535  12.7317  12.7317  12.7481
    13.0509  13.6058  13.6750  13.6903  13.6903  15.8109  15.8110  18.6222
    20.8008  23.9009  23.9009  27.9410  28.0501  31.1315  31.1315  32.1174
    32.1174  34.0141  35.2384  36.9059  39.3213  39.3213  40.1515  43.0335
    43.7318  44.7810  46.4593  46.4594  49.1881  49.1881  50.4140  50.5915
    50.9206  51.6135  52.2971  52.9224

          k =-0.0952 0.0476 0.0952 (  2871 PWs)   bands (ev):

     8.3193  10.2185  10.2185  10.5046  11.1098  11.1558  11.1558  11.5572
    11.7697  11.7697  11.9029  12.1276  12.2534  12.7317  12.7317  12.7481
    13.0509  13.6058  13.6750  13.6903  13.6903  15.8109  15.8109  18.6222
    20.8008  23.9009  23.9009  27.9410  28.0501  31.1314  31.1315  32.1174
    32.1175  34.0140  35.2385  36.9058  39.3214  39.3214  40.1515  43.0335
    43.7317  44.7810  46.4594  46.4594  49.1881  49.1881  50.4140  50.5914
    50.9207  51.6134  52.2972  52.9225

          k = 0.0952-0.0476-0.1427 (  2860 PWs)   bands (ev):

     9.4025   9.4025  10.4397  10.4397  11.3233  11.3233  11.4714  11.4714
    11.7766  11.7766  11.8973  11.8973  12.4027  12.4028  12.6135  12.6135
    13.3480  13.3480  13.5756  13.5756  14.2678  14.2678  17.1885  17.1885
    21.8165  21.8166  25.6615  25.6615  29.4328  29.4328  33.0366  33.0366
    33.2501  33.2502  36.9017  36.9019  40.1344  40.1345  40.4426  40.4427
    45.1891  45.1892  45.6809  45.6810  47.7004  47.7005  50.5686  50.5686
    51.7869  51.7869  53.8990  53.8991

          k = 0.0952-0.0952 0.0952 (  2887 PWs)   bands (ev):

     8.8631  10.0535  10.0535  10.0535  11.5143  11.5143  11.5143  12.0282
    12.0890  12.0890  12.0890  12.0944  12.0944  12.3776  12.3776  12.3776
    13.4536  13.4536  13.8185  13.8185  13.8185  16.1893  16.1893  16.1893
    21.4081  21.4081  21.4081  25.1480  32.4973  32.4973  32.4973  35.2412
    35.2412  35.2413  37.2710  37.2710  37.2711  37.7895  39.9483  39.9484
    44.4417  44.4417  47.7702  48.0625  48.0625  48.0626  48.1364  48.1364
    48.1365  52.4451  52.4452  52.4452

          k = 0.0952-0.0952-0.1427 (  2876 PWs)   bands (ev):

     9.4892   9.4892   9.9850   9.9850  11.6340  11.6341  11.9205  11.9205
    12.1371  12.1372  12.2575  12.2575  12.2722  12.2723  12.3722  12.3722
    13.7390  13.7390  13.7468  13.7468  14.1579  14.1579  16.4736  16.4736
    20.3791  20.3792  22.9658  22.9659  33.4130  33.4131  34.6246  34.6246
    36.3280  36.3281  37.2434  37.2434  38.9917  38.9918  39.4370  39.4372
    44.6486  44.6488  44.8999  44.9000  46.0135  46.0135  48.5476  48.5476
    49.6026  49.6026  52.9747  52.9748

 ------ SPIN DOWN ----------


          k = 0.0000 0.0000 0.0000 (  2897 PWs)   bands (ev):

     5.3750  10.1754  10.1754  10.1754  10.8848  10.8848  10.8848  12.8257
    12.8257  12.8257  13.9040  13.9040  14.6557  14.6557  14.6557  14.9410
    14.9410  14.9410  14.9410  14.9410  14.9410  16.9912  16.9912  16.9912
    24.1130  24.1131  24.1131  29.5516  29.5516  29.5517  29.5517  29.5518
    29.5518  34.8067  34.8067  34.8067  38.1307  38.1309  38.1309  38.2877
    42.4394  42.4395  42.4395  46.1379  46.1380  46.1380  48.0114  55.3525
    55.3525  55.3525  58.1275  59.5915

          k =-0.0000-0.0000 0.0476 (  2877 PWs)   bands (ev):

     5.7411  10.1510  10.3696  10.3696  11.0041  11.0086  11.0086  12.6837
    12.9321  12.9321  13.7765  13.9528  14.0977  14.0977  14.4887  14.4887
    14.6038  14.7484  14.7484  14.9413  14.9413  15.5393  18.1353  18.1353
    24.1939  24.1939  26.2585  27.8822  27.8822  28.4691  28.4692  30.1281
    30.1283  34.9102  36.8962  36.8962  37.7186  38.2603  40.0652  40.0653
    40.2885  40.2886  40.8438  47.5062  48.0969  48.0970  49.2169  51.5448
    56.4702  56.4702  56.5963  56.5963

          k =-0.0000-0.0000 0.0952 (  2862 PWs)   bands (ev):

     6.7947   9.7142  10.8310  10.8311  11.3371  11.3863  11.3863  12.3054
    12.9513  12.9513  13.2418  13.2418  13.4558  13.6756  14.0768  14.0769
    14.0873  14.2735  14.2735  14.4631  14.9419  14.9419  20.1759  20.1759
    24.4669  24.4669  25.1810  25.1810  26.7717  26.7718  30.4519  31.7416
    31.7417  35.2358  36.6896  37.0975  37.0976  38.2560  38.8171  40.8648
    40.8648  44.2079  44.2080  44.3586  50.8772  50.9493  50.9494  50.9734
    50.9734  54.9274  56.1758  56.1758

          k = 0.0000 0.0000-0.1427 (  2874 PWs)   bands (ev):

     8.3378   8.3378  11.1227  11.1228  11.8100  11.8101  12.0317  12.0317
    12.0318  12.0318  13.1890  13.1891  13.7180  13.7180  13.7180  13.7180
    13.8072  13.8072  14.2736  14.2737  14.9422  14.9422  22.5577  22.5577
    22.5579  22.5579  24.7907  24.7907  25.8854  25.8854  34.1473  34.1474
    34.1474  34.1475  34.8860  34.8863  35.8209  35.8210  40.4565  40.4568
    45.6159  45.6159  45.6162  45.6162  47.6883  47.6884  52.4749  52.4749
    54.0619  54.0619  54.0621  54.0622

          k =-0.0000 0.0476 0.0476 (  2875 PWs)   bands (ev):

     6.0997  10.3619  10.3620  10.5516  11.1079  11.1184  11.1184  12.6101
    12.9825  12.9869  13.6967  13.7381  13.7381  13.7499  13.9529  14.3502
    14.4763  14.4763  14.7472  14.7472  14.8179  16.7156  16.7156  18.9638
    24.1563  25.2260  26.4326  26.4326  28.3742  28.3743  28.9750  28.9750
    30.6643  36.1075  36.1358  37.0943  37.0943  37.3469  40.2301  40.2302
    41.1873  42.6873  43.4970  45.1719  46.4194  49.9417  50.3769  53.2611
    53.6309  55.3080  55.3080  56.2401

          k =-0.0000 0.0476 0.0952 (  2862 PWs)   bands (ev):

     7.1293   9.9647  10.8782  10.9964  11.3913  11.4240  11.4654  12.2976
    12.6748  12.8440  13.0376  13.0778  13.2580  13.5789  14.0008  14.0863
    14.1563  14.2425  14.2718  14.7443  14.7535  15.1437  18.3538  20.7848
    22.2771  24.8338  25.6532  26.6655  27.5234  29.7130  29.9616  30.0230
    31.1097  33.7988  34.5064  37.7180  38.6666  40.3384  40.5131  40.8640
    41.1147  44.1182  45.2324  47.1206  47.7044  48.5663  49.8735  51.2568
    52.8918  53.1669  55.0326  56.9869

          k = 0.0000 0.0476-0.1427 (  2872 PWs)   bands (ev):

     8.6313   8.6314  11.2663  11.2664  11.8544  11.8545  11.8669  11.8670
    12.0490  12.0490  12.9086  12.9087  13.7214  13.7215  13.7960  13.7961
    13.7964  13.7964  14.4992  14.4992  14.7428  14.7428  20.1650  20.1651
    23.0684  23.0685  25.5809  25.5810  28.4235  28.4236  31.6080  31.6081
    32.0755  32.0756  35.8508  35.8511  38.8263  38.8264  42.3614  42.3617
    43.1041  43.1043  45.8884  45.8887  50.1432  50.1435  50.2836  50.2837
    52.5256  52.5257  53.3667  53.3668

          k =-0.0000 0.0952 0.0952 (  2870 PWs)   bands (ev):

     8.0792  10.6029  10.6029  11.3599  11.4422  11.6799  11.6799  12.1997
    12.3461  12.3461  12.5198  12.9170  13.4021  13.4752  13.7734  13.9124
    13.9124  14.2760  14.2760  14.4658  14.5427  16.2856  16.2856  19.6057
    22.3264  25.3549  26.9411  26.9412  27.9946  27.9947  31.1129  31.7266
    31.7266  31.8011  33.6537  36.8707  41.4609  41.8589  41.8589  43.1064
    43.2922  43.8105  43.8106  47.3066  47.3550  48.5160  48.5160  51.7292
    52.0647  52.1284  53.3991  55.2498

          k = 0.0000 0.0952-0.1427 (  2872 PWs)   bands (ev):

     9.4296   9.4297  11.2201  11.2202  11.8460  11.8460  11.9613  11.9614
    12.0762  12.0763  12.5988  12.5988  13.5681  13.5682  13.6419  13.6420
    13.7682  13.7682  14.3185  14.3185  15.1678  15.1678  17.6756  17.6757
    24.4362  24.4363  26.3761  26.3762  28.8119  28.8120  29.6253  29.6254
    33.0181  33.0182  36.8155  36.8157  40.3604  40.3605  42.9924  42.9925
    43.2317  43.2318  46.6751  46.6753  48.0025  48.0027  50.3712  50.3714
    51.8782  51.8784  53.4741  53.4742

          k = 0.0000-0.1427-0.1427 (  2864 PWs)   bands (ev):

    10.4407  10.4408  10.4408  10.4408  12.0556  12.0556  12.0556  12.0557
    12.2960  12.2960  12.2960  12.2960  13.4254  13.4254  13.4254  13.4254
    13.9508  13.9508  13.9508  13.9509  16.1137  16.1137  16.1137  16.1137
    26.4002  26.4003  26.4003  26.4004  27.6995  27.6996  27.6997  27.6997
    37.9639  37.9639  37.9640  37.9640  38.4630  38.4631  38.4632  38.4633
    47.0557  47.0557  47.0557  47.0558  49.1755  49.1756  49.1756  49.1757
    51.9153  51.9153  51.9154  51.9154

          k = 0.0476 0.0476 0.0476 (  2857 PWs)   bands (ev):

     6.4483  10.5498  10.5498  10.5498  11.2096  11.2096  11.2096  12.5552
    13.0075  13.0075  13.3968  13.3968  13.3968  13.8654  13.8654  14.1573
    14.1573  14.1573  14.8183  14.8183  14.8183  17.3692  17.3692  17.3692
    25.4547  25.4547  25.4547  26.7622  26.7622  26.7622  31.1904  31.1904
    31.1904  33.5458  36.2580  36.2580  36.2580  39.0948  41.1870  41.1870
    42.8913  42.8914  42.8914  46.5020  47.6017  47.6017  51.8046  51.8046
    55.1776  55.1777  55.1777  56.0476

          k = 0.0476 0.0476 0.0952 (  2861 PWs)   bands (ev):

     7.4454  10.1635  11.0093  11.0093  11.4510  11.4510  11.5069  12.3080
    12.6762  12.6762  12.8415  13.0390  13.1291  13.7703  13.8047  13.8673
    13.8673  14.1409  14.7062  14.7360  14.7360  15.4267  18.6973  18.6973
    22.9145  22.9145  26.7609  27.3893  27.3893  30.4302  30.4303  30.8563
    31.0321  32.6944  36.7166  37.6797  37.9243  38.8176  38.8176  42.3648
    43.5796  44.4836  47.0608  47.0608  47.9205  49.0254  50.1853  50.1853
    50.6987  52.9426  53.0339  55.7669

          k = 0.0476 0.0476-0.1427 (  2880 PWs)   bands (ev):

     8.8873   8.8874  11.4370  11.4370  11.5043  11.5043  11.9171  11.9172
    12.2940  12.2940  12.8216  12.8217  13.3925  13.3925  13.6764  13.6765
    14.2928  14.2928  14.4558  14.4558  14.6884  14.6884  19.7764  19.7764
    21.4471  21.4471  28.3196  28.3196  28.5853  28.5854  29.0387  29.0388
    35.0046  35.0047  35.3858  35.3860  38.1686  38.1688  42.1823  42.1824
    44.8390  44.8392  45.3548  45.3548  49.3973  49.3975  50.8498  50.8499
    52.2142  52.2143  54.0577  54.0578

          k = 0.0476 0.0952 0.0952 (  2871 PWs)   bands (ev):

     8.3312  10.6114  10.6114  11.1232  11.6170  11.7579  11.7579  12.2841
    12.4900  12.4900  12.6150  12.9285  13.0779  13.5314  13.5314  13.5336
    13.8945  14.4550  14.6037  14.6037  14.6205  16.3644  16.3644  18.8970
    21.1447  24.1179  24.1180  28.1028  28.1778  31.1953  31.1953  32.2100
    32.2100  34.0687  35.2641  36.9311  39.3362  39.3362  40.0753  43.1471
    43.7236  44.7269  46.4533  46.4534  49.2428  49.2428  50.3457  50.5751
    50.8971  51.6861  52.3626  52.8493

          k = 0.0476 0.0952-0.1427 (  2860 PWs)   bands (ev):

     9.5519   9.5520  10.9748  10.9748  11.8777  11.8777  12.1176  12.1177
    12.4705  12.4706  12.6578  12.6579  13.2071  13.2071  13.3882  13.3882
    14.2135  14.2136  14.5117  14.5117  15.0610  15.0610  17.5996  17.5996
    22.1168  22.1168  25.8615  25.8616  29.5333  29.5334  33.0934  33.0935
    33.3191  33.3192  36.9147  36.9149  40.1186  40.1187  40.4653  40.4654
    45.1764  45.1765  45.6728  45.6728  47.6812  47.6814  50.6068  50.6069
    51.7263  51.7263  53.9951  53.9955

          k = 0.0476-0.1427-0.1427 (  2868 PWs)   bands (ev):

    10.3288  10.3288  10.3288  10.3288  12.2848  12.2849  12.2849  12.2849
    12.5047  12.5047  12.5047  12.5048  13.1516  13.1516  13.1516  13.1516
    14.2428  14.2429  14.2429  14.2429  15.9884  15.9884  15.9884  15.9884
    23.7080  23.7080  23.7080  23.7081  31.0530  31.0531  31.0531  31.0532
    38.2425  38.2425  38.2426  38.2426  38.2916  38.2917  38.2917  38.2918
    46.5840  46.5841  46.5841  46.5841  46.7797  46.7798  46.7799  46.7800
    54.8701  54.8701  54.8702  54.8703

          k = 0.0952 0.0952 0.0952 (  2887 PWs)   bands (ev):

     8.9962  10.5634  10.5634  10.5634  12.0734  12.0734  12.0734  12.5511
    12.7688  12.7688  12.7688  12.8957  12.8957  13.1689  13.1689  13.1689
    14.3348  14.3348  14.7463  14.7463  14.7463  16.6159  16.6159  16.6159
    21.7467  21.7467  21.7468  25.3734  32.5437  32.5437  32.5437  35.3027
    35.3028  35.3028  37.2838  37.2838  37.2838  37.6187  40.0345  40.0345
    44.4511  44.4511  47.7854  48.0109  48.0110  48.0110  48.1378  48.1379
    48.1379  52.4763  52.4763  52.4763

          k = 0.0952 0.0952-0.1427 (  2876 PWs)   bands (ev):

     9.8215   9.8215  10.5232  10.5232  12.2658  12.2659  12.5793  12.5794
    12.8266  12.8267  12.9295  12.9295  12.9722  12.9722  13.0364  13.0364
    14.6481  14.6481  14.6755  14.6755  14.8738  14.8738  16.8052  16.8052
    20.8162  20.8163  23.2552  23.2553  33.4208  33.4209  34.7105  34.7106
    36.2194  36.2195  37.3159  37.3159  39.0720  39.0722  39.4117  39.4117
    44.6753  44.6753  44.8771  44.8773  46.0219  46.0220  48.5074  48.5074
    49.6560  49.6561  53.0836  53.0837

          k = 0.0952-0.1427-0.1427 (  2892 PWs)   bands (ev):

    10.1356  10.1356  10.1356  10.1356  12.6131  12.6131  12.6131  12.6131
    12.8457  12.8457  12.8457  12.8457  13.2596  13.2596  13.2597  13.2597
    14.5853  14.5853  14.5853  14.5854  15.4977  15.4977  15.4977  15.4977
    21.4853  21.4854  21.4854  21.4854  35.1266  35.1268  35.1268  35.1269
    38.1858  38.1859  38.1859  38.1860  39.0063  39.0063  39.0064  39.0064
    44.1227  44.1227  44.1228  44.1229  45.1467  45.1467  45.1467  45.1468
    50.5071  50.5072  50.5072  50.5072

          k =-0.1427-0.1427-0.1427 (  2872 PWs)   bands (ev):

    10.0503  10.0503  10.0503  10.0503  12.7313  12.7313  12.7313  12.7313
    12.7313  12.7313  12.7313  12.7313  14.1919  14.1920  14.1920  14.1920
    14.7180  14.7180  14.7180  14.7180  14.7180  14.7180  14.7181  14.7181
    20.6938  20.6938  20.6938  20.6939  36.7643  36.7645  36.7645  36.7646
    39.6436  39.6436  39.6437  39.6437  39.6437  39.6437  39.6438  39.6438
    42.8299  42.8299  42.8299  42.8300  42.8300  42.8300  42.8301  42.8301
    48.8847  48.8847  48.8847  48.8847

          k =-0.0476 0.0000 0.0476 (  2875 PWs)   bands (ev):

     6.0997  10.3619  10.3620  10.5516  11.1079  11.1184  11.1184  12.6101
    12.9825  12.9869  13.6967  13.7381  13.7381  13.7499  13.9529  14.3502
    14.4763  14.4763  14.7472  14.7472  14.8179  16.7156  16.7156  18.9638
    24.1563  25.2261  26.4326  26.4326  28.3742  28.3743  28.9750  28.9750
    30.6642  36.1075  36.1357  37.0943  37.0943  37.3470  40.2301  40.2302
    41.1873  42.6874  43.4969  45.1718  46.4193  49.9417  50.3770  53.2611
    53.6310  55.3081  55.3081  56.2400

          k =-0.0476-0.0000 0.0952 (  2862 PWs)   bands (ev):

     7.1293   9.9647  10.8781  10.9964  11.3913  11.4240  11.4654  12.2976
    12.6748  12.8440  13.0376  13.0778  13.2580  13.5788  14.0008  14.0863
    14.1563  14.2425  14.2718  14.7443  14.7535  15.1437  18.3538  20.7849
    22.2772  24.8338  25.6532  26.6655  27.5234  29.7129  29.9616  30.0229
    31.1097  33.7988  34.5064  37.7180  38.6665  40.3383  40.5131  40.8640
    41.1147  44.1183  45.2323  47.1207  47.7043  48.5663  49.8735  51.2568
    52.8919  53.1670  55.0325  56.9870

          k =-0.0952 0.0000 0.0952 (  2870 PWs)   bands (ev):

     8.0792  10.6029  10.6029  11.3599  11.4422  11.6799  11.6799  12.1997
    12.3461  12.3461  12.5197  12.9170  13.4021  13.4752  13.7734  13.9124
    13.9124  14.2760  14.2760  14.4658  14.5427  16.2856  16.2856  19.6058
    22.3264  25.3549  26.9411  26.9411  27.9946  27.9947  31.1129  31.7266
    31.7266  31.8011  33.6536  36.8706  41.4608  41.8589  41.8590  43.1063
    43.2921  43.8106  43.8107  47.3065  47.3549  48.5161  48.5161  51.7293
    52.0646  52.1284  53.3991  55.2499

          k = 0.0476-0.0476 0.0476 (  2857 PWs)   bands (ev):

     6.4483  10.5498  10.5498  10.5498  11.2096  11.2096  11.2096  12.5552
    13.0075  13.0075  13.3968  13.3968  13.3968  13.8654  13.8654  14.1573
    14.1573  14.1573  14.8183  14.8183  14.8183  17.3692  17.3692  17.3692
    25.4547  25.4548  25.4548  26.7622  26.7622  26.7623  31.1903  31.1903
    31.1904  33.5460  36.2579  36.2580  36.2580  39.0948  41.1869  41.1870
    42.8913  42.8915  42.8915  46.5020  47.6016  47.6017  51.8045  51.8046
    55.1776  55.1777  55.1777  56.0477

          k = 0.0476-0.0476 0.0952 (  2861 PWs)   bands (ev):

     7.4454  10.1635  11.0093  11.0093  11.4510  11.4510  11.5069  12.3080
    12.6762  12.6762  12.8415  13.0391  13.1291  13.7703  13.8047  13.8673
    13.8673  14.1409  14.7062  14.7360  14.7360  15.4267  18.6972  18.6973
    22.9145  22.9146  26.7610  27.3893  27.3894  30.4302  30.4303  30.8564
    31.0321  32.6943  36.7166  37.6796  37.9242  38.8175  38.8176  42.3648
    43.5798  44.4836  47.0609  47.0610  47.9205  49.0254  50.1853  50.1853
    50.6987  52.9427  53.0339  55.7668

          k =-0.0952 0.0476 0.0476 (  2861 PWs)   bands (ev):

     7.4454  10.1635  11.0093  11.0093  11.4510  11.4511  11.5069  12.3080
    12.6762  12.6762  12.8415  13.0390  13.1291  13.7703  13.8046  13.8673
    13.8673  14.1409  14.7062  14.7360  14.7360  15.4267  18.6973  18.6973
    22.9146  22.9146  26.7608  27.3893  27.3893  30.4302  30.4302  30.8564
    31.0321  32.6944  36.7166  37.6796  37.9243  38.8175  38.8175  42.3647
    43.5797  44.4834  47.0610  47.0610  47.9204  49.0254  50.1853  50.1853
    50.6986  52.9428  53.0340  55.7669

          k = 0.0476-0.0476-0.1427 (  2880 PWs)   bands (ev):

     8.8873   8.8874  11.4370  11.4370  11.5043  11.5043  11.9171  11.9172
    12.2939  12.2940  12.8216  12.8217  13.3925  13.3925  13.6764  13.6765
    14.2928  14.2928  14.4558  14.4558  14.6884  14.6884  19.7764  19.7765
    21.4470  21.4471  28.3196  28.3196  28.5854  28.5854  29.0388  29.0388
    35.0045  35.0046  35.3858  35.3860  38.1686  38.1688  42.1823  42.1824
    44.8392  44.8393  45.3548  45.3549  49.3974  49.3975  50.8498  50.8499
    52.2142  52.2143  54.0577  54.0577

          k = 0.0952-0.0476 0.0952 (  2871 PWs)   bands (ev):

     8.3312  10.6114  10.6114  11.1232  11.6170  11.7579  11.7579  12.2841
    12.4900  12.4900  12.6150  12.9285  13.0779  13.5314  13.5314  13.5336
    13.8945  14.4550  14.6037  14.6037  14.6205  16.3644  16.3644  18.8969
    21.1447  24.1180  24.1180  28.1030  28.1779  31.1953  31.1953  32.2100
    32.2100  34.0687  35.2640  36.9311  39.3361  39.3361  40.0752  43.1471
    43.7236  44.7269  46.4534  46.4534  49.2429  49.2429  50.3457  50.5752
    50.8970  51.6861  52.3627  52.8494

          k =-0.0952 0.0476 0.0952 (  2871 PWs)   bands (ev):

     8.3312  10.6114  10.6114  11.1232  11.6170  11.7579  11.7579  12.2841
    12.4900  12.4900  12.6150  12.9285  13.0779  13.5314  13.5314  13.5335
    13.8945  14.4550  14.6037  14.6038  14.6205  16.3644  16.3644  18.8970
    21.1447  24.1179  24.1180  28.1029  28.1778  31.1952  31.1953  32.2100
    32.2100  34.0686  35.2641  36.9310  39.3362  39.3362  40.0752  43.1470
    43.7235  44.7268  46.4534  46.4535  49.2429  49.2429  50.3457  50.5751
    50.8971  51.6860  52.3628  52.8495

          k = 0.0952-0.0476-0.1427 (  2860 PWs)   bands (ev):

     9.5519   9.5520  10.9748  10.9748  11.8777  11.8777  12.1176  12.1177
    12.4705  12.4705  12.6578  12.6579  13.2071  13.2071  13.3882  13.3882
    14.2135  14.2136  14.5117  14.5117  15.0610  15.0610  17.5996  17.5996
    22.1167  22.1168  25.8616  25.8616  29.5333  29.5334  33.0933  33.0934
    33.3192  33.3192  36.9147  36.9149  40.1186  40.1188  40.4652  40.4653
    45.1763  45.1764  45.6727  45.6729  47.6814  47.6814  50.6068  50.6069
    51.7264  51.7264  53.9953  53.9955

          k = 0.0952-0.0952 0.0952 (  2887 PWs)   bands (ev):

     8.9963  10.5634  10.5634  10.5634  12.0734  12.0734  12.0734  12.5511
    12.7688  12.7688  12.7688  12.8956  12.8957  13.1689  13.1689  13.1689
    14.3348  14.3348  14.7463  14.7463  14.7463  16.6159  16.6159  16.6159
    21.7467  21.7468  21.7468  25.3735  32.5437  32.5438  32.5438  35.3027
    35.3027  35.3028  37.2837  37.2838  37.2839  37.6186  40.0344  40.0345
    44.4510  44.4511  47.7854  48.0110  48.0110  48.0111  48.1378  48.1379
    48.1380  52.4764  52.4765  52.4765

          k = 0.0952-0.0952-0.1427 (  2876 PWs)   bands (ev):

     9.8215   9.8216  10.5232  10.5232  12.2658  12.2659  12.5793  12.5794
    12.8266  12.8267  12.9295  12.9295  12.9722  12.9722  13.0364  13.0364
    14.6481  14.6481  14.6755  14.6755  14.8738  14.8738  16.8051  16.8052
    20.8162  20.8163  23.2553  23.2553  33.4209  33.4209  34.7106  34.7106
    36.2193  36.2195  37.3158  37.3158  39.0720  39.0721  39.4116  39.4118
    44.6752  44.6753  44.8772  44.8773  46.0219  46.0219  48.5075  48.5075
    49.6561  49.6561  53.0837  53.0838

     the Fermi energy is    14.4911 ev

!    total energy              =    -343.63028610 Ry
     Harris-Foulkes estimate   =    -343.63028610 Ry
     estimated scf accuracy    <          2.1E-11 Ry

     The total energy is the sum of the following terms:

     one-electron contribution =      -6.39242636 Ry
     hartree contribution      =      60.35169982 Ry
     xc contribution           =    -120.51400880 Ry
     ewald contribution        =    -277.02713951 Ry
     Dispersion Correction     =      -0.04783881 Ry
     smearing contrib. (-TS)   =      -0.00057244 Ry

     total magnetization       =     2.84 Bohr mag/cell
     absolute magnetization    =     3.25 Bohr mag/cell

     convergence has been achieved in  17 iterations

     Forces acting on atoms (Ry/au):

     atom    1 type  1   force =     0.00000476    0.00000476   -0.00000435
     atom    2 type  1   force =    -0.00000517   -0.00000517   -0.00000517
     atom    3 type  1   force =     0.00000476   -0.00000435    0.00000476
     atom    4 type  1   force =    -0.00000435    0.00000476    0.00000476

     Total force =     0.000017     Total SCF correction =     0.000004
     SCF correction compared to forces is large: reduce conv_thr to get better values


     entering subroutine stress ...

          total   stress  (Ry/bohr**3)                   (kbar)     P=   -0.04
  -0.00000025  -0.00000004  -0.00000004         -0.04     -0.01     -0.01
  -0.00000004  -0.00000025  -0.00000004         -0.01     -0.04     -0.01
  -0.00000004  -0.00000004  -0.00000025         -0.01     -0.01     -0.04


     Writing output data file Ni-ferromag.save

     init_run     :     35.66s CPU     36.70s WALL (       2 calls)
     electrons    :   3510.89s CPU   3619.33s WALL (       6 calls)
     update_pot   :     22.02s CPU     22.10s WALL (       4 calls)
     forces       :     61.04s CPU     61.41s WALL (       6 calls)
     stress       :    109.58s CPU    111.41s WALL (       6 calls)

     Called by init_run:
     wfcinit      :     29.20s CPU     30.14s WALL (       2 calls)
     potinit      :      1.79s CPU      1.83s WALL (       2 calls)

     Called by electrons:
     c_bands      :   3051.75s CPU   3141.25s WALL (      75 calls)
     sum_band     :    415.48s CPU    431.20s WALL (      75 calls)
     v_of_rho     :     22.56s CPU     23.43s WALL (      80 calls)
     newd         :     21.83s CPU     23.78s WALL (      80 calls)
     mix_rho      :      1.69s CPU      2.13s WALL (      75 calls)

     Called by c_bands:
     init_us_2    :     23.62s CPU     26.38s WALL (   10496 calls)
     cegterg      :   2968.79s CPU   3056.70s WALL (    4800 calls)

     Called by sum_band:
     sum_band:bec :      0.79s CPU      0.80s WALL (    4800 calls)
     addusdens    :     31.99s CPU     33.87s WALL (      75 calls)

     Called by *egterg:
     h_psi        :   1547.59s CPU   1602.35s WALL (   14321 calls)
     s_psi        :    236.47s CPU    236.55s WALL (   14321 calls)
     g_psi        :     10.34s CPU     10.41s WALL (    9393 calls)
     cdiaghg      :    141.41s CPU    141.53s WALL (   13873 calls)

     Called by h_psi:
     add_vuspsi   :    236.59s CPU    236.74s WALL (   14321 calls)

     General routines
     calbec       :    430.86s CPU    431.12s WALL (   21041 calls)
     fft          :      7.76s CPU      8.52s WALL (    2692 calls)
     ffts         :      0.41s CPU      0.47s WALL (     310 calls)
     fftw         :   1135.20s CPU   1198.51s WALL ( 1375614 calls)
     interpolate  :      1.43s CPU      1.77s WALL (     310 calls)

     Parallel routines
     fft_scatter  :     66.76s CPU     86.56s WALL ( 1378616 calls)

     PWSCF        :     1h 2m CPU        1h 4m WALL


   This run was terminated on:   6:29:55  27May2016            

=------------------------------------------------------------------------------=
   JOB DONE.
=------------------------------------------------------------------------------=
