
     Program PWSCF v.5.3.0 (svn rev. 11974) starts on 26May2016 at 23:43:59 

     This program is part of the open-source Quantum ESPRESSO suite
     for quantum simulation of materials; please cite
         "P. Giannozzi et al., J. Phys.:Condens. Matter 21 395502 (2009);
          URL http://www.quantum-espresso.org", 
     in publications or presentations arising from this work. More details at
     http://www.quantum-espresso.org/quote

     Parallel version (MPI), running on     1 processors
     Waiting for input...
     Reading input from standard input
     Message from routine read_cards :
     DEPRECATED: no units specified in CELL_PARAMETERS card

     Current dimensions of program PWSCF are:
     Max number of different atomic species (ntypx) = 10
     Max number of k-points (npk) =  40000
     Max angular momentum in pseudopotentials (lmaxx) =  3
               file Ni.pbe-nd-rrkjus.UPF: wavefunction(s)  4S renormalized

     -------------------------------------
     Parameters for Dispersion Correction:
     -------------------------------------
       atom      VdW radius       C_6     

        Ni1        3.014        159.927

     Subspace diagonalization in iterative solution of the eigenvalue problem:
     a serial algorithm will be used


     G-vector sticks info
     --------------------
     sticks:   dense  smooth     PW     G-vecs:    dense   smooth      PW
     Sum        1413     213     69                39847     2325     485

     Generating pointlists ...
     new r_m :   0.4125 (alat units)  0.7795 (a.u.) for type    1

     Title: 
     Ni-ferro-mag                                                               


     bravais-lattice index     =            0
     lattice parameter (alat)  =       1.8897  a.u.
     unit-cell volume          =     295.0010 (a.u.)^3
     number of atoms/cell      =            4
     number of atomic types    =            1
     number of electrons       =        40.00
     number of Kohn-Sham states=           52
     kinetic-energy cutoff     =      15.0000  Ry
     charge density cutoff     =     400.0000  Ry
     convergence threshold     =      1.0E-08
     mixing beta               =       0.2000
     number of iterations used =            8  plain     mixing
     Exchange-correlation      =  SLA  PW   PBE  PBE ( 1  4  3  4 0 0)
     nstep                     =           50


     celldm(1)=   1.889726  celldm(2)=   0.000000  celldm(3)=   0.000000
     celldm(4)=   0.000000  celldm(5)=   0.000000  celldm(6)=   0.000000

     crystal axes: (cart. coord. in units of alat)
               a(1) = (   3.522700   0.000000   0.000000 )  
               a(2) = (   0.000000   3.522700   0.000000 )  
               a(3) = (   0.000000   0.000000   3.522700 )  

     reciprocal axes: (cart. coord. in units 2 pi/alat)
               b(1) = (  0.283873  0.000000  0.000000 )  
               b(2) = (  0.000000  0.283873  0.000000 )  
               b(3) = (  0.000000  0.000000  0.283873 )  


     PseudoPot. # 1 for Ni read from file:
     /home/eliot/pseudo/Ni.pbe-nd-rrkjus.UPF
     MD5 check sum: 8081f0a005c9a5470caab1a58e82ecb2
     Pseudo is Ultrasoft + core correction, Zval = 10.0
     Generated by new atomic code, or converted to UPF format
     Using radial grid of 1203 points,  6 beta functions with: 
                l(1) =   0
                l(2) =   0
                l(3) =   1
                l(4) =   1
                l(5) =   2
                l(6) =   2
     Q(r) pseudized with 0 coefficients 


     atomic species   valence    mass     pseudopotential
        Ni1           10.00    58.69340     Ni( 1.00)

     Starting magnetic structure 
     atomic species   magnetization
        Ni1          0.500

      6 Sym. Ops. (no inversion) found



   Cartesian axes

     site n.     atom                  positions (alat units)
         1           Ni1 tau(   1) = (   1.7691699   1.7691699   0.0000000  )
         2           Ni1 tau(   2) = (   0.0000000   0.0000000   0.0000000  )
         3           Ni1 tau(   3) = (   1.7691699   0.0000000   1.7691699  )
         4           Ni1 tau(   4) = (   0.0000000   1.7691699   1.7691699  )

     number of k points=    32  Methfessel-Paxton smearing, width (Ry)=  0.0500
                       cart. coord. in units 2pi/alat
        k(    1) = (   0.0000000   0.0000000   0.0000000), wk =   0.0046296
        k(    2) = (   0.0000000   0.0000000   0.0473122), wk =   0.0277778
        k(    3) = (   0.0000000   0.0000000   0.0946244), wk =   0.0277778
        k(    4) = (   0.0000000   0.0000000  -0.1419366), wk =   0.0138889
        k(    5) = (   0.0000000   0.0473122   0.0473122), wk =   0.0277778
        k(    6) = (   0.0000000   0.0473122   0.0946244), wk =   0.0555556
        k(    7) = (   0.0000000   0.0473122  -0.1419366), wk =   0.0555556
        k(    8) = (   0.0000000   0.0946244   0.0946244), wk =   0.0277778
        k(    9) = (   0.0000000   0.0946244  -0.1419366), wk =   0.0555556
        k(   10) = (   0.0000000  -0.1419366  -0.1419366), wk =   0.0138889
        k(   11) = (   0.0473122   0.0473122   0.0473122), wk =   0.0092593
        k(   12) = (   0.0473122   0.0473122   0.0946244), wk =   0.0277778
        k(   13) = (   0.0473122   0.0473122  -0.1419366), wk =   0.0277778
        k(   14) = (   0.0473122   0.0946244   0.0946244), wk =   0.0277778
        k(   15) = (   0.0473122   0.0946244  -0.1419366), wk =   0.0555556
        k(   16) = (   0.0473122  -0.1419366  -0.1419366), wk =   0.0277778
        k(   17) = (   0.0946244   0.0946244   0.0946244), wk =   0.0092593
        k(   18) = (   0.0946244   0.0946244  -0.1419366), wk =   0.0277778
        k(   19) = (   0.0946244  -0.1419366  -0.1419366), wk =   0.0277778
        k(   20) = (  -0.1419366  -0.1419366  -0.1419366), wk =   0.0046296
        k(   21) = (  -0.0473122   0.0000000   0.0473122), wk =   0.0277778
        k(   22) = (  -0.0473122   0.0000000   0.0946244), wk =   0.0555556
        k(   23) = (  -0.0946244   0.0000000   0.0946244), wk =   0.0277778
        k(   24) = (   0.0473122  -0.0473122   0.0473122), wk =   0.0277778
        k(   25) = (   0.0473122  -0.0473122   0.0946244), wk =   0.0555556
        k(   26) = (  -0.0946244   0.0473122   0.0473122), wk =   0.0277778
        k(   27) = (   0.0473122  -0.0473122  -0.1419366), wk =   0.0277778
        k(   28) = (   0.0946244  -0.0473122   0.0946244), wk =   0.0277778
        k(   29) = (  -0.0946244   0.0473122   0.0946244), wk =   0.0555556
        k(   30) = (   0.0946244  -0.0473122  -0.1419366), wk =   0.0555556
        k(   31) = (   0.0946244  -0.0946244   0.0946244), wk =   0.0277778
        k(   32) = (   0.0946244  -0.0946244  -0.1419366), wk =   0.0277778

     Dense  grid:    39847 G-vectors     FFT dimensions: (  45,  45,  45)

     Smooth grid:     2325 G-vectors     FFT dimensions: (  18,  18,  18)

     Largest allocated arrays     est. size (Mb)     dimensions
        Kohn-Sham Wavefunctions         0.24 Mb     (     304,   52)
        NL pseudopotentials             0.33 Mb     (     304,   72)
        Each V/rho on FFT grid          2.78 Mb     (   91125,   2)
        Each G-vector array             0.30 Mb     (   39847)
        G-vector shells                 0.30 Mb     (   39847)
     Largest temporary arrays     est. size (Mb)     dimensions
        Auxiliary wavefunctions         0.96 Mb     (     304,  208)
        Each subspace H/S matrix        0.66 Mb     (     208,  208)
        Each <psi_i|beta_j> matrix      0.06 Mb     (      72,   52)
        Arrays for rho mixing          11.12 Mb     (   91125,    8)

     Check: negative/imaginary core charge=   -0.000005    0.000000

     Initial potential from superposition of free atoms

     starting charge   39.99816, renormalised to   40.00000
     Starting wfc are   24 randomized atomic wfcs +   28 random wfc

     total cpu time spent up to now is        7.0 secs

     Self-consistent Calculation

     iteration #  1     ecut=    15.00 Ry     beta=0.20
     Davidson diagonalization with overlap
     ethr =  1.00E-02,  avg # of iterations =  5.2

     total cpu time spent up to now is       27.9 secs

     total energy              =    -342.87536247 Ry
     Harris-Foulkes estimate   =    -343.14046714 Ry
     estimated scf accuracy    <       2.41062528 Ry

     total magnetization       =     6.84 Bohr mag/cell
     absolute magnetization    =     6.85 Bohr mag/cell

     iteration #  2     ecut=    15.00 Ry     beta=0.20
     Davidson diagonalization with overlap
     ethr =  6.03E-03,  avg # of iterations =  1.0

     total cpu time spent up to now is       34.9 secs

     total energy              =    -343.16325336 Ry
     Harris-Foulkes estimate   =    -343.00293412 Ry
     estimated scf accuracy    <       0.80993504 Ry

     total magnetization       =     5.72 Bohr mag/cell
     absolute magnetization    =     5.82 Bohr mag/cell

     iteration #  3     ecut=    15.00 Ry     beta=0.20
     Davidson diagonalization with overlap
     ethr =  2.02E-03,  avg # of iterations =  1.1

     negative rho (up, down):  0.000E+00 2.408E-03

     total cpu time spent up to now is       42.0 secs

     total energy              =    -343.45683935 Ry
     Harris-Foulkes estimate   =    -343.24546953 Ry
     estimated scf accuracy    <       0.35965561 Ry

     total magnetization       =     4.42 Bohr mag/cell
     absolute magnetization    =     4.74 Bohr mag/cell

     iteration #  4     ecut=    15.00 Ry     beta=0.20
     Davidson diagonalization with overlap
     ethr =  8.99E-04,  avg # of iterations =  1.1

     negative rho (up, down):  0.000E+00 1.582E-03

     total cpu time spent up to now is       49.1 secs

     total energy              =    -343.55331403 Ry
     Harris-Foulkes estimate   =    -343.56869864 Ry
     estimated scf accuracy    <       0.12388835 Ry

     total magnetization       =     2.50 Bohr mag/cell
     absolute magnetization    =     3.08 Bohr mag/cell

     iteration #  5     ecut=    15.00 Ry     beta=0.20
     Davidson diagonalization with overlap
     ethr =  3.10E-04,  avg # of iterations =  1.0

     negative rho (up, down):  0.000E+00 9.702E-04

     total cpu time spent up to now is       56.2 secs

     total energy              =    -343.56650282 Ry
     Harris-Foulkes estimate   =    -343.56123771 Ry
     estimated scf accuracy    <       0.02095685 Ry

     total magnetization       =     2.54 Bohr mag/cell
     absolute magnetization    =     3.11 Bohr mag/cell

     iteration #  6     ecut=    15.00 Ry     beta=0.20
     Davidson diagonalization with overlap
     ethr =  5.24E-05,  avg # of iterations =  1.5

     negative rho (up, down):  0.000E+00 3.762E-04

     total cpu time spent up to now is       63.6 secs

     total energy              =    -343.57886030 Ry
     Harris-Foulkes estimate   =    -343.56956011 Ry
     estimated scf accuracy    <       0.00083695 Ry

     total magnetization       =     2.62 Bohr mag/cell
     absolute magnetization    =     3.17 Bohr mag/cell

     iteration #  7     ecut=    15.00 Ry     beta=0.20
     Davidson diagonalization with overlap
     ethr =  2.09E-06,  avg # of iterations =  4.1

     negative rho (up, down):  0.000E+00 2.858E-04

     total cpu time spent up to now is       73.5 secs

     total energy              =    -343.58248082 Ry
     Harris-Foulkes estimate   =    -343.58078784 Ry
     estimated scf accuracy    <       0.00148478 Ry

     total magnetization       =     2.95 Bohr mag/cell
     absolute magnetization    =     3.40 Bohr mag/cell

     iteration #  8     ecut=    15.00 Ry     beta=0.20
     Davidson diagonalization with overlap
     ethr =  2.09E-06,  avg # of iterations =  1.2

     negative rho (up, down):  0.000E+00 1.470E-04

     total cpu time spent up to now is       80.7 secs

     total energy              =    -343.58484203 Ry
     Harris-Foulkes estimate   =    -343.58285154 Ry
     estimated scf accuracy    <       0.00007057 Ry

     total magnetization       =     2.84 Bohr mag/cell
     absolute magnetization    =     3.27 Bohr mag/cell

     iteration #  9     ecut=    15.00 Ry     beta=0.20
     Davidson diagonalization with overlap
     ethr =  1.76E-07,  avg # of iterations =  1.0

     negative rho (up, down):  0.000E+00 3.099E-05

     total cpu time spent up to now is       87.7 secs

     total energy              =    -343.58692196 Ry
     Harris-Foulkes estimate   =    -343.58487962 Ry
     estimated scf accuracy    <       0.00003132 Ry

     total magnetization       =     2.80 Bohr mag/cell
     absolute magnetization    =     3.21 Bohr mag/cell

     iteration # 10     ecut=    15.00 Ry     beta=0.20
     Davidson diagonalization with overlap
     ethr =  7.83E-08,  avg # of iterations =  1.1

     negative rho (up, down):  0.000E+00 4.219E-06

     total cpu time spent up to now is       94.8 secs

     total energy              =    -343.58800370 Ry
     Harris-Foulkes estimate   =    -343.58693860 Ry
     estimated scf accuracy    <       0.00001420 Ry

     total magnetization       =     2.82 Bohr mag/cell
     absolute magnetization    =     3.23 Bohr mag/cell

     iteration # 11     ecut=    15.00 Ry     beta=0.20
     Davidson diagonalization with overlap
     ethr =  3.55E-08,  avg # of iterations =  1.3

     total cpu time spent up to now is      102.0 secs

     total energy              =    -343.58865124 Ry
     Harris-Foulkes estimate   =    -343.58800665 Ry
     estimated scf accuracy    <       0.00000838 Ry

     total magnetization       =     2.81 Bohr mag/cell
     absolute magnetization    =     3.21 Bohr mag/cell

     iteration # 12     ecut=    15.00 Ry     beta=0.20
     Davidson diagonalization with overlap
     ethr =  2.10E-08,  avg # of iterations =  1.0

     total cpu time spent up to now is      109.1 secs

     total energy              =    -343.58915527 Ry
     Harris-Foulkes estimate   =    -343.58865553 Ry
     estimated scf accuracy    <       0.00000028 Ry

     total magnetization       =     2.80 Bohr mag/cell
     absolute magnetization    =     3.20 Bohr mag/cell

     iteration # 13     ecut=    15.00 Ry     beta=0.20
     Davidson diagonalization with overlap
     ethr =  6.97E-10,  avg # of iterations =  2.0

     total cpu time spent up to now is      117.1 secs

     total energy              =    -343.58947459 Ry
     Harris-Foulkes estimate   =    -343.58915531 Ry
     estimated scf accuracy    <       0.00000018 Ry

     total magnetization       =     2.80 Bohr mag/cell
     absolute magnetization    =     3.20 Bohr mag/cell

     iteration # 14     ecut=    15.00 Ry     beta=0.20
     Davidson diagonalization with overlap
     ethr =  4.59E-10,  avg # of iterations =  2.0

     total cpu time spent up to now is      125.1 secs

     total energy              =    -343.58966928 Ry
     Harris-Foulkes estimate   =    -343.58947467 Ry
     estimated scf accuracy    <       0.00000075 Ry

     total magnetization       =     2.80 Bohr mag/cell
     absolute magnetization    =     3.20 Bohr mag/cell

     iteration # 15     ecut=    15.00 Ry     beta=0.20
     Davidson diagonalization with overlap
     ethr =  4.59E-10,  avg # of iterations =  2.0

     total cpu time spent up to now is      133.2 secs

     total energy              =    -343.58979855 Ry
     Harris-Foulkes estimate   =    -343.58966945 Ry
     estimated scf accuracy    <       0.00000006 Ry

     total magnetization       =     2.80 Bohr mag/cell
     absolute magnetization    =     3.19 Bohr mag/cell

     iteration # 16     ecut=    15.00 Ry     beta=0.20
     Davidson diagonalization with overlap
     ethr =  1.47E-10,  avg # of iterations =  2.0

     total cpu time spent up to now is      141.3 secs

     total energy              =    -343.58988274 Ry
     Harris-Foulkes estimate   =    -343.58979856 Ry
     estimated scf accuracy    <       0.00000010 Ry

     total magnetization       =     2.80 Bohr mag/cell
     absolute magnetization    =     3.19 Bohr mag/cell

     iteration # 17     ecut=    15.00 Ry     beta=0.20
     Davidson diagonalization with overlap
     ethr =  1.47E-10,  avg # of iterations =  1.5

     total cpu time spent up to now is      148.8 secs

     total energy              =    -343.58993683 Ry
     Harris-Foulkes estimate   =    -343.58988274 Ry
     estimated scf accuracy    <       0.00000009 Ry

     total magnetization       =     2.80 Bohr mag/cell
     absolute magnetization    =     3.19 Bohr mag/cell

     iteration # 18     ecut=    15.00 Ry     beta=0.20
     Davidson diagonalization with overlap
     ethr =  1.47E-10,  avg # of iterations =  1.5

     total cpu time spent up to now is      156.2 secs

     total energy              =    -343.58997125 Ry
     Harris-Foulkes estimate   =    -343.58993683 Ry
     estimated scf accuracy    <       0.00000012 Ry

     total magnetization       =     2.80 Bohr mag/cell
     absolute magnetization    =     3.19 Bohr mag/cell

     iteration # 19     ecut=    15.00 Ry     beta=0.20
     Davidson diagonalization with overlap
     ethr =  1.47E-10,  avg # of iterations =  1.1

     total cpu time spent up to now is      163.3 secs

     total energy              =    -343.58999345 Ry
     Harris-Foulkes estimate   =    -343.58997126 Ry
     estimated scf accuracy    <       0.00000018 Ry

     total magnetization       =     2.80 Bohr mag/cell
     absolute magnetization    =     3.19 Bohr mag/cell

     iteration # 20     ecut=    15.00 Ry     beta=0.20
     Davidson diagonalization with overlap
     ethr =  1.47E-10,  avg # of iterations =  1.3

     total cpu time spent up to now is      170.6 secs

     total energy              =    -343.59000764 Ry
     Harris-Foulkes estimate   =    -343.58999345 Ry
     estimated scf accuracy    <       0.00000011 Ry

     total magnetization       =     2.80 Bohr mag/cell
     absolute magnetization    =     3.19 Bohr mag/cell

     iteration # 21     ecut=    15.00 Ry     beta=0.20
     Davidson diagonalization with overlap
     ethr =  1.47E-10,  avg # of iterations =  1.0

     total cpu time spent up to now is      177.6 secs

     total energy              =    -343.59001669 Ry
     Harris-Foulkes estimate   =    -343.59000764 Ry
     estimated scf accuracy    <       0.00000007 Ry

     total magnetization       =     2.80 Bohr mag/cell
     absolute magnetization    =     3.19 Bohr mag/cell

     iteration # 22     ecut=    15.00 Ry     beta=0.20
     Davidson diagonalization with overlap
     ethr =  1.47E-10,  avg # of iterations =  1.0

     total cpu time spent up to now is      184.6 secs

     total energy              =    -343.59002252 Ry
     Harris-Foulkes estimate   =    -343.59001669 Ry
     estimated scf accuracy    <       0.00000007 Ry

     total magnetization       =     2.80 Bohr mag/cell
     absolute magnetization    =     3.19 Bohr mag/cell

     iteration # 23     ecut=    15.00 Ry     beta=0.20
     Davidson diagonalization with overlap
     ethr =  1.47E-10,  avg # of iterations =  1.0

     total cpu time spent up to now is      191.7 secs

     total energy              =    -343.59002623 Ry
     Harris-Foulkes estimate   =    -343.59002252 Ry
     estimated scf accuracy    <       0.00000004 Ry

     total magnetization       =     2.80 Bohr mag/cell
     absolute magnetization    =     3.19 Bohr mag/cell

     iteration # 24     ecut=    15.00 Ry     beta=0.20
     Davidson diagonalization with overlap
     ethr =  9.71E-11,  avg # of iterations =  1.0

     total cpu time spent up to now is      198.7 secs

     total energy              =    -343.59002862 Ry
     Harris-Foulkes estimate   =    -343.59002623 Ry
     estimated scf accuracy    <       0.00000005 Ry

     total magnetization       =     2.80 Bohr mag/cell
     absolute magnetization    =     3.19 Bohr mag/cell

     iteration # 25     ecut=    15.00 Ry     beta=0.20
     Davidson diagonalization with overlap
     ethr =  9.71E-11,  avg # of iterations =  1.0

     total cpu time spent up to now is      205.7 secs

     total energy              =    -343.59003014 Ry
     Harris-Foulkes estimate   =    -343.59002862 Ry
     estimated scf accuracy    <       0.00000002 Ry

     total magnetization       =     2.80 Bohr mag/cell
     absolute magnetization    =     3.19 Bohr mag/cell

     iteration # 26     ecut=    15.00 Ry     beta=0.20
     Davidson diagonalization with overlap
     ethr =  5.01E-11,  avg # of iterations =  1.0

     total cpu time spent up to now is      212.7 secs

     total energy              =    -343.59003111 Ry
     Harris-Foulkes estimate   =    -343.59003014 Ry
     estimated scf accuracy    <       0.00000002 Ry

     total magnetization       =     2.80 Bohr mag/cell
     absolute magnetization    =     3.19 Bohr mag/cell

     iteration # 27     ecut=    15.00 Ry     beta=0.20
     Davidson diagonalization with overlap
     ethr =  4.10E-11,  avg # of iterations =  1.0

     total cpu time spent up to now is      219.8 secs

     total energy              =    -343.59003173 Ry
     Harris-Foulkes estimate   =    -343.59003111 Ry
     estimated scf accuracy    <       0.00000001 Ry

     total magnetization       =     2.80 Bohr mag/cell
     absolute magnetization    =     3.19 Bohr mag/cell

     iteration # 28     ecut=    15.00 Ry     beta=0.20
     Davidson diagonalization with overlap
     ethr =  3.68E-11,  avg # of iterations =  1.0

     total cpu time spent up to now is      226.8 secs

     total energy              =    -343.59003213 Ry
     Harris-Foulkes estimate   =    -343.59003173 Ry
     estimated scf accuracy    <       0.00000002 Ry

     total magnetization       =     2.80 Bohr mag/cell
     absolute magnetization    =     3.19 Bohr mag/cell

     iteration # 29     ecut=    15.00 Ry     beta=0.20
     Davidson diagonalization with overlap
     ethr =  3.68E-11,  avg # of iterations =  1.0

     total cpu time spent up to now is      233.8 secs

     total energy              =    -343.59003239 Ry
     Harris-Foulkes estimate   =    -343.59003213 Ry
     estimated scf accuracy    <       0.00000001 Ry

     total magnetization       =     2.80 Bohr mag/cell
     absolute magnetization    =     3.19 Bohr mag/cell

     iteration # 30     ecut=    15.00 Ry     beta=0.20
     Davidson diagonalization with overlap
     ethr =  3.44E-11,  avg # of iterations =  1.0

     total cpu time spent up to now is      240.8 secs

     total energy              =    -343.59003255 Ry
     Harris-Foulkes estimate   =    -343.59003239 Ry
     estimated scf accuracy    <       0.00000001 Ry

     total magnetization       =     2.80 Bohr mag/cell
     absolute magnetization    =     3.19 Bohr mag/cell

     iteration # 31     ecut=    15.00 Ry     beta=0.20
     Davidson diagonalization with overlap
     ethr =  3.44E-11,  avg # of iterations =  1.0

     total cpu time spent up to now is      247.9 secs

     total energy              =    -343.59003265 Ry
     Harris-Foulkes estimate   =    -343.59003255 Ry
     estimated scf accuracy    <       0.00000001 Ry

     total magnetization       =     2.80 Bohr mag/cell
     absolute magnetization    =     3.19 Bohr mag/cell

     iteration # 32     ecut=    15.00 Ry     beta=0.20
     Davidson diagonalization with overlap
     ethr =  3.25E-11,  avg # of iterations =  1.0

     total cpu time spent up to now is      254.9 secs

     total energy              =    -343.59003272 Ry
     Harris-Foulkes estimate   =    -343.59003265 Ry
     estimated scf accuracy    <       0.00000001 Ry

     total magnetization       =     2.80 Bohr mag/cell
     absolute magnetization    =     3.19 Bohr mag/cell

     iteration # 33     ecut=    15.00 Ry     beta=0.20
     Davidson diagonalization with overlap
     ethr =  3.25E-11,  avg # of iterations =  1.0

     Magnetic moment per site:
     atom:    1    charge:    3.0479    magn:    0.3296    constr:    0.0000
     atom:    2    charge:    3.0462    magn:    0.3294    constr:    0.0000
     atom:    3    charge:    3.0479    magn:    0.3296    constr:    0.0000
     atom:    4    charge:    3.0479    magn:    0.3296    constr:    0.0000

     total cpu time spent up to now is      261.9 secs

     End of self-consistent calculation

 ------ SPIN UP ------------


          k = 0.0000 0.0000 0.0000 (   257 PWs)   bands (ev):

     5.2292   9.4737   9.4737   9.4737   9.9118   9.9124   9.9124  11.6402
    11.6402  11.6402  12.7894  12.7894  13.5809  13.5809  13.5809  13.6640
    13.6640  13.6640  13.6643  13.6643  13.6643  16.7486  16.7488  16.7488
    23.9661  23.9661  23.9661  29.1000  29.1000  29.1000  29.1003  29.1003
    29.1003  35.8981  35.8983  35.8983  38.0200  38.0201  38.0201  38.0878
    41.9011  41.9011  41.9011  47.6378  47.7751  47.7751  47.7751  54.3711
    54.3711  54.3711  59.0753  59.0768

          k = 0.0000 0.0000 0.0473 (   280 PWs)   bands (ev):

     5.5909   9.4954   9.6526   9.6526  10.0185  10.0344  10.0348  11.5152
    11.7440  11.7440  12.6849  12.8379  12.9642  12.9642  13.3833  13.3833
    13.4223  13.4223  13.4682  13.6194  13.6194  15.1604  17.7087  17.7089
    23.9873  23.9874  25.8999  27.5531  27.5534  28.0481  28.0481  29.6736
    29.6736  35.6698  37.6518  37.6572  37.7059  37.7361  39.8275  39.8276
    40.1187  40.1187  40.4873  48.5453  48.9219  48.9798  48.9798  51.5549
    55.9752  55.9752  56.3340  56.3349

          k = 0.0000 0.0000 0.0946 (   284 PWs)   bands (ev):

     6.6289   9.2689  10.0780  10.0780  10.3160  10.4047  10.4054  11.1815
    11.9186  11.9193  12.0489  12.0489  12.4035  12.9737  12.9737  12.9754
    12.9933  13.0036  13.0036  13.3253  13.6141  13.6141  19.6799  19.6801
    24.2635  24.2635  24.8003  24.8004  26.3371  26.3371  30.2317  31.2767
    31.2767  35.8782  36.9877  36.9877  37.0398  38.0984  38.2165  41.2312
    41.2315  43.6499  43.8904  43.8904  50.8962  50.8962  51.0650  51.0650
    51.9360  54.9520  56.8369  56.8369

          k = 0.0000 0.0000-0.1419 (   288 PWs)   bands (ev):

     8.1039   8.1272  10.3482  10.3482  10.7212  10.7529  11.0245  11.0247
    11.0569  11.0571  12.1989  12.2433  12.4535  12.4535  12.4778  12.4778
    12.7647  12.7647  13.1299  13.1484  13.6166  13.6166  22.1260  22.1263
    22.1931  22.1933  24.7651  24.7651  25.3268  25.3268  33.6716  33.6716
    33.7152  33.7152  34.7906  34.8920  36.3025  36.3394  39.5122  39.6450
    45.9824  45.9825  46.1155  46.1156  47.1750  47.1750  53.0916  53.0916
    53.5625  53.5625  53.6698  53.6698

          k = 0.0000 0.0473 0.0473 (   282 PWs)   bands (ev):

     5.9445   9.6883   9.6883   9.8108  10.1327  10.1332  10.1463  11.4609
    11.7879  11.8074  12.6188  12.6535  12.6721  12.6870  12.8455  13.2256
    13.3537  13.3538  13.4280  13.4280  13.5306  16.1048  16.1048  18.4807
    23.9533  24.7720  26.1886  26.1888  28.0537  28.0538  28.4956  28.4963
    30.2152  36.2335  36.5138  37.1233  37.7478  37.7487  39.8092  39.8097
    40.7776  42.7319  43.1445  45.3115  48.0931  49.8303  50.7255  53.5710
    54.0874  55.2466  55.2485  56.1622

          k = 0.0000 0.0473 0.0946 (   293 PWs)   bands (ev):

     6.9552   9.4995  10.1574  10.2030  10.4058  10.4601  10.4756  11.1842
    11.6841  11.8216  11.9303  12.0504  12.0692  12.4967  12.9054  12.9718
    12.9971  13.0202  13.1671  13.4194  13.4310  14.1006  17.7285  20.2795
    21.8746  24.4951  25.2809  26.3917  26.9670  29.4159  29.6128  29.6634
    30.7189  33.7732  34.2523  38.2043  38.8517  40.1965  40.2983  40.4471
    41.4515  43.5626  44.3943  47.1591  47.9211  49.7062  50.0230  51.1893
    52.7518  52.9672  55.6111  56.7481

          k = 0.0000 0.0473-0.1419 (   288 PWs)   bands (ev):

     8.3825   8.4043  10.4959  10.4973  10.7733  10.8040  10.8970  10.9234
    11.0386  11.0702  11.8485  11.8820  12.4569  12.4818  12.7010  12.7118
    12.7319  12.7328  13.3333  13.3339  13.4213  13.4265  19.6281  19.6601
    22.6291  22.6912  25.2387  25.2796  28.0272  28.0402  31.3820  31.4002
    31.7996  31.8177  35.6496  35.7702  39.0946  39.1038  41.5405  41.6162
    42.9851  43.0166  46.2146  46.3352  50.0717  50.1926  50.1950  50.2382
    52.6531  52.7105  53.5489  53.5911

          k = 0.0000 0.0946 0.0946 (   290 PWs)   bands (ev):

     7.8723  10.0734  10.0736  10.4253  10.6648  10.6662  10.6915  11.1151
    11.3558  11.3560  11.5223  11.8170  12.1815  12.4098  12.7050  12.8470
    12.8476  12.9870  12.9872  13.1942  13.3619  15.3594  15.3594  19.1264
    21.9245  25.0241  26.5591  26.5592  27.5951  27.5957  30.8938  31.3614
    31.3675  31.4881  33.3006  37.0380  41.0955  42.0902  42.0907  42.9322
    43.1701  43.1707  43.2556  46.6533  48.6767  48.6777  48.7310  51.8722
    52.0896  52.5802  53.9006  54.9726

          k = 0.0000 0.0946-0.1419 (   296 PWs)   bands (ev):

     9.1170   9.1350  10.5221  10.5426  10.8940  10.9131  10.9283  10.9357
    11.0576  11.0868  11.5485  11.5703  12.5096  12.5105  12.5116  12.5341
    12.5756  12.5769  13.0189  13.0338  14.0270  14.0314  16.9128  16.9377
    24.0170  24.0606  25.9449  25.9797  28.4585  28.4812  29.2735  29.2767
    32.6764  32.6824  36.5185  36.6270  40.1562  40.1741  42.7523  42.7616
    43.0773  43.0872  46.6846  46.7864  47.8148  47.8598  50.9405  50.9997
    51.8349  51.9199  53.3578  53.3664

          k = 0.0000-0.1419-0.1419 (   300 PWs)   bands (ev):

     9.9497   9.9653   9.9653   9.9802  11.0026  11.0301  11.0301  11.0574
    11.3244  11.3324  11.3324  11.3400  12.3558  12.3580  12.3580  12.3609
    12.6717  12.6954  12.6954  12.7188  15.1016  15.1123  15.1123  15.1230
    25.9278  25.9592  25.9592  25.9900  27.2826  27.3036  27.3037  27.3253
    37.5796  37.6127  37.6127  37.6485  38.1842  38.2147  38.2148  38.2388
    46.7090  46.7129  46.7129  46.7192  49.8361  49.8992  49.8992  49.9641
    51.5079  51.5102  51.5102  51.5113

          k = 0.0473 0.0473 0.0473 (   293 PWs)   bands (ev):

     6.2866   9.8440   9.8442   9.8442  10.2431  10.2439  10.2439  11.4211
    11.8243  11.8243  12.3743  12.3743  12.3744  12.7669  12.7669  12.9947
    12.9953  12.9953  13.5294  13.5294  13.5296  16.7223  16.7225  16.7225
    25.0694  25.0697  25.0697  26.3780  26.3780  26.3783  30.7417  30.7422
    30.7422  33.3935  36.4944  36.4944  36.4946  38.8565  41.1178  41.1178
    42.6583  42.6583  42.6583  46.0884  48.1508  48.1508  52.4420  52.4420
    54.9733  54.9753  54.9753  55.7530

          k = 0.0473 0.0473 0.0946 (   294 PWs)   bands (ev):

     7.2583   9.6540  10.2150  10.2153  10.5205  10.5519  10.5522  11.2194
    11.6776  11.6777  11.8562  11.9064  11.9591  12.5941  12.6672  12.7545
    12.7567  13.0031  13.4366  13.4367  13.4631  14.4678  18.1022  18.1024
    22.4454  22.4454  26.3384  27.0631  27.0633  30.0590  30.0595  30.6146
    30.7858  32.2406  36.7624  37.6627  37.6992  38.8821  38.8822  42.2340
    43.2329  44.0654  46.9399  46.9400  48.1674  49.1366  50.4218  50.4225
    51.0311  52.8619  52.9319  56.1845

          k = 0.0473 0.0473-0.1419 (   282 PWs)   bands (ev):

     8.6084   8.6278  10.5904  10.5918  10.6507  10.6510  10.8692  10.8980
    11.2942  11.2942  11.7570  11.7898  12.2316  12.2437  12.6002  12.6008
    13.1538  13.1776  13.2804  13.2860  13.3934  13.3935  19.3032  19.3033
    20.8950  20.8951  28.0927  28.1000  28.2765  28.3029  28.5501  28.5637
    34.6870  34.7293  35.4471  35.5432  37.9425  38.0219  41.8770  41.8771
    44.3159  44.3473  45.9606  45.9609  49.7653  49.8321  51.0722  51.0894
    52.2891  52.2892  53.8956  53.9125

          k = 0.0473 0.0946 0.0946 (   286 PWs)   bands (ev):

     8.0897   9.9622   9.9626  10.2388  10.8361  10.8775  10.8780  11.2685
    11.4738  11.4741  11.6130  11.8232  11.9477  12.4159  12.4165  12.4317
    12.7481  13.2801  13.3414  13.3519  13.3552  15.5192  15.5193  18.4059
    20.5237  23.6882  23.6883  27.7646  27.8973  31.0245  31.0246  31.7875
    31.7880  33.6867  35.1608  36.9430  39.2510  39.2514  39.6971  42.8050
    44.4519  44.6175  46.5518  46.5518  49.2475  49.2476  50.4377  50.8102
    50.8861  52.3867  52.5147  53.0619

          k = 0.0473 0.0946-0.1419 (   290 PWs)   bands (ev):

     9.1546   9.1669  10.1746  10.1782  11.0388  11.0399  11.1761  11.1995
    11.4806  11.4904  11.5875  11.6088  12.0881  12.0963  12.2950  12.2999
    13.0223  13.0318  13.2385  13.2481  13.9415  13.9455  16.8931  16.9125
    21.5715  21.5891  25.4523  25.4672  29.2268  29.2352  32.8911  32.8938
    32.9891  32.9963  36.6649  36.7596  39.7652  39.7813  40.1285  40.1469
    45.5393  45.5407  46.1941  46.2396  47.5272  47.5591  51.1292  51.1552
    51.7653  51.7835  53.8858  53.9133

          k = 0.0473-0.1419-0.1419 (   292 PWs)   bands (ev):

     9.7141   9.7197   9.7197   9.7245  11.4073  11.4156  11.4156  11.4230
    11.4998  11.5151  11.5151  11.5308  12.0559  12.0635  12.0635  12.0713
    12.9840  12.9987  12.9987  13.0136  15.0177  15.0297  15.0297  15.0417
    23.2593  23.2736  23.2736  23.2875  30.7622  30.7675  30.7675  30.7731
    37.8845  37.9058  37.9058  37.9499  37.9771  38.0132  38.0132  38.0235
    46.7321  46.7359  46.7359  46.7411  47.3117  47.3472  47.3472  47.3808
    54.5649  54.5894  54.5894  54.6181

          k = 0.0946 0.0946 0.0946 (   296 PWs)   bands (ev):

     8.6304   9.7988   9.7994   9.7994  11.2232  11.2238  11.2238  11.7371
    11.7789  11.7789  11.7972  11.8004  11.8004  12.0679  12.0679  12.0684
    13.1082  13.1082  13.4696  13.4696  13.4698  15.8923  15.8925  15.8925
    21.1742  21.1742  21.1742  24.9252  32.3262  32.3262  32.3267  34.9402
    34.9406  34.9406  37.0659  37.0659  37.0663  37.4167  39.6652  39.6652
    44.8786  44.8786  47.3743  48.3891  48.3891  48.3906  48.5949  48.5949
    48.5949  52.1386  52.1398  52.1398

          k = 0.0946 0.0946-0.1419 (   298 PWs)   bands (ev):

     9.2455   9.2491   9.7314   9.7318  11.3389  11.3392  11.6075  11.6253
    11.8269  11.8295  11.9387  11.9417  11.9704  11.9888  12.0722  12.0729
    13.3875  13.3897  13.3953  13.3970  13.8279  13.8294  16.1538  16.1539
    20.1280  20.1280  22.7913  22.8054  33.3518  33.3520  34.2078  34.2085
    36.1452  36.1903  36.9640  36.9804  38.5067  38.5612  38.9130  38.9132
    45.2366  45.2367  45.4643  45.4999  46.4737  46.4949  48.9299  48.9302
    49.5294  49.5310  53.0236  53.0264

          k = 0.0946-0.1419-0.1419 (   292 PWs)   bands (ev):

     9.4185   9.4193   9.4193   9.4194  11.5714  11.5763  11.5763  11.5806
    11.7566  11.7614  11.7614  11.7665  12.5049  12.5150  12.5150  12.5252
    13.3138  13.3216  13.3216  13.3295  14.6319  14.6454  14.6454  14.6587
    20.8959  20.9085  20.9085  20.9208  34.9723  34.9819  34.9819  34.9916
    37.7014  37.7119  37.7119  37.7236  38.5249  38.5451  38.5451  38.5623
    44.7975  44.8199  44.8200  44.8415  45.6947  45.7044  45.7045  45.7116
    50.7135  50.7227  50.7227  50.7328

          k =-0.1419-0.1419-0.1419 (   304 PWs)   bands (ev):

     9.3058   9.3065   9.3065   9.3065  11.6496  11.6496  11.6496  11.6498
    11.6498  11.6504  11.6504  11.6504  13.4364  13.4364  13.4364  13.4373
    13.4373  13.4375  13.4375  13.4375  14.0104  14.0111  14.0111  14.0111
    19.9387  19.9387  19.9387  19.9387  36.5368  36.5370  36.5370  36.5371
    38.9683  38.9683  38.9685  38.9685  38.9685  38.9695  38.9695  38.9696
    43.6358  43.6358  43.6376  43.6377  43.6377  43.6380  43.6380  43.6380
    48.7070  48.7076  48.7076  48.7076

          k =-0.0473 0.0000 0.0473 (   282 PWs)   bands (ev):

     5.9445   9.6883   9.6883   9.8108  10.1327  10.1332  10.1463  11.4609
    11.7879  11.8074  12.6188  12.6535  12.6721  12.6870  12.8455  13.2256
    13.3537  13.3538  13.4280  13.4280  13.5306  16.1048  16.1048  18.4807
    23.9533  24.7720  26.1886  26.1888  28.0537  28.0538  28.4956  28.4963
    30.2152  36.2335  36.5138  37.1233  37.7478  37.7487  39.8091  39.8098
    40.7776  42.7319  43.1445  45.3115  48.0931  49.8303  50.7255  53.5710
    54.0874  55.2466  55.2485  56.1622

          k =-0.0473 0.0000 0.0946 (   293 PWs)   bands (ev):

     6.9552   9.4995  10.1574  10.2030  10.4058  10.4601  10.4756  11.1842
    11.6841  11.8216  11.9303  12.0504  12.0692  12.4967  12.9054  12.9718
    12.9971  13.0202  13.1671  13.4194  13.4310  14.1006  17.7285  20.2795
    21.8746  24.4951  25.2809  26.3917  26.9670  29.4159  29.6128  29.6634
    30.7189  33.7732  34.2523  38.2043  38.8517  40.1965  40.2983  40.4471
    41.4515  43.5626  44.3943  47.1591  47.9211  49.7062  50.0230  51.1893
    52.7518  52.9672  55.6111  56.7481

          k =-0.0946 0.0000 0.0946 (   290 PWs)   bands (ev):

     7.8723  10.0734  10.0736  10.4253  10.6648  10.6662  10.6915  11.1151
    11.3558  11.3560  11.5223  11.8170  12.1815  12.4098  12.7050  12.8470
    12.8476  12.9870  12.9872  13.1942  13.3619  15.3594  15.3594  19.1264
    21.9245  25.0241  26.5591  26.5592  27.5951  27.5957  30.8938  31.3614
    31.3675  31.4881  33.3006  37.0380  41.0955  42.0902  42.0907  42.9322
    43.1700  43.1708  43.2556  46.6533  48.6767  48.6777  48.7310  51.8722
    52.0896  52.5802  53.9006  54.9726

          k = 0.0473-0.0473 0.0473 (   293 PWs)   bands (ev):

     6.2866   9.8440   9.8442   9.8442  10.2431  10.2439  10.2439  11.4211
    11.8243  11.8243  12.3743  12.3743  12.3744  12.7669  12.7669  12.9947
    12.9953  12.9953  13.5294  13.5294  13.5296  16.7223  16.7225  16.7225
    25.0694  25.0697  25.0697  26.3780  26.3780  26.3783  30.7417  30.7421
    30.7422  33.3935  36.4944  36.4944  36.4946  38.8565  41.1178  41.1178
    42.6582  42.6583  42.6583  46.0884  48.1508  48.1508  52.4420  52.4420
    54.9733  54.9753  54.9753  55.7530

          k = 0.0473-0.0473 0.0946 (   294 PWs)   bands (ev):

     7.2583   9.6540  10.2150  10.2153  10.5205  10.5520  10.5522  11.2194
    11.6776  11.6777  11.8562  11.9064  11.9591  12.5941  12.6672  12.7545
    12.7567  13.0031  13.4366  13.4367  13.4631  14.4678  18.1022  18.1024
    22.4454  22.4454  26.3384  27.0631  27.0633  30.0590  30.0595  30.6146
    30.7858  32.2406  36.7624  37.6627  37.6992  38.8820  38.8822  42.2340
    43.2329  44.0654  46.9399  46.9400  48.1674  49.1366  50.4218  50.4226
    51.0311  52.8619  52.9319  56.1842

          k =-0.0946 0.0473 0.0473 (   294 PWs)   bands (ev):

     7.2583   9.6540  10.2150  10.2153  10.5205  10.5519  10.5522  11.2194
    11.6776  11.6777  11.8562  11.9064  11.9591  12.5941  12.6672  12.7545
    12.7567  13.0031  13.4366  13.4367  13.4631  14.4678  18.1022  18.1024
    22.4454  22.4454  26.3384  27.0631  27.0633  30.0590  30.0595  30.6146
    30.7858  32.2406  36.7624  37.6627  37.6992  38.8821  38.8822  42.2340
    43.2329  44.0654  46.9399  46.9400  48.1674  49.1366  50.4218  50.4225
    51.0311  52.8619  52.9319  56.1879

          k = 0.0473-0.0473-0.1419 (   282 PWs)   bands (ev):

     8.6084   8.6278  10.5904  10.5918  10.6507  10.6509  10.8692  10.8980
    11.2942  11.2942  11.7570  11.7898  12.2316  12.2437  12.6002  12.6008
    13.1538  13.1776  13.2804  13.2860  13.3934  13.3935  19.3032  19.3033
    20.8950  20.8951  28.0927  28.0999  28.2765  28.3029  28.5501  28.5636
    34.6870  34.7293  35.4471  35.5432  37.9425  38.0219  41.8770  41.8771
    44.3159  44.3473  45.9606  45.9609  49.7653  49.8321  51.0722  51.0894
    52.2891  52.2892  53.8956  53.9124

          k = 0.0946-0.0473 0.0946 (   286 PWs)   bands (ev):

     8.0897   9.9622   9.9626  10.2388  10.8361  10.8775  10.8780  11.2685
    11.4738  11.4741  11.6130  11.8232  11.9477  12.4159  12.4165  12.4317
    12.7481  13.2801  13.3414  13.3519  13.3552  15.5192  15.5193  18.4059
    20.5237  23.6882  23.6883  27.7646  27.8973  31.0245  31.0246  31.7875
    31.7880  33.6867  35.1608  36.9430  39.2510  39.2514  39.6971  42.8050
    44.4519  44.6175  46.5518  46.5518  49.2475  49.2476  50.4377  50.8102
    50.8861  52.3867  52.5147  53.0619

          k =-0.0946 0.0473 0.0946 (   286 PWs)   bands (ev):

     8.0897   9.9622   9.9625  10.2388  10.8361  10.8775  10.8780  11.2685
    11.4738  11.4741  11.6130  11.8232  11.9477  12.4159  12.4165  12.4317
    12.7481  13.2801  13.3414  13.3519  13.3551  15.5192  15.5193  18.4059
    20.5237  23.6882  23.6883  27.7646  27.8973  31.0245  31.0247  31.7875
    31.7879  33.6867  35.1608  36.9430  39.2510  39.2514  39.6971  42.8050
    44.4519  44.6175  46.5518  46.5518  49.2475  49.2476  50.4377  50.8102
    50.8861  52.3867  52.5147  53.0616

          k = 0.0946-0.0473-0.1419 (   290 PWs)   bands (ev):

     9.1546   9.1669  10.1746  10.1782  11.0388  11.0399  11.1761  11.1995
    11.4806  11.4904  11.5875  11.6088  12.0881  12.0963  12.2950  12.2999
    13.0223  13.0318  13.2385  13.2481  13.9415  13.9455  16.8931  16.9125
    21.5715  21.5891  25.4523  25.4672  29.2268  29.2352  32.8911  32.8938
    32.9891  32.9963  36.6649  36.7596  39.7652  39.7813  40.1285  40.1469
    45.5393  45.5407  46.1941  46.2396  47.5272  47.5591  51.1292  51.1552
    51.7653  51.7835  53.8858  53.9133

          k = 0.0946-0.0946 0.0946 (   296 PWs)   bands (ev):

     8.6304   9.7988   9.7994   9.7994  11.2232  11.2238  11.2238  11.7371
    11.7789  11.7789  11.7972  11.8004  11.8004  12.0679  12.0679  12.0684
    13.1082  13.1082  13.4696  13.4696  13.4698  15.8923  15.8925  15.8925
    21.1742  21.1742  21.1742  24.9252  32.3262  32.3262  32.3267  34.9402
    34.9406  34.9406  37.0659  37.0659  37.0663  37.4167  39.6652  39.6652
    44.8786  44.8786  47.3743  48.3891  48.3891  48.3906  48.5948  48.5948
    48.5949  52.1387  52.1398  52.1398

          k = 0.0946-0.0946-0.1419 (   298 PWs)   bands (ev):

     9.2455   9.2491   9.7314   9.7318  11.3389  11.3392  11.6075  11.6253
    11.8269  11.8295  11.9386  11.9417  11.9704  11.9888  12.0722  12.0729
    13.3875  13.3897  13.3953  13.3970  13.8279  13.8294  16.1538  16.1539
    20.1280  20.1280  22.7913  22.8054  33.3518  33.3520  34.2078  34.2085
    36.1452  36.1903  36.9640  36.9804  38.5067  38.5612  38.9130  38.9132
    45.2366  45.2367  45.4643  45.4999  46.4737  46.4949  48.9299  48.9302
    49.5294  49.5310  53.0236  53.0264

 ------ SPIN DOWN ----------


          k = 0.0000 0.0000 0.0000 (   257 PWs)   bands (ev):

     5.1804   9.9370   9.9370   9.9370  10.6202  10.6210  10.6210  12.4981
    12.4981  12.4981  13.5524  13.5524  14.3697  14.3698  14.3698  14.6377
    14.6377  14.6377  14.6381  14.6381  14.6381  16.6754  16.6757  16.6757
    24.2420  24.2421  24.2421  29.0933  29.0934  29.0934  29.0938  29.0938
    29.0938  35.9650  35.9654  35.9654  37.8827  38.1295  38.1297  38.1297
    41.8801  41.8801  41.8801  47.4723  47.7502  47.7502  47.7502  54.5591
    54.5591  54.5591  59.0368  59.0383

          k = 0.0000 0.0000 0.0473 (   280 PWs)   bands (ev):

     5.5422   9.9129  10.1249  10.1249  10.7356  10.7400  10.7405  12.3607
    12.6049  12.6049  13.4373  13.6023  13.7637  13.7640  14.1632  14.1632
    14.2595  14.3849  14.3849  14.5968  14.5968  15.2286  17.8096  17.8099
    24.2502  24.2502  26.0867  27.6047  27.6051  28.0765  28.0765  29.6814
    29.6814  35.7384  37.5607  37.6739  37.6788  37.8352  39.9235  39.9236
    40.1440  40.1440  40.4221  48.6005  48.8705  48.8994  48.8994  51.5299
    56.1677  56.1677  56.2503  56.2513

          k = 0.0000 0.0000 0.0946 (   284 PWs)   bands (ev):

     6.5844   9.4819  10.5725  10.5725  11.0565  11.1045  11.1053  11.9952
    12.6333  12.6341  12.9196  12.9196  13.1232  13.3572  13.7439  13.7439
    13.7449  13.9118  13.9118  14.1112  14.5920  14.5920  19.8527  19.8530
    24.4862  24.4862  24.9210  24.9211  26.4309  26.4309  30.3133  31.3148
    31.3148  35.9160  36.9513  37.0438  37.0438  38.1069  38.2474  41.1916
    41.1920  43.8660  43.9700  43.9701  50.8015  50.8015  50.9537  50.9537
    51.8435  54.8111  56.9546  57.0809

          k = 0.0000 0.0000-0.1419 (   288 PWs)   bands (ev):

     8.1024   8.1263  10.8566  10.8566  11.4952  11.5290  11.7195  11.7202
    11.7525  11.7530  12.8335  12.8819  13.3501  13.3501  13.3754  13.3754
    13.4934  13.4934  13.9080  13.9271  14.5944  14.5944  22.2880  22.2883
    22.3557  22.3560  24.9275  24.9276  25.4900  25.4900  33.7332  33.7332
    33.7764  33.7764  34.7481  34.8504  36.2859  36.3258  39.7117  39.8470
    45.8944  45.8946  46.0291  46.0292  47.2385  47.2386  53.2164  53.2164
    53.4521  53.4521  53.5594  53.5594

          k = 0.0000 0.0473 0.0473 (   282 PWs)   bands (ev):

     5.8967  10.1177  10.1177  10.3012  10.8361  10.8460  10.8466  12.2929
    12.6537  12.6605  13.3666  13.3901  13.4052  13.4332  13.6140  13.9979
    14.1275  14.1276  14.3906  14.3906  14.4987  16.4007  16.4007  18.6366
    24.1833  24.8901  26.3602  26.3604  28.1180  28.1180  28.5390  28.5398
    30.2308  36.1885  36.5679  37.1266  37.7589  37.7598  39.9116  39.9120
    40.7050  42.7806  43.1258  45.2452  48.0572  49.9585  50.6298  53.4485
    54.2248  55.1729  55.1749  56.0882

          k = 0.0000 0.0473 0.0946 (   293 PWs)   bands (ev):

     6.9154   9.7269  10.6192  10.7327  11.1114  11.1411  11.1815  11.9880
    12.3629  12.5286  12.7103  12.7544  12.9271  13.2434  13.6536  13.7380
    13.8099  13.8958  13.9109  14.3830  14.3973  14.7837  18.0474  20.4698
    22.0510  24.7067  25.4116  26.4983  27.1044  29.5029  29.6669  29.7231
    30.8145  33.8226  34.2856  38.1931  38.8562  40.2185  40.3108  40.3770
    41.4072  43.6363  44.6017  47.1878  47.8260  49.6282  49.9737  51.0924
    52.6849  52.8780  55.7344  56.6328

          k = 0.0000 0.0473-0.1419 (   288 PWs)   bands (ev):

     8.3930   8.4158  10.9955  10.9982  11.5340  11.5651  11.5685  11.5953
    11.7367  11.7689  12.5702  12.6083  13.3552  13.3805  13.4513  13.4585
    13.4681  13.4701  14.1494  14.1502  14.3850  14.3908  19.8892  19.9216
    22.8022  22.8642  25.3941  25.4378  28.1349  28.1501  31.4731  31.4895
    31.8523  31.8686  35.6577  35.7767  39.0488  39.0595  41.6953  41.7742
    42.9609  42.9954  46.1237  46.2458  50.1010  50.1068  50.1522  50.2205
    52.5468  52.6048  53.6617  53.7029

          k = 0.0000 0.0946 0.0946 (   290 PWs)   bands (ev):

     7.8557  10.3507  10.3509  11.0796  11.1707  11.3880  11.3895  11.8934
    12.0374  12.0374  12.2176  12.5905  13.0698  13.1407  13.4413  13.5695
    13.5700  13.9200  13.9201  14.1422  14.1823  15.9388  15.9390  19.4104
    22.1249  25.2063  26.7031  26.7032  27.6902  27.6909  30.9978  31.4410
    31.4476  31.5487  33.3516  37.0368  41.0285  42.0332  42.0338  42.8128
    43.2170  43.2176  43.2946  46.7402  48.6793  48.6822  48.6832  51.7320
    52.1010  52.4973  54.0474  54.8989

          k = 0.0000 0.0946-0.1419 (   296 PWs)   bands (ev):

     9.1831   9.2026  10.9423  10.9625  11.5503  11.5519  11.6474  11.6774
    11.7644  11.7946  12.2699  12.2939  13.2289  13.2299  13.2940  13.2973
    13.4217  13.4488  13.9582  13.9743  14.8076  14.8129  17.3535  17.3777
    24.2013  24.2438  26.0856  26.1231  28.5977  28.6184  29.3561  29.3608
    32.7386  32.7469  36.5340  36.6420  40.1415  40.1574  42.7836  42.7921
    42.9891  42.9979  46.5909  46.6933  47.8544  47.9020  50.8518  50.9117
    51.9156  51.9996  53.2600  53.2679

          k = 0.0000-0.1419-0.1419 (   300 PWs)   bands (ev):

    10.1720  10.1893  10.1893  10.2062  11.7254  11.7547  11.7547  11.7835
    11.9810  11.9901  11.9902  11.9991  13.0796  13.0822  13.0822  13.0854
    13.5904  13.6151  13.6151  13.6397  15.7587  15.7679  15.7679  15.7767
    26.1032  26.1328  26.1328  26.1618  27.3963  27.4192  27.4193  27.4430
    37.6506  37.6822  37.6822  37.7178  38.1382  38.1674  38.1675  38.1890
    46.5826  46.5875  46.5875  46.5949  49.7728  49.8364  49.8364  49.9019
    51.5834  51.5883  51.5883  51.5920

          k = 0.0473 0.0473 0.0473 (   293 PWs)   bands (ev):

     6.2416  10.2998  10.2999  10.2999  10.9336  10.9347  10.9347  12.2360
    12.6787  12.6787  13.0715  13.0715  13.0715  13.5337  13.5337  13.8060
    13.8067  13.8067  14.4506  14.4506  14.4510  17.0445  17.0448  17.0448
    25.1818  25.1820  25.1820  26.5418  26.5418  26.5421  30.7665  30.7672
    30.7672  33.4375  36.5461  36.5461  36.5463  38.6969  41.1550  41.1550
    42.7151  42.7151  42.7151  46.0078  48.0808  48.0808  52.5427  52.5427
    54.9111  54.9132  54.9132  55.7955

          k = 0.0473 0.0473 0.0946 (   294 PWs)   bands (ev):

     7.2288   9.9211  10.7448  10.7450  11.1702  11.1711  11.2220  11.9983
    12.3656  12.3657  12.5206  12.7131  12.7982  13.4211  13.4568  13.5233
    13.5265  13.8035  14.3393  14.3723  14.3729  15.0742  18.4093  18.4095
    22.6367  22.6367  26.4658  27.1991  27.1994  30.1264  30.1270  30.7074
    30.8611  32.2869  36.8036  37.5451  37.7662  38.8851  38.8852  42.2344
    43.2887  44.0967  46.9528  46.9529  48.1358  49.0516  50.3753  50.3762
    51.0233  52.7725  52.8697  56.0992

          k = 0.0473 0.0473-0.1419 (   282 PWs)   bands (ev):

     8.6475   8.6685  11.1623  11.1624  11.2206  11.2219  11.6044  11.6356
    11.9922  11.9925  12.4873  12.5233  13.0611  13.0709  13.3447  13.3452
    13.9348  13.9602  14.1180  14.1211  14.3366  14.3368  19.5398  19.5400
    21.1789  21.1789  28.1855  28.1919  28.3983  28.4235  28.6659  28.6801
    34.7505  34.7919  35.3926  35.4888  38.0062  38.0864  41.8523  41.8524
    44.3804  44.4150  45.8959  45.8963  49.6592  49.7255  50.9871  51.0045
    52.2881  52.2882  54.0040  54.0318

          k = 0.0473 0.0946 0.0946 (   286 PWs)   bands (ev):

     8.1069  10.3564  10.3567  10.8499  11.3402  11.4704  11.4712  11.9799
    12.1789  12.1793  12.3076  12.6051  12.7501  13.1942  13.1963  13.1999
    13.5688  14.1059  14.2393  14.2409  14.2649  16.0464  16.0467  18.6605
    20.8468  23.8853  23.8854  27.9016  28.0155  31.0710  31.0712  31.8758
    31.8763  33.7397  35.1699  36.9372  39.2459  39.2463  39.6243  42.9317
    44.3822  44.5405  46.5202  46.5202  49.2597  49.2598  50.3404  50.7574
    50.8339  52.3911  52.5342  52.9633

          k = 0.0473 0.0946-0.1419 (   290 PWs)   bands (ev):

     9.3070   9.3229  10.7038  10.7106  11.5892  11.5923  11.8080  11.8346
    12.1574  12.1697  12.3296  12.3533  12.8737  12.8800  13.0515  13.0555
    13.8622  13.8758  14.1484  14.1593  14.7081  14.7134  17.2823  17.3008
    21.8512  21.8672  25.6325  25.6458  29.3143  29.3250  32.9377  32.9382
    33.0473  33.0567  36.6630  36.7558  39.7427  39.7577  40.1477  40.1673
    45.4877  45.4886  46.1337  46.1806  47.4949  47.5292  51.1022  51.1279
    51.6859  51.7030  53.9193  53.9478

          k = 0.0473-0.1419-0.1419 (   292 PWs)   bands (ev):

    10.0683  10.0783  10.0783  10.0875  11.9786  11.9913  11.9913  12.0038
    12.1745  12.1905  12.1905  12.2064  12.8156  12.8222  12.8222  12.8292
    13.8701  13.8869  13.8869  13.9039  15.6386  15.6488  15.6488  15.6586
    23.4967  23.5092  23.5092  23.5213  30.8309  30.8383  30.8383  30.8460
    37.9166  37.9209  37.9209  37.9560  37.9599  38.0067  38.0067  38.0197
    46.6320  46.6359  46.6360  46.6414  47.2848  47.3220  47.3220  47.3573
    54.6029  54.6284  54.6284  54.6585

          k = 0.0946 0.0946 0.0946 (   296 PWs)   bands (ev):

     8.7679  10.3057  10.3064  10.3064  11.7810  11.7816  11.7816  12.2497
    12.4561  12.4561  12.4581  12.5685  12.5685  12.8402  12.8402  12.8407
    13.9675  13.9675  14.3726  14.3726  14.3730  16.2961  16.2965  16.2965
    21.4903  21.4904  21.4904  25.1298  32.3618  32.3618  32.3624  34.9994
    35.0000  35.0000  37.0567  37.0567  37.0568  37.2445  39.7534  39.7534
    44.8322  44.8322  47.3713  48.3059  48.3059  48.3074  48.5489  48.5490
    48.5490  52.1483  52.1494  52.1494

          k = 0.0946 0.0946-0.1419 (   298 PWs)   bands (ev):

     9.5782   9.5859  10.2657  10.2662  11.9656  11.9660  12.2656  12.2834
    12.5028  12.5245  12.6013  12.6031  12.6623  12.6626  12.7040  12.7041
    14.2729  14.2761  14.2993  14.3004  14.5144  14.5181  16.4651  16.4652
    20.5388  20.5389  23.0579  23.0705  33.3391  33.3393  34.2945  34.2952
    36.0156  36.0616  37.0342  37.0493  38.5911  38.6455  38.8909  38.8912
    45.2095  45.2097  45.3979  45.4339  46.4304  46.4526  48.8519  48.8523
    49.5419  49.5436  53.0754  53.0781

          k = 0.0946-0.1419-0.1419 (   292 PWs)   bands (ev):

     9.8866   9.8893   9.8893   9.8911  12.2922  12.2968  12.2969  12.3012
    12.5160  12.5204  12.5204  12.5253  12.9461  12.9579  12.9579  12.9697
    14.2068  14.2155  14.2156  14.2246  15.1345  15.1457  15.1457  15.1564
    21.2628  21.2739  21.2739  21.2846  34.9314  34.9433  34.9434  34.9554
    37.6745  37.6837  37.6837  37.6942  38.5995  38.6189  38.6189  38.6354
    44.7681  44.7916  44.7917  44.8143  45.6383  45.6487  45.6488  45.6568
    50.7491  50.7581  50.7581  50.7682

          k =-0.1419-0.1419-0.1419 (   304 PWs)   bands (ev):

     9.8054   9.8061   9.8061   9.8062  12.4064  12.4064  12.4064  12.4068
    12.4068  12.4072  12.4072  12.4072  13.9147  13.9147  13.9147  13.9159
    14.3370  14.3370  14.3374  14.3375  14.3375  14.3380  14.3380  14.3380
    20.3934  20.3936  20.3936  20.3936  36.3544  36.3546  36.3546  36.3548
    39.0489  39.0489  39.0490  39.0490  39.0490  39.0501  39.0501  39.0502
    43.6024  43.6024  43.6042  43.6042  43.6042  43.6044  43.6045  43.6045
    48.7892  48.7896  48.7896  48.7896

          k =-0.0473 0.0000 0.0473 (   282 PWs)   bands (ev):

     5.8967  10.1177  10.1177  10.3012  10.8361  10.8460  10.8466  12.2929
    12.6537  12.6605  13.3666  13.3901  13.4052  13.4332  13.6140  13.9979
    14.1275  14.1276  14.3906  14.3906  14.4987  16.4007  16.4007  18.6366
    24.1833  24.8901  26.3601  26.3604  28.1179  28.1181  28.5390  28.5398
    30.2308  36.1885  36.5679  37.1266  37.7589  37.7598  39.9115  39.9122
    40.7050  42.7806  43.1258  45.2452  48.0572  49.9585  50.6298  53.4485
    54.2248  55.1729  55.1749  56.0882

          k =-0.0473 0.0000 0.0946 (   293 PWs)   bands (ev):

     6.9154   9.7269  10.6192  10.7327  11.1114  11.1411  11.1815  11.9880
    12.3629  12.5286  12.7103  12.7544  12.9271  13.2434  13.6536  13.7380
    13.8099  13.8958  13.9109  14.3830  14.3973  14.7837  18.0474  20.4698
    22.0510  24.7067  25.4116  26.4983  27.1044  29.5029  29.6669  29.7231
    30.8145  33.8226  34.2856  38.1931  38.8562  40.2185  40.3108  40.3770
    41.4072  43.6363  44.6017  47.1878  47.8260  49.6282  49.9737  51.0924
    52.6849  52.8780  55.7344  56.6328

          k =-0.0946 0.0000 0.0946 (   290 PWs)   bands (ev):

     7.8557  10.3507  10.3509  11.0796  11.1707  11.3880  11.3895  11.8934
    12.0374  12.0374  12.2176  12.5905  13.0698  13.1407  13.4413  13.5694
    13.5701  13.9200  13.9201  14.1422  14.1823  15.9388  15.9390  19.4104
    22.1249  25.2063  26.7031  26.7033  27.6901  27.6909  30.9978  31.4410
    31.4476  31.5487  33.3516  37.0368  41.0285  42.0332  42.0337  42.8128
    43.2170  43.2177  43.2946  46.7402  48.6793  48.6822  48.6832  51.7320
    52.1010  52.4973  54.0474  54.8989

          k = 0.0473-0.0473 0.0473 (   293 PWs)   bands (ev):

     6.2416  10.2998  10.2999  10.2999  10.9336  10.9347  10.9347  12.2360
    12.6787  12.6787  13.0715  13.0715  13.0715  13.5337  13.5337  13.8060
    13.8066  13.8067  14.4506  14.4506  14.4510  17.0446  17.0448  17.0448
    25.1818  25.1820  25.1820  26.5418  26.5418  26.5421  30.7666  30.7671
    30.7672  33.4375  36.5461  36.5461  36.5463  38.6969  41.1550  41.1550
    42.7151  42.7151  42.7152  46.0078  48.0808  48.0808  52.5427  52.5427
    54.9111  54.9132  54.9132  55.7956

          k = 0.0473-0.0473 0.0946 (   294 PWs)   bands (ev):

     7.2288   9.9211  10.7448  10.7450  11.1702  11.1711  11.2220  11.9983
    12.3656  12.3657  12.5206  12.7131  12.7982  13.4211  13.4568  13.5233
    13.5265  13.8035  14.3393  14.3723  14.3729  15.0742  18.4093  18.4095
    22.6367  22.6367  26.4658  27.1992  27.1993  30.1265  30.1270  30.7074
    30.8611  32.2869  36.8036  37.5451  37.7662  38.8851  38.8852  42.2344
    43.2887  44.0967  46.9528  46.9530  48.1358  49.0516  50.3753  50.3762
    51.0233  52.7725  52.8697  56.0977

          k =-0.0946 0.0473 0.0473 (   294 PWs)   bands (ev):

     7.2288   9.9211  10.7448  10.7450  11.1702  11.1711  11.2220  11.9983
    12.3656  12.3657  12.5206  12.7131  12.7982  13.4211  13.4568  13.5233
    13.5265  13.8035  14.3393  14.3723  14.3729  15.0742  18.4093  18.4095
    22.6367  22.6367  26.4658  27.1991  27.1994  30.1264  30.1270  30.7074
    30.8611  32.2869  36.8036  37.5451  37.7662  38.8851  38.8852  42.2344
    43.2887  44.0967  46.9528  46.9529  48.1358  49.0516  50.3753  50.3762
    51.0233  52.7725  52.8697  56.0974

          k = 0.0473-0.0473-0.1419 (   282 PWs)   bands (ev):

     8.6475   8.6685  11.1623  11.1624  11.2206  11.2219  11.6044  11.6356
    11.9922  11.9925  12.4873  12.5233  13.0611  13.0709  13.3447  13.3453
    13.9348  13.9602  14.1180  14.1211  14.3366  14.3368  19.5399  19.5400
    21.1789  21.1789  28.1855  28.1919  28.3983  28.4235  28.6660  28.6800
    34.7505  34.7919  35.3926  35.4888  38.0062  38.0864  41.8522  41.8524
    44.3804  44.4150  45.8959  45.8963  49.6592  49.7255  50.9871  51.0045
    52.2881  52.2882  54.0040  54.0318

          k = 0.0946-0.0473 0.0946 (   286 PWs)   bands (ev):

     8.1069  10.3564  10.3567  10.8499  11.3402  11.4704  11.4712  11.9799
    12.1789  12.1793  12.3076  12.6051  12.7501  13.1942  13.1963  13.1999
    13.5688  14.1059  14.2393  14.2409  14.2649  16.0464  16.0467  18.6605
    20.8468  23.8853  23.8854  27.9016  28.0155  31.0710  31.0712  31.8758
    31.8763  33.7397  35.1699  36.9372  39.2459  39.2463  39.6243  42.9317
    44.3822  44.5405  46.5202  46.5202  49.2597  49.2598  50.3404  50.7574
    50.8339  52.3911  52.5342  52.9645

          k =-0.0946 0.0473 0.0946 (   286 PWs)   bands (ev):

     8.1069  10.3564  10.3567  10.8499  11.3402  11.4704  11.4712  11.9799
    12.1789  12.1793  12.3076  12.6051  12.7501  13.1942  13.1963  13.1999
    13.5688  14.1059  14.2393  14.2408  14.2649  16.0464  16.0467  18.6605
    20.8468  23.8853  23.8854  27.9016  28.0155  31.0710  31.0712  31.8758
    31.8763  33.7397  35.1699  36.9372  39.2458  39.2463  39.6243  42.9317
    44.3822  44.5405  46.5202  46.5202  49.2597  49.2598  50.3404  50.7574
    50.8339  52.3911  52.5342  52.9633

          k = 0.0946-0.0473-0.1419 (   290 PWs)   bands (ev):

     9.3070   9.3229  10.7038  10.7106  11.5892  11.5923  11.8080  11.8346
    12.1574  12.1697  12.3296  12.3533  12.8737  12.8800  13.0515  13.0555
    13.8622  13.8758  14.1484  14.1593  14.7081  14.7134  17.2823  17.3008
    21.8512  21.8672  25.6325  25.6458  29.3143  29.3250  32.9377  32.9382
    33.0473  33.0567  36.6630  36.7558  39.7427  39.7577  40.1477  40.1673
    45.4878  45.4885  46.1337  46.1806  47.4949  47.5292  51.1022  51.1279
    51.6859  51.7030  53.9192  53.9478

          k = 0.0946-0.0946 0.0946 (   296 PWs)   bands (ev):

     8.7679  10.3057  10.3064  10.3064  11.7810  11.7816  11.7816  12.2497
    12.4561  12.4561  12.4581  12.5685  12.5685  12.8402  12.8402  12.8407
    13.9675  13.9675  14.3726  14.3726  14.3730  16.2962  16.2965  16.2965
    21.4903  21.4904  21.4904  25.1298  32.3618  32.3618  32.3624  34.9995
    34.9999  35.0000  37.0566  37.0567  37.0569  37.2445  39.7534  39.7534
    44.8322  44.8322  47.3713  48.3058  48.3059  48.3074  48.5489  48.5490
    48.5490  52.1483  52.1494  52.1494

          k = 0.0946-0.0946-0.1419 (   298 PWs)   bands (ev):

     9.5782   9.5859  10.2657  10.2662  11.9656  11.9660  12.2656  12.2834
    12.5028  12.5245  12.6013  12.6031  12.6623  12.6626  12.7040  12.7041
    14.2729  14.2761  14.2992  14.3004  14.5144  14.5181  16.4651  16.4652
    20.5388  20.5389  23.0579  23.0705  33.3391  33.3393  34.2945  34.2952
    36.0156  36.0616  37.0341  37.0493  38.5911  38.6455  38.8909  38.8912
    45.2095  45.2097  45.3979  45.4339  46.4304  46.4526  48.8519  48.8523
    49.5419  49.5436  53.0754  53.0781

     the Fermi energy is    14.1406 ev

!    total energy              =    -343.59003284 Ry
     Harris-Foulkes estimate   =    -343.59003272 Ry
     estimated scf accuracy    <          8.2E-09 Ry

     The total energy is the sum of the following terms:

     one-electron contribution =      -8.59222846 Ry
     hartree contribution      =      60.95054144 Ry
     xc contribution           =    -120.41453260 Ry
     ewald contribution        =    -275.48620515 Ry
     Dispersion Correction     =      -0.04675218 Ry
     smearing contrib. (-TS)   =      -0.00085589 Ry

     total magnetization       =     2.80 Bohr mag/cell
     absolute magnetization    =     3.19 Bohr mag/cell

     convergence has been achieved in  33 iterations

     Forces acting on atoms (Ry/au):

     atom    1 type  1   force =    -0.00267729   -0.00267729    0.00267761
     atom    2 type  1   force =     0.00267697    0.00267697    0.00267697
     atom    3 type  1   force =    -0.00267729    0.00267761   -0.00267729
     atom    4 type  1   force =     0.00267761   -0.00267729   -0.00267729

     Total force =     0.009274     Total SCF correction =     0.000006


     entering subroutine stress ...

          total   stress  (Ry/bohr**3)                   (kbar)     P= -155.60
  -0.00105776  -0.00000000  -0.00000000       -155.60     -0.00     -0.00
  -0.00000000  -0.00105776  -0.00000000         -0.00   -155.60     -0.00
  -0.00000000  -0.00000000  -0.00105776         -0.00     -0.00   -155.60


     BFGS Geometry Optimization

     number of scf cycles    =   1
     number of bfgs steps    =   0

     enthalpy new            =    -343.5900328424 Ry

     new trust radius        =       0.0908386047 bohr
     new conv_thr            =       0.0000000100 Ry

     new unit-cell volume =    272.21127 a.u.^3 (    40.33755 Ang^3 )

CELL_PARAMETERS (alat=  1.88972590)
   3.429545377  -0.000000039  -0.000000039
  -0.000000039   3.429545377  -0.000000039
  -0.000000039  -0.000000039   3.429545377

ATOMIC_POSITIONS (alat)
Ni1      1.721006529   1.721006529   0.001379422
Ni1      0.001379130   0.001379130   0.001379130
Ni1      1.721006529   0.001379422   1.721006529
Ni1      0.001379422   1.721006529   1.721006529



     Writing output data file Ni-ferromag.save
     NEW-OLD atomic charge density approx. for the potential

     Check: negative/imaginary core charge=   -0.000005    0.000000
     extrapolated charge   36.65133, renormalised to   40.00000

     total cpu time spent up to now is      282.5 secs

     Self-consistent Calculation

     iteration #  1     ecut=    15.00 Ry     beta=0.20
     Davidson diagonalization with overlap
     ethr =  1.00E-06,  avg # of iterations =  5.8

     total cpu time spent up to now is      302.4 secs

     total energy              =    -341.92879899 Ry
     Harris-Foulkes estimate   =    -347.35746582 Ry
     estimated scf accuracy    <       2.77272044 Ry

     total magnetization       =     1.29 Bohr mag/cell
     absolute magnetization    =     1.60 Bohr mag/cell

     iteration #  2     ecut=    15.00 Ry     beta=0.20
     Davidson diagonalization with overlap
     ethr =  6.93E-03,  avg # of iterations =  3.5

     total cpu time spent up to now is      311.8 secs

     total energy              =    -343.63650932 Ry
     Harris-Foulkes estimate   =    -343.77463317 Ry
     estimated scf accuracy    <       0.67045624 Ry

     total magnetization       =     2.87 Bohr mag/cell
     absolute magnetization    =     3.22 Bohr mag/cell

     iteration #  3     ecut=    15.00 Ry     beta=0.20
     Davidson diagonalization with overlap
     ethr =  1.68E-03,  avg # of iterations =  1.3

     total cpu time spent up to now is      319.1 secs

     total energy              =    -343.55184866 Ry
     Harris-Foulkes estimate   =    -343.65762810 Ry
     estimated scf accuracy    <       0.23058615 Ry

     total magnetization       =     2.81 Bohr mag/cell
     absolute magnetization    =     3.16 Bohr mag/cell

     iteration #  4     ecut=    15.00 Ry     beta=0.20
     Davidson diagonalization with overlap
     ethr =  5.76E-04,  avg # of iterations =  2.7

     total cpu time spent up to now is      327.5 secs

     total energy              =    -343.60160229 Ry
     Harris-Foulkes estimate   =    -343.59659577 Ry
     estimated scf accuracy    <       0.00048827 Ry

     total magnetization       =     2.66 Bohr mag/cell
     absolute magnetization    =     3.03 Bohr mag/cell

     iteration #  5     ecut=    15.00 Ry     beta=0.20
     Davidson diagonalization with overlap
     ethr =  1.22E-06,  avg # of iterations =  5.3

     total cpu time spent up to now is      345.7 secs

     total energy              =    -343.59446745 Ry
     Harris-Foulkes estimate   =    -343.60853297 Ry
     estimated scf accuracy    <       0.04605016 Ry

     total magnetization       =     2.57 Bohr mag/cell
     absolute magnetization    =     2.93 Bohr mag/cell

     iteration #  6     ecut=    15.00 Ry     beta=0.20
     Davidson diagonalization with overlap
     ethr =  1.22E-06,  avg # of iterations =  3.5

     total cpu time spent up to now is      358.1 secs

     total energy              =    -343.59645292 Ry
     Harris-Foulkes estimate   =    -343.59795161 Ry
     estimated scf accuracy    <       0.00571984 Ry

     total magnetization       =     2.63 Bohr mag/cell
     absolute magnetization    =     2.99 Bohr mag/cell

     iteration #  7     ecut=    15.00 Ry     beta=0.20
     Davidson diagonalization with overlap
     ethr =  1.22E-06,  avg # of iterations =  2.5

     total cpu time spent up to now is      366.3 secs

     total energy              =    -343.59621845 Ry
     Harris-Foulkes estimate   =    -343.59676176 Ry
     estimated scf accuracy    <       0.00117499 Ry

     total magnetization       =     2.64 Bohr mag/cell
     absolute magnetization    =     3.00 Bohr mag/cell

     iteration #  8     ecut=    15.00 Ry     beta=0.20
     Davidson diagonalization with overlap
     ethr =  1.22E-06,  avg # of iterations =  2.7

     total cpu time spent up to now is      374.8 secs

     total energy              =    -343.59647466 Ry
     Harris-Foulkes estimate   =    -343.59645408 Ry
     estimated scf accuracy    <       0.00000351 Ry

     total magnetization       =     2.65 Bohr mag/cell
     absolute magnetization    =     3.01 Bohr mag/cell

     iteration #  9     ecut=    15.00 Ry     beta=0.20
     Davidson diagonalization with overlap
     ethr =  8.78E-09,  avg # of iterations =  2.9

     total cpu time spent up to now is      384.9 secs

     total energy              =    -343.59639773 Ry
     Harris-Foulkes estimate   =    -343.59654653 Ry
     estimated scf accuracy    <       0.00033195 Ry

     total magnetization       =     2.64 Bohr mag/cell
     absolute magnetization    =     3.00 Bohr mag/cell

     iteration # 10     ecut=    15.00 Ry     beta=0.20
     Davidson diagonalization with overlap
     ethr =  8.78E-09,  avg # of iterations =  2.8

     total cpu time spent up to now is      394.8 secs

     total energy              =    -343.59646240 Ry
     Harris-Foulkes estimate   =    -343.59646081 Ry
     estimated scf accuracy    <       0.00000031 Ry

     total magnetization       =     2.65 Bohr mag/cell
     absolute magnetization    =     3.00 Bohr mag/cell

     iteration # 11     ecut=    15.00 Ry     beta=0.20
     Davidson diagonalization with overlap
     ethr =  7.86E-10,  avg # of iterations =  1.0

     total cpu time spent up to now is      401.9 secs

     total energy              =    -343.59646362 Ry
     Harris-Foulkes estimate   =    -343.59646252 Ry
     estimated scf accuracy    <       0.00000014 Ry

     total magnetization       =     2.65 Bohr mag/cell
     absolute magnetization    =     3.00 Bohr mag/cell

     iteration # 12     ecut=    15.00 Ry     beta=0.20
     Davidson diagonalization with overlap
     ethr =  3.51E-10,  avg # of iterations =  1.0

     total cpu time spent up to now is      408.9 secs

     total energy              =    -343.59646431 Ry
     Harris-Foulkes estimate   =    -343.59646364 Ry
     estimated scf accuracy    <       0.00000007 Ry

     total magnetization       =     2.65 Bohr mag/cell
     absolute magnetization    =     3.00 Bohr mag/cell

     iteration # 13     ecut=    15.00 Ry     beta=0.20
     Davidson diagonalization with overlap
     ethr =  1.71E-10,  avg # of iterations =  1.0

     total cpu time spent up to now is      415.9 secs

     total energy              =    -343.59646476 Ry
     Harris-Foulkes estimate   =    -343.59646432 Ry
     estimated scf accuracy    <       0.00000002 Ry

     total magnetization       =     2.65 Bohr mag/cell
     absolute magnetization    =     3.00 Bohr mag/cell

     iteration # 14     ecut=    15.00 Ry     beta=0.20
     Davidson diagonalization with overlap
     ethr =  4.72E-11,  avg # of iterations =  1.0

     Magnetic moment per site:
     atom:    1    charge:    2.8204    magn:    0.2909    constr:    0.0000
     atom:    2    charge:    2.8184    magn:    0.2907    constr:    0.0000
     atom:    3    charge:    2.8204    magn:    0.2909    constr:    0.0000
     atom:    4    charge:    2.8204    magn:    0.2909    constr:    0.0000

     total cpu time spent up to now is      422.9 secs

     End of self-consistent calculation

 ------ SPIN UP ------------


          k = 0.0000 0.0000 0.0000 (   257 PWs)   bands (ev):

     6.2364  10.5903  10.5904  10.5904  11.0928  11.0931  11.0931  13.0491
    13.0491  13.0491  14.3440  14.3440  15.2038  15.2038  15.2038  15.3125
    15.3125  15.3125  15.3127  15.3127  15.3127  18.3805  18.3806  18.3806
    26.2591  26.2592  26.2592  31.4563  31.4564  31.4564  31.4565  31.4565
    31.4566  38.3589  38.3589  38.3589  40.3563  41.1185  41.1187  41.1187
    44.8278  44.8278  44.8278  50.6003  50.8515  50.8515  50.8515  58.4925
    58.4925  58.4925  62.5092  63.9970

          k = 0.0000 0.0000 0.0486 (   280 PWs)   bands (ev):

     6.6205  10.6224  10.7873  10.7873  11.2130  11.2307  11.2309  12.9060
    13.1637  13.1637  14.2184  14.3974  14.5209  14.5209  14.9974  14.9974
    15.0643  15.0643  15.1033  15.2801  15.2801  16.7694  19.4542  19.4543
    26.2697  26.2698  28.2295  29.8353  29.8355  30.4100  30.4100  32.0731
    32.0731  38.1354  40.0269  40.2179  40.2190  40.8578  42.9829  42.9830
    43.0354  43.0354  43.2282  52.0098  52.0098  52.0231  52.1171  54.9487
    59.7021  59.7025  60.2293  60.2293

          k = 0.0000 0.0000 0.0972 (   284 PWs)   bands (ev):

     7.7174  10.4228  11.2563  11.2563  11.5480  11.6488  11.6491  12.5249
    13.3444  13.3447  13.4996  13.4996  13.8958  14.5162  14.5474  14.5545
    14.5545  14.5731  14.5731  14.9456  15.2762  15.2762  21.5805  21.5806
    26.4999  26.5000  26.9678  26.9679  28.7190  28.7190  32.6267  33.7887
    33.7887  38.3210  39.3891  39.7947  39.7947  40.6977  41.3364  43.9665
    43.9666  47.2223  47.2224  47.3464  54.0565  54.0565  54.1329  54.1329
    55.1369  58.3306  60.4472  60.4472

          k =-0.0000-0.0000-0.1458 (   288 PWs)   bands (ev):

     9.2597   9.2731  11.5535  11.5535  12.0124  12.0352  12.3464  12.3465
    12.3690  12.3691  13.6761  13.7083  13.9773  13.9773  13.9946  13.9946
    14.2902  14.2902  14.7320  14.7450  15.2780  15.2780  24.1745  24.1746
    24.2178  24.2179  26.8493  26.8494  27.8474  27.8474  36.3412  36.3412
    36.3678  36.3678  37.1844  37.2511  38.7137  38.7392  43.0181  43.1126
    48.9259  48.9260  49.0179  49.0180  50.6611  50.6612  56.6267  56.6268
    56.7734  56.7734  59.3086  59.4011

          k = 0.0000 0.0486 0.0486 (   282 PWs)   bands (ev):

     6.9951  10.8347  10.8347  10.9637  11.3411  11.3413  11.3558  12.8407
    13.2131  13.2330  14.1296  14.1829  14.1953  14.2073  14.3994  14.8304
    14.9733  14.9733  15.0681  15.0681  15.1678  17.8304  17.8304  20.2971
    26.1311  27.0752  28.4961  28.4962  30.3716  30.3716  30.9159  30.9162
    32.6553  38.6784  39.1576  39.8252  40.3134  40.3138  42.9939  42.9940
    43.5324  45.8936  46.1292  48.2880  51.1707  53.6005  53.8222  56.8056
    57.9630  58.6181  58.6190  62.0412

          k = 0.0000 0.0486 0.0972 (   293 PWs)   bands (ev):

     8.0614  10.6724  11.3507  11.4014  11.6482  11.7048  11.7278  12.5277
    13.0849  13.2354  13.3700  13.5068  13.5223  14.0034  14.4662  14.5544
    14.5713  14.5987  14.7580  15.0608  15.0715  15.7738  19.5853  22.2249
    23.9076  26.8309  27.4802  28.5751  29.5007  31.8126  31.9726  32.0997
    33.3003  36.2797  36.8573  40.7818  41.5947  42.9621  43.1318  43.4498
    44.1950  46.8556  48.1138  50.5003  50.9200  52.7983  53.2507  54.3615
    56.0268  56.2057  59.2458  60.5121

          k =-0.0000 0.0486-0.1458 (   288 PWs)   bands (ev):

     9.5533   9.5658  11.7207  11.7216  12.0697  12.0917  12.2074  12.2258
    12.3625  12.3845  13.2763  13.3003  13.9797  13.9974  14.2351  14.2430
    14.2620  14.2628  14.9523  14.9525  15.0608  15.0646  21.5890  21.6090
    24.7131  24.7526  27.5456  27.5767  30.4555  30.4677  33.8636  33.8725
    34.3115  34.3195  38.2740  38.3498  41.7025  41.7083  44.9964  45.0542
    45.9441  45.9702  49.1687  49.2524  53.3205  53.3529  53.5972  53.6753
    55.8482  55.8897  57.0877  57.1125

          k = 0.0000 0.0972 0.0972 (   290 PWs)   bands (ev):

     9.0244  11.2953  11.2954  11.6740  11.9399  11.9412  11.9417  12.4493
    12.7185  12.7186  12.8930  13.2386  13.6532  13.9044  14.2325  14.3964
    14.3966  14.5699  14.5700  14.7881  14.9890  17.1285  17.1286  21.0479
    23.9640  27.3592  28.8366  28.8366  29.9584  29.9586  33.3345  33.9189
    33.9226  33.9975  35.9470  39.6673  43.8604  44.8560  44.8563  45.6747
    46.3326  46.3718  46.3723  50.2042  51.8272  51.9474  51.9478  55.0473
    55.5803  55.7862  57.3828  58.3669

          k =-0.0000 0.0972-0.1458 (   296 PWs)   bands (ev):

    10.3248  10.3349  11.7951  11.8084  12.2026  12.2075  12.2192  12.2333
    12.3838  12.4044  12.9344  12.9500  14.0175  14.0185  14.0315  14.0491
    14.0903  14.0922  14.6076  14.6183  15.7196  15.7230  18.7663  18.7817
    26.1833  26.2103  28.2975  28.3244  30.8265  30.8386  31.7098  31.7145
    35.2706  35.2784  39.2325  39.3035  42.9854  42.9948  45.8584  45.8652
    45.8659  45.8714  49.6689  49.7381  51.2149  51.2505  54.1027  54.1443
    55.5250  55.5780  56.6199  56.6246

          k =-0.0000-0.1458-0.1458 (   300 PWs)   bands (ev):

    11.1991  11.2082  11.2082  11.2171  12.3316  12.3511  12.3511  12.3705
    12.6698  12.6755  12.6755  12.6811  13.8494  13.8513  13.8513  13.8534
    14.2148  14.2315  14.2315  14.2481  16.8746  16.8810  16.8811  16.8875
    28.2043  28.2225  28.2225  28.2406  29.6706  29.6877  29.6877  29.7051
    40.4963  40.5154  40.5154  40.5375  40.8320  40.8511  40.8512  40.8657
    49.6375  49.6401  49.6401  49.6437  52.9949  53.0396  53.0396  53.0850
    55.2916  55.2969  55.2969  55.3018

          k = 0.0486 0.0486 0.0486 (   293 PWs)   bands (ev):

     7.3564  11.0088  11.0089  11.0089  11.4642  11.4645  11.4645  12.7984
    13.2533  13.2533  13.8574  13.8574  13.8575  14.3062  14.3062  14.5727
    14.5730  14.5730  15.1859  15.1859  15.1860  18.5054  18.5055  18.5055
    27.2521  27.2522  27.2522  28.7630  28.7630  28.7631  33.2182  33.2185
    33.2185  35.9089  39.1525  39.1525  39.1525  41.2708  44.1081  44.1081
    45.8318  45.8319  45.8319  49.1142  51.1937  51.1937  56.2801  56.2801
    58.3391  58.3391  59.0842  59.4313

          k = 0.0486 0.0486 0.0972 (   294 PWs)   bands (ev):

     8.3784  10.8399  11.4274  11.4275  11.7756  11.8007  11.8008  12.5666
    13.0751  13.0751  13.2868  13.3385  13.4052  14.1240  14.2025  14.2962
    14.2972  14.5754  15.0802  15.0802  15.1095  16.1579  19.9682  19.9683
    24.5685  24.5685  28.6281  29.4199  29.4200  32.5432  32.5434  33.0668
    33.2364  34.8164  39.4570  40.0587  40.5721  41.6375  41.6375  45.1906
    46.4472  47.2819  50.2181  50.2181  51.3886  52.1994  53.6557  53.6561
    54.3801  56.0880  56.2446  59.5501

          k = 0.0486 0.0486-0.1458 (   282 PWs)   bands (ev):

     9.7870   9.7979  11.8634  11.8639  11.8961  11.8962  12.1748  12.1954
    12.6407  12.6407  13.1713  13.1948  13.7080  13.7162  14.1147  14.1149
    14.7439  14.7611  14.8896  14.8933  15.0266  15.0266  21.1813  21.1814
    23.0126  23.0126  30.3509  30.3529  30.6625  30.6732  31.1147  31.1185
    37.4123  37.4373  37.8431  37.9041  40.8478  40.9011  44.7808  44.7808
    47.6475  47.6745  48.9361  48.9362  52.8454  52.8921  54.2376  54.2502
    55.8623  55.8623  57.4011  57.4106

          k = 0.0486 0.0972 0.0972 (   286 PWs)   bands (ev):

     9.2443  11.1765  11.1767  11.4732  12.1035  12.1626  12.1629  12.6157
    12.8517  12.8518  12.9969  13.2446  13.3873  13.9133  13.9136  13.9301
    14.2820  14.8917  14.9715  14.9819  14.9836  17.2723  17.2723  20.2298
    22.6478  25.8898  25.8899  30.1351  30.2661  33.3996  33.3996  34.4372
    34.4374  36.3556  37.7148  39.5736  42.0401  42.0402  42.3837  46.1576
    47.3018  47.5411  49.6775  49.6775  52.5931  52.5931  53.6250  54.0454
    54.1756  55.9363  55.9868  56.3093

          k = 0.0486 0.0972-0.1458 (   290 PWs)   bands (ev):

    10.3483  10.3547  11.4108  11.4128  12.3369  12.3377  12.5101  12.5270
    12.8507  12.8578  12.9789  12.9943  13.5468  13.5525  13.7770  13.7805
    14.6007  14.6078  14.8556  14.8625  15.6149  15.6181  18.7054  18.7172
    23.7179  23.7277  27.7383  27.7458  31.6321  31.6413  35.4057  35.4082
    35.5994  35.6077  39.3452  39.4046  42.5678  42.5771  43.0651  43.0791
    48.5312  48.5318  49.2078  49.2404  50.7431  50.7674  54.4604  54.4788
    55.0387  55.0485  57.3451  57.3626

          k = 0.0486-0.1458-0.1458 (   292 PWs)   bands (ev):

    10.9255  10.9280  10.9281  10.9302  12.7702  12.7753  12.7753  12.7802
    12.8654  12.8773  12.8773  12.8893  13.5098  13.5153  13.5153  13.5208
    14.5716  14.5822  14.5822  14.5928  16.7622  16.7694  16.7695  16.7767
    25.4701  25.4772  25.4772  25.4843  33.2163  33.2232  33.2232  33.2303
    40.5937  40.6059  40.6060  40.6225  40.8206  40.8429  40.8429  40.8596
    49.7034  49.7050  49.7050  49.7072  50.4673  50.4945  50.4945  50.5209
    58.3791  58.3791  58.8125  58.8154

          k = 0.0972 0.0972 0.0972 (   296 PWs)   bands (ev):

     9.7892  10.9979  10.9981  10.9981  12.5485  12.5488  12.5488  13.1218
    13.1942  13.1942  13.1988  13.2101  13.2101  13.5208  13.5208  13.5210
    14.7104  14.7104  15.1213  15.1213  15.1214  17.6180  17.6181  17.6181
    23.3251  23.3251  23.3251  27.1989  34.7866  34.7866  34.7868  37.6813
    37.6815  37.6815  39.7040  39.7423  39.7423  39.7431  42.7248  42.7248
    47.8220  47.8220  50.6467  51.4589  51.4589  51.4596  51.7515  51.7516
    51.7516  55.7660  55.7665  55.7665

          k = 0.0972 0.0972-0.1458 (   298 PWs)   bands (ev):

    10.4174  10.4185  10.9234  10.9236  12.6860  12.6862  13.0013  13.0140
    13.2528  13.2545  13.3745  13.3829  13.3835  13.3936  13.4946  13.4949
    15.0292  15.0307  15.0389  15.0396  15.4614  15.4616  17.8528  17.8529
    22.2857  22.2857  24.9954  25.0027  35.7256  35.7256  37.0023  37.0026
    38.4390  38.4686  39.8354  39.8427  41.5404  41.5769  41.6927  41.6928
    48.2496  48.2497  48.3987  48.4242  49.5213  49.5384  52.0350  52.0352
    52.9717  52.9731  56.6230  56.6241

          k = 0.0972-0.1458-0.1458 (   292 PWs)   bands (ev):

    10.5875  10.5881  10.5881  10.5884  12.9617  12.9651  12.9651  12.9682
    13.1740  13.1775  13.1775  13.1811  13.9613  13.9687  13.9687  13.9763
    14.9468  14.9525  14.9525  14.9582  16.2808  16.2891  16.2892  16.2975
    23.0645  23.0711  23.0711  23.0776  37.4065  37.4157  37.4158  37.4251
    40.4230  40.4299  40.4299  40.4373  41.5191  41.5303  41.5303  41.5403
    47.7783  47.7954  47.7954  47.8122  48.6744  48.6826  48.6826  48.6899
    54.2015  54.2080  54.2080  54.2150

          k =-0.1458-0.1458-0.1458 (   304 PWs)   bands (ev):

    10.4593  10.4596  10.4596  10.4596  13.0535  13.0535  13.0535  13.0536
    13.0536  13.0539  13.0539  13.0539  15.0878  15.0878  15.0878  15.0885
    15.0885  15.0886  15.0886  15.0886  15.4385  15.4390  15.4391  15.4391
    22.1121  22.1121  22.1121  22.1122  38.7628  38.7630  38.7630  38.7631
    42.0175  42.0175  42.0175  42.0176  42.0176  42.0180  42.0180  42.0180
    46.5105  46.5105  46.5112  46.5112  46.5112  46.5113  46.5113  46.5113
    52.1872  52.1873  52.1873  52.1873

          k =-0.0486 0.0000 0.0486 (   282 PWs)   bands (ev):

     6.9951  10.8347  10.8347  10.9637  11.3411  11.3413  11.3558  12.8407
    13.2131  13.2330  14.1296  14.1829  14.1953  14.2073  14.3994  14.8304
    14.9733  14.9733  15.0681  15.0681  15.1678  17.8304  17.8304  20.2971
    26.1311  27.0752  28.4961  28.4963  30.3716  30.3716  30.9159  30.9162
    32.6553  38.6784  39.1576  39.8252  40.3134  40.3138  42.9938  42.9942
    43.5324  45.8936  46.1292  48.2880  51.1707  53.6005  53.8222  56.8056
    57.9630  58.6181  58.6190  62.0412

          k =-0.0486 0.0000 0.0972 (   293 PWs)   bands (ev):

     8.0614  10.6724  11.3507  11.4014  11.6482  11.7048  11.7278  12.5277
    13.0849  13.2354  13.3700  13.5068  13.5223  14.0034  14.4662  14.5544
    14.5713  14.5987  14.7580  15.0608  15.0715  15.7738  19.5853  22.2249
    23.9076  26.8309  27.4802  28.5751  29.5007  31.8126  31.9726  32.0997
    33.3003  36.2797  36.8573  40.7818  41.5947  42.9621  43.1318  43.4497
    44.1950  46.8556  48.1138  50.5003  50.9200  52.7983  53.2507  54.3615
    56.0268  56.2057  59.2458  60.5121

          k =-0.0972 0.0000 0.0972 (   290 PWs)   bands (ev):

     9.0244  11.2953  11.2953  11.6740  11.9399  11.9412  11.9417  12.4493
    12.7185  12.7185  12.8930  13.2386  13.6532  13.9044  14.2325  14.3963
    14.3966  14.5699  14.5700  14.7881  14.9890  17.1286  17.1286  21.0479
    23.9640  27.3592  28.8365  28.8366  29.9583  29.9587  33.3345  33.9189
    33.9226  33.9975  35.9470  39.6673  43.8604  44.8561  44.8563  45.6747
    46.3326  46.3719  46.3722  50.2042  51.8272  51.9474  51.9478  55.0473
    55.5803  55.7862  57.3828  58.3669

          k = 0.0486-0.0486 0.0486 (   293 PWs)   bands (ev):

     7.3564  11.0088  11.0089  11.0089  11.4642  11.4645  11.4645  12.7984
    13.2533  13.2533  13.8574  13.8574  13.8575  14.3062  14.3062  14.5727
    14.5730  14.5730  15.1859  15.1859  15.1860  18.5054  18.5055  18.5055
    27.2521  27.2522  27.2522  28.7630  28.7630  28.7632  33.2182  33.2185
    33.2185  35.9089  39.1524  39.1525  39.1526  41.2708  44.1081  44.1081
    45.8318  45.8319  45.8319  49.1142  51.1937  51.1937  56.2801  56.2801
    58.3391  58.3391  59.0842  59.4313

          k = 0.0486-0.0486 0.0972 (   294 PWs)   bands (ev):

     8.3784  10.8399  11.4274  11.4275  11.7756  11.8007  11.8008  12.5666
    13.0751  13.0751  13.2868  13.3385  13.4052  14.1240  14.2025  14.2962
    14.2972  14.5754  15.0802  15.0802  15.1095  16.1579  19.9682  19.9683
    24.5685  24.5685  28.6281  29.4199  29.4200  32.5432  32.5434  33.0668
    33.2364  34.8164  39.4570  40.0587  40.5721  41.6374  41.6375  45.1906
    46.4472  47.2819  50.2181  50.2182  51.3886  52.1994  53.6557  53.6561
    54.3801  56.0880  56.2446  59.5501

          k =-0.0972 0.0486 0.0486 (   294 PWs)   bands (ev):

     8.3784  10.8399  11.4274  11.4275  11.7756  11.8007  11.8008  12.5666
    13.0751  13.0751  13.2868  13.3385  13.4052  14.1240  14.2025  14.2962
    14.2972  14.5754  15.0802  15.0802  15.1095  16.1579  19.9682  19.9683
    24.5685  24.5685  28.6281  29.4199  29.4200  32.5432  32.5434  33.0668
    33.2364  34.8164  39.4570  40.0587  40.5721  41.6375  41.6375  45.1906
    46.4472  47.2819  50.2181  50.2181  51.3886  52.1994  53.6557  53.6561
    54.3801  56.0880  56.2446  59.5501

          k = 0.0486-0.0486-0.1458 (   282 PWs)   bands (ev):

     9.7870   9.7979  11.8634  11.8640  11.8961  11.8962  12.1748  12.1954
    12.6407  12.6407  13.1713  13.1948  13.7080  13.7162  14.1147  14.1149
    14.7439  14.7611  14.8896  14.8933  15.0266  15.0266  21.1813  21.1814
    23.0126  23.0126  30.3510  30.3528  30.6625  30.6732  31.1147  31.1185
    37.4123  37.4373  37.8431  37.9041  40.8478  40.9011  44.7807  44.7808
    47.6475  47.6745  48.9361  48.9362  52.8454  52.8921  54.2376  54.2502
    55.8623  55.8623  57.4011  57.4105

          k = 0.0972-0.0486 0.0972 (   286 PWs)   bands (ev):

     9.2443  11.1765  11.1767  11.4732  12.1035  12.1626  12.1629  12.6157
    12.8517  12.8518  12.9969  13.2446  13.3873  13.9133  13.9136  13.9301
    14.2820  14.8917  14.9715  14.9819  14.9836  17.2723  17.2723  20.2298
    22.6478  25.8898  25.8899  30.1351  30.2661  33.3996  33.3996  34.4372
    34.4374  36.3556  37.7148  39.5736  42.0401  42.0402  42.3837  46.1576
    47.3018  47.5411  49.6775  49.6775  52.5931  52.5931  53.6250  54.0454
    54.1756  55.9363  55.9868  56.3093

          k =-0.0972 0.0486 0.0972 (   286 PWs)   bands (ev):

     9.2443  11.1765  11.1767  11.4732  12.1035  12.1626  12.1629  12.6157
    12.8517  12.8518  12.9969  13.2446  13.3873  13.9133  13.9136  13.9301
    14.2820  14.8917  14.9715  14.9819  14.9836  17.2723  17.2723  20.2298
    22.6478  25.8898  25.8899  30.1351  30.2661  33.3996  33.3997  34.4372
    34.4374  36.3556  37.7148  39.5736  42.0401  42.0403  42.3837  46.1576
    47.3018  47.5411  49.6775  49.6775  52.5931  52.5931  53.6250  54.0454
    54.1756  55.9363  55.9868  56.3094

          k = 0.0972-0.0486-0.1458 (   290 PWs)   bands (ev):

    10.3483  10.3547  11.4108  11.4128  12.3369  12.3377  12.5101  12.5270
    12.8507  12.8578  12.9789  12.9943  13.5468  13.5525  13.7770  13.7805
    14.6007  14.6078  14.8556  14.8625  15.6149  15.6181  18.7054  18.7172
    23.7179  23.7277  27.7383  27.7458  31.6321  31.6413  35.4057  35.4082
    35.5994  35.6077  39.3452  39.4046  42.5678  42.5771  43.0651  43.0791
    48.5312  48.5318  49.2078  49.2404  50.7431  50.7674  54.4604  54.4788
    55.0387  55.0485  57.3451  57.3626

          k = 0.0972-0.0972 0.0972 (   296 PWs)   bands (ev):

     9.7892  10.9979  10.9981  10.9981  12.5485  12.5487  12.5488  13.1218
    13.1941  13.1942  13.1988  13.2101  13.2101  13.5208  13.5208  13.5210
    14.7104  14.7104  15.1213  15.1213  15.1214  17.6181  17.6181  17.6181
    23.3251  23.3251  23.3251  27.1989  34.7865  34.7866  34.7868  37.6813
    37.6815  37.6815  39.7040  39.7423  39.7423  39.7431  42.7248  42.7248
    47.8220  47.8220  50.6467  51.4588  51.4589  51.4596  51.7514  51.7516
    51.7516  55.7660  55.7665  55.7665

          k = 0.0972-0.0972-0.1458 (   298 PWs)   bands (ev):

    10.4174  10.4185  10.9234  10.9236  12.6861  12.6862  13.0013  13.0140
    13.2528  13.2545  13.3745  13.3829  13.3835  13.3936  13.4945  13.4949
    15.0292  15.0307  15.0389  15.0396  15.4614  15.4616  17.8528  17.8528
    22.2857  22.2857  24.9954  25.0027  35.7256  35.7257  37.0023  37.0026
    38.4390  38.4686  39.8354  39.8427  41.5404  41.5769  41.6926  41.6928
    48.2496  48.2497  48.3987  48.4242  49.5213  49.5384  52.0350  52.0352
    52.9717  52.9731  56.6230  56.6241

 ------ SPIN DOWN ----------


          k = 0.0000 0.0000 0.0000 (   257 PWs)   bands (ev):

     6.1948  11.0165  11.0166  11.0166  11.7627  11.7630  11.7630  13.8691
    13.8691  13.8691  15.0617  15.0617  15.9484  15.9484  15.9484  16.2501
    16.2501  16.2501  16.2503  16.2503  16.2503  18.3182  18.3183  18.3183
    26.5299  26.5300  26.5300  31.4537  31.4537  31.4537  31.4539  31.4539
    31.4540  38.4518  38.4520  38.4520  40.1736  41.2397  41.2400  41.2400
    44.7979  44.7979  44.7979  50.4533  50.8491  50.8491  50.8491  58.7040
    58.7040  58.7040  62.4852  64.6030

          k = 0.0000 0.0000 0.0486 (   280 PWs)   bands (ev):

     6.5789  11.0069  11.2215  11.2216  11.8908  11.8978  11.8980  13.7133
    13.9869  13.9869  14.9259  15.1168  15.2755  15.2757  15.7315  15.7315
    15.8492  15.9896  15.9896  16.2204  16.2204  16.8352  19.5737  19.5738
    26.5283  26.5284  28.4187  29.8950  29.8953  30.4422  30.4422  32.0853
    32.0853  38.2292  39.8843  40.2556  40.2564  40.9965  43.0393  43.0393
    43.1086  43.1088  43.1598  51.9516  51.9516  51.9949  52.1464  54.9890
    59.6348  59.6352  60.4399  60.4399

          k = 0.0000 0.0000 0.0972 (   284 PWs)   bands (ev):

     7.6801  10.6279  11.7108  11.7108  12.2490  12.3099  12.3103  13.2998
    14.0188  14.0192  14.3330  14.3330  14.5712  14.8485  15.2633  15.2634
    15.2718  15.4585  15.4585  15.6859  16.2169  16.2169  21.7669  21.7670
    26.7202  26.7202  27.0989  27.0989  28.8165  28.8165  32.7122  33.8316
    33.8316  38.3837  39.3235  39.8526  39.8526  40.6068  41.4878  43.9444
    43.9446  47.3127  47.3128  47.5664  53.9773  53.9773  54.0413  54.0413
    55.0675  58.2117  60.5005  60.5005

          k =-0.0000-0.0000-0.1458 (   288 PWs)   bands (ev):

     9.2652   9.2791  12.0208  12.0208  12.7476  12.7717  13.0039  13.0042
    13.0268  13.0271  14.2656  14.3003  14.8355  14.8355  14.8534  14.8534
    14.9734  14.9734  15.4645  15.4779  16.2187  16.2187  24.3477  24.3478
    24.3914  24.3915  27.0211  27.0212  28.0032  28.0032  36.4071  36.4071
    36.4335  36.4335  37.1544  37.2221  38.7217  38.7492  43.2203  43.3159
    48.8551  48.8552  48.9481  48.9482  50.7303  50.7304  56.6803  56.6803
    56.8015  56.8016  59.2204  59.3118

          k = 0.0000 0.0486 0.0486 (   282 PWs)   bands (ev):

     6.9544  11.2305  11.2305  11.4144  12.0079  12.0155  12.0158  13.6344
    14.0413  14.0483  14.8342  14.8759  14.8848  14.9089  15.1231  15.5568
    15.7005  15.7006  15.9931  15.9931  16.0993  18.1313  18.1313  20.4699
    26.3461  27.2117  28.6693  28.6694  30.4448  30.4448  30.9638  30.9642
    32.6751  38.6400  39.2271  39.8254  40.3449  40.3453  43.1070  43.1072
    43.4741  45.9593  46.0969  48.2423  51.1571  53.7474  53.7525  56.7096
    58.1313  58.5622  58.5631  62.2348

          k = 0.0000 0.0486 0.0972 (   293 PWs)   bands (ev):

     8.0287  10.8900  11.7753  11.8875  12.3218  12.3444  12.3949  13.2922
    13.7247  13.9022  14.1233  14.1521  14.3457  14.7060  15.1685  15.2630
    15.3453  15.4407  15.4572  15.9867  16.0002  16.4308  19.9064  22.4286
    24.0923  27.0395  27.6219  28.6952  29.6320  31.9099  32.0313  32.1688
    33.3955  36.3381  36.8889  40.7897  41.6113  42.8982  43.0815  43.5749
    44.1679  46.9363  48.3113  50.5468  50.8496  52.7413  53.2203  54.2801
    55.9786  56.1337  59.4111  60.7218

          k =-0.0000 0.0486-0.1458 (   288 PWs)   bands (ev):

     9.5701   9.5832  12.1802  12.1818  12.7957  12.8187  12.8377  12.8556
    13.0226  13.0450  13.9562  13.9832  14.8400  14.8581  14.9419  14.9463
    14.9519  14.9545  15.7258  15.7265  15.9870  15.9911  21.8548  21.8752
    24.8977  24.9373  27.7030  27.7358  30.5685  30.5821  33.9652  33.9729
    34.3646  34.3713  38.2906  38.3656  41.6745  41.6812  45.1604  45.2198
    45.9282  45.9562  49.0947  49.1793  53.2514  53.2841  53.6407  53.7168
    55.7610  55.8029  57.2511  57.2754

          k = 0.0000 0.0972 0.0972 (   290 PWs)   bands (ev):

     9.0145  11.5562  11.5563  12.2904  12.3835  12.6251  12.6258  13.1876
    13.3583  13.3583  13.5506  13.9705  14.5041  14.5900  14.9231  15.0723
    15.0726  15.4649  15.4650  15.6992  15.7672  17.6897  17.6898  21.3341
    24.1764  27.5411  28.9927  28.9927  30.0568  30.0571  33.4503  34.0027
    34.0077  34.0593  36.0013  39.6801  43.8108  44.8151  44.8154  45.5685
    46.3516  46.4210  46.4212  50.3216  51.7964  51.9799  51.9803  54.9223
    55.6167  55.7212  57.5908  58.3041

          k =-0.0000 0.0972-0.1458 (   296 PWs)   bands (ev):

    10.3936  10.4046  12.1854  12.1982  12.8012  12.8022  12.9191  12.9405
    13.0519  13.0731  13.6136  13.6305  14.6913  14.6918  14.7669  14.7695
    14.9023  14.9214  15.5092  15.5207  16.4632  16.4671  19.1998  19.2150
    26.3795  26.4058  28.4408  28.4694  30.9779  30.9887  31.7947  31.8005
    35.3385  35.3478  39.2533  39.3241  42.9800  42.9882  45.7845  45.7906
    45.8975  45.9024  49.5904  49.6601  51.2803  51.3176  54.0329  54.0750
    55.6290  55.6817  56.5388  56.5429

          k =-0.0000-0.1458-0.1458 (   300 PWs)   bands (ev):

    11.4133  11.4232  11.4232  11.4330  13.0155  13.0362  13.0362  13.0565
    13.2844  13.2908  13.2908  13.2971  14.5270  14.5291  14.5291  14.5314
    15.0965  15.1139  15.1139  15.1312  17.5055  17.5112  17.5112  17.5167
    28.3918  28.4089  28.4090  28.4258  29.7876  29.8059  29.8059  29.8246
    40.5679  40.5855  40.5855  40.6081  40.7990  40.8179  40.8180  40.8304
    49.5248  49.5280  49.5281  49.5324  52.9502  52.9953  52.9953  53.0411
    55.3769  55.3838  55.3839  55.3903

          k = 0.0486 0.0486 0.0486 (   293 PWs)   bands (ev):

     7.3186  11.4288  11.4289  11.4289  12.1166  12.1171  12.1171  13.5737
    14.0697  14.0697  14.5131  14.5131  14.5132  15.0286  15.0286  15.3398
    15.3401  15.3401  16.0675  16.0675  16.0677  18.8304  18.8305  18.8305
    27.3746  27.3747  27.3747  28.9273  28.9273  28.9275  33.2474  33.2477
    33.2477  35.9587  39.2184  39.2184  39.2185  41.1289  44.1396  44.1396
    45.9054  45.9055  45.9055  49.0498  51.1433  51.1433  56.3979  56.3979
    58.2907  58.2907  59.1609  59.3774

          k = 0.0486 0.0486 0.0972 (   294 PWs)   bands (ev):

     8.3563  11.0952  11.9163  11.9164  12.3850  12.3854  12.4372  13.3056
    13.7244  13.7244  13.9082  14.1062  14.2043  14.9081  14.9496  15.0201
    15.0216  15.3326  15.9444  15.9769  15.9772  16.7403  20.2777  20.2779
    24.7674  24.7675  28.7642  29.5596  29.5597  32.6166  32.6168  33.1672
    33.3154  34.8670  39.5116  39.9562  40.6406  41.6515  41.6515  45.1761
    46.5204  47.3306  50.2438  50.2438  51.3811  52.1305  53.6321  53.6325
    54.3993  56.0231  56.1943  59.4871

          k = 0.0486 0.0486-0.1458 (   282 PWs)   bands (ev):

     9.8321   9.8440  12.3654  12.3655  12.4590  12.4596  12.8705  12.8927
    13.3014  13.3016  13.8603  13.8859  14.4964  14.5031  14.8149  14.8151
    15.4858  15.5038  15.6847  15.6868  15.9312  15.9313  21.4263  21.4264
    23.2982  23.2982  30.4543  30.4562  30.7930  30.8029  31.2300  31.2340
    37.4792  37.5037  37.8013  37.8630  40.9123  40.9657  44.7632  44.7632
    47.7319  47.7609  48.8868  48.8870  52.7587  52.8052  54.1670  54.1799
    55.8753  55.8754  57.5569  57.5869

          k = 0.0486 0.0972 0.0972 (   286 PWs)   bands (ev):

     9.2690  11.5522  11.5524  12.0506  12.5666  12.7163  12.7166  13.2868
    13.5165  13.5166  13.6541  13.9854  14.1491  14.6493  14.6504  14.6536
    15.0607  15.6758  15.8290  15.8299  15.8531  17.7843  17.7844  20.4924
    22.9709  26.0951  26.0952  30.2824  30.3868  33.4542  33.4542  34.5277
    34.5280  36.4117  37.7213  39.5816  42.0449  42.0450  42.3342  46.2715
    47.2543  47.4767  49.6554  49.6555  52.6323  52.6324  53.5387  54.0057
    54.1359  55.9624  56.0417  56.2294

          k = 0.0486 0.0972-0.1458 (   290 PWs)   bands (ev):

    10.5035  10.5119  11.9130  11.9169  12.8431  12.8451  13.1019  13.1206
    13.4915  13.5000  13.6806  13.6975  14.2900  14.2944  14.4897  14.4927
    15.4003  15.4099  15.7257  15.7334  16.3465  16.3504  19.0916  19.1031
    24.0030  24.0119  27.9271  27.9336  31.7245  31.7351  35.4515  35.4557
    35.6640  35.6736  39.3509  39.4091  42.5545  42.5632  43.0915  43.1061
    48.4932  48.4936  49.1622  49.1956  50.7236  50.7494  54.4590  54.4770
    54.9708  54.9801  57.4121  57.4306

          k = 0.0486-0.1458-0.1458 (   292 PWs)   bands (ev):

    11.2698  11.2747  11.2747  11.2793  13.2878  13.2964  13.2964  13.3049
    13.5150  13.5265  13.5265  13.5379  14.2261  14.2309  14.2309  14.2360
    15.4179  15.4298  15.4298  15.4418  17.3612  17.3676  17.3676  17.3738
    25.7146  25.7207  25.7207  25.7266  33.2898  33.2980  33.2980  33.3064
    40.5481  40.5600  40.5601  40.5750  40.8919  40.9128  40.9128  40.9297
    49.6183  49.6199  49.6199  49.6223  50.4545  50.4826  50.4826  50.5101
    58.4330  58.4331  58.8011  58.8028

          k = 0.0972 0.0972 0.0972 (   296 PWs)   bands (ev):

     9.9322  11.4797  11.4799  11.4799  13.0606  13.0608  13.0608  13.5963
    13.8240  13.8240  13.8249  13.9481  13.9481  14.2505  14.2505  14.2507
    15.5275  15.5275  15.9834  15.9834  15.9836  18.0187  18.0188  18.0188
    23.6448  23.6448  23.6448  27.4122  34.8234  34.8234  34.8235  37.7432
    37.7435  37.7435  39.5521  39.7494  39.7494  39.7497  42.8108  42.8108
    47.7920  47.7920  50.6542  51.3937  51.3937  51.3944  51.7184  51.7186
    51.7186  55.7879  55.7884  55.7884

          k = 0.0972 0.0972-0.1458 (   298 PWs)   bands (ev):

    10.7428  10.7461  11.4295  11.4297  13.2647  13.2649  13.6086  13.6212
    13.8824  13.8980  13.9850  13.9862  14.0471  14.0472  14.1018  14.1019
    15.8729  15.8751  15.9021  15.9027  16.1233  16.1263  18.1771  18.1771
    22.6913  22.6913  25.2685  25.2750  35.7202  35.7202  37.0890  37.0894
    38.3265  38.3568  39.9066  39.9131  41.6238  41.6598  41.6818  41.6821
    48.2381  48.2383  48.3522  48.3779  49.4921  49.5099  51.9743  51.9745
    52.9962  52.9978  56.7067  56.7078

          k = 0.0972-0.1458-0.1458 (   292 PWs)   bands (ev):

    11.0355  11.0363  11.0363  11.0367  13.6367  13.6400  13.6400  13.6432
    13.8905  13.8938  13.8938  13.8973  14.3585  14.3670  14.3670  14.3755
    15.7991  15.8054  15.8054  15.8118  16.7878  16.7950  16.7950  16.8020
    23.4315  23.4373  23.4373  23.4430  37.3593  37.3698  37.3699  37.3805
    40.4211  40.4275  40.4275  40.4343  41.5913  41.6020  41.6020  41.6115
    47.7661  47.7840  47.7840  47.8014  48.6350  48.6437  48.6438  48.6517
    54.2593  54.2656  54.2656  54.2725

          k =-0.1458-0.1458-0.1458 (   304 PWs)   bands (ev):

    10.9328  10.9331  10.9331  10.9332  13.7677  13.7677  13.7677  13.7679
    13.7679  13.7681  13.7681  13.7681  15.3550  15.3551  15.3551  15.3556
    15.9470  15.9470  15.9472  15.9472  15.9472  15.9473  15.9473  15.9473
    22.5591  22.5591  22.5591  22.5592  38.6004  38.6008  38.6008  38.6009
    42.0944  42.0945  42.0945  42.0945  42.0945  42.0950  42.0950  42.0950
    46.4953  46.4953  46.4960  46.4960  46.4960  46.4960  46.4960  46.4960
    52.2905  52.2905  52.2905  52.2905

          k =-0.0486 0.0000 0.0486 (   282 PWs)   bands (ev):

     6.9544  11.2305  11.2305  11.4144  12.0079  12.0155  12.0158  13.6344
    14.0413  14.0483  14.8342  14.8759  14.8848  14.9089  15.1231  15.5568
    15.7005  15.7005  15.9931  15.9931  16.0993  18.1313  18.1313  20.4699
    26.3461  27.2117  28.6693  28.6695  30.4447  30.4448  30.9638  30.9642
    32.6751  38.6400  39.2271  39.8254  40.3449  40.3453  43.1069  43.1073
    43.4741  45.9593  46.0969  48.2423  51.1571  53.7474  53.7525  56.7096
    58.1313  58.5622  58.5631  62.2348

          k =-0.0486 0.0000 0.0972 (   293 PWs)   bands (ev):

     8.0287  10.8900  11.7753  11.8875  12.3218  12.3444  12.3949  13.2922
    13.7247  13.9022  14.1233  14.1521  14.3457  14.7060  15.1685  15.2630
    15.3453  15.4407  15.4572  15.9867  16.0002  16.4308  19.9064  22.4286
    24.0923  27.0395  27.6219  28.6952  29.6320  31.9099  32.0313  32.1688
    33.3955  36.3381  36.8889  40.7897  41.6113  42.8982  43.0815  43.5749
    44.1679  46.9363  48.3113  50.5468  50.8496  52.7413  53.2203  54.2801
    55.9786  56.1337  59.4111  60.7218

          k =-0.0972 0.0000 0.0972 (   290 PWs)   bands (ev):

     9.0145  11.5562  11.5563  12.2904  12.3835  12.6251  12.6258  13.1876
    13.3583  13.3583  13.5506  13.9704  14.5041  14.5900  14.9231  15.0723
    15.0726  15.4649  15.4650  15.6992  15.7672  17.6897  17.6898  21.3341
    24.1764  27.5411  28.9927  28.9928  30.0568  30.0572  33.4503  34.0027
    34.0076  34.0593  36.0013  39.6801  43.8108  44.8152  44.8154  45.5685
    46.3516  46.4211  46.4211  50.3216  51.7964  51.9799  51.9803  54.9223
    55.6167  55.7212  57.5908  58.3041

          k = 0.0486-0.0486 0.0486 (   293 PWs)   bands (ev):

     7.3186  11.4288  11.4288  11.4289  12.1166  12.1171  12.1171  13.5737
    14.0697  14.0697  14.5131  14.5131  14.5132  15.0286  15.0286  15.3398
    15.3401  15.3401  16.0675  16.0675  16.0677  18.8304  18.8305  18.8305
    27.3746  27.3747  27.3747  28.9273  28.9273  28.9275  33.2474  33.2477
    33.2477  35.9587  39.2184  39.2184  39.2185  41.1289  44.1396  44.1396
    45.9053  45.9055  45.9055  49.0498  51.1433  51.1433  56.3979  56.3979
    58.2906  58.2907  59.1609  59.3773

          k = 0.0486-0.0486 0.0972 (   294 PWs)   bands (ev):

     8.3563  11.0952  11.9163  11.9163  12.3850  12.3854  12.4372  13.3056
    13.7244  13.7244  13.9082  14.1062  14.2043  14.9081  14.9496  15.0201
    15.0215  15.3326  15.9444  15.9769  15.9772  16.7403  20.2778  20.2778
    24.7674  24.7675  28.7642  29.5596  29.5596  32.6166  32.6168  33.1672
    33.3154  34.8670  39.5116  39.9562  40.6406  41.6515  41.6516  45.1761
    46.5203  47.3306  50.2438  50.2439  51.3811  52.1305  53.6321  53.6325
    54.3993  56.0231  56.1943  59.4870

          k =-0.0972 0.0486 0.0486 (   294 PWs)   bands (ev):

     8.3563  11.0952  11.9163  11.9164  12.3850  12.3854  12.4372  13.3056
    13.7244  13.7244  13.9082  14.1062  14.2043  14.9081  14.9496  15.0201
    15.0216  15.3326  15.9444  15.9769  15.9772  16.7403  20.2777  20.2779
    24.7674  24.7675  28.7642  29.5596  29.5597  32.6166  32.6168  33.1672
    33.3154  34.8670  39.5116  39.9562  40.6406  41.6515  41.6515  45.1761
    46.5204  47.3306  50.2438  50.2438  51.3811  52.1305  53.6321  53.6325
    54.3993  56.0231  56.1943  59.4871

          k = 0.0486-0.0486-0.1458 (   282 PWs)   bands (ev):

     9.8321   9.8440  12.3654  12.3655  12.4590  12.4596  12.8705  12.8927
    13.3014  13.3016  13.8603  13.8859  14.4964  14.5031  14.8149  14.8151
    15.4858  15.5038  15.6847  15.6868  15.9312  15.9313  21.4264  21.4264
    23.2982  23.2982  30.4544  30.4561  30.7930  30.8029  31.2301  31.2340
    37.4792  37.5037  37.8013  37.8630  40.9123  40.9657  44.7631  44.7633
    47.7319  47.7609  48.8868  48.8869  52.7587  52.8052  54.1670  54.1799
    55.8753  55.8754  57.5570  57.5868

          k = 0.0972-0.0486 0.0972 (   286 PWs)   bands (ev):

     9.2690  11.5522  11.5524  12.0506  12.5666  12.7163  12.7166  13.2868
    13.5165  13.5166  13.6541  13.9854  14.1491  14.6493  14.6504  14.6536
    15.0607  15.6758  15.8290  15.8299  15.8531  17.7843  17.7844  20.4924
    22.9709  26.0951  26.0952  30.2824  30.3868  33.4542  33.4542  34.5277
    34.5280  36.4117  37.7213  39.5816  42.0449  42.0450  42.3342  46.2715
    47.2543  47.4767  49.6554  49.6555  52.6323  52.6324  53.5387  54.0057
    54.1359  55.9624  56.0417  56.2294

          k =-0.0972 0.0486 0.0972 (   286 PWs)   bands (ev):

     9.2690  11.5522  11.5524  12.0506  12.5666  12.7163  12.7166  13.2868
    13.5165  13.5166  13.6541  13.9854  14.1491  14.6493  14.6504  14.6536
    15.0607  15.6758  15.8290  15.8299  15.8531  17.7843  17.7844  20.4924
    22.9709  26.0951  26.0952  30.2824  30.3868  33.4541  33.4543  34.5277
    34.5279  36.4117  37.7213  39.5816  42.0449  42.0451  42.3342  46.2715
    47.2543  47.4767  49.6554  49.6555  52.6323  52.6324  53.5387  54.0057
    54.1359  55.9624  56.0417  56.2294

          k = 0.0972-0.0486-0.1458 (   290 PWs)   bands (ev):

    10.5035  10.5119  11.9130  11.9169  12.8431  12.8451  13.1019  13.1206
    13.4915  13.5000  13.6806  13.6975  14.2900  14.2944  14.4897  14.4927
    15.4003  15.4099  15.7257  15.7334  16.3465  16.3504  19.0916  19.1031
    24.0030  24.0119  27.9271  27.9336  31.7245  31.7351  35.4515  35.4557
    35.6640  35.6736  39.3509  39.4091  42.5545  42.5632  43.0915  43.1061
    48.4933  48.4935  49.1622  49.1956  50.7236  50.7494  54.4590  54.4770
    54.9708  54.9801  57.4121  57.4306

          k = 0.0972-0.0972 0.0972 (   296 PWs)   bands (ev):

     9.9322  11.4797  11.4799  11.4799  13.0606  13.0608  13.0608  13.5963
    13.8240  13.8240  13.8249  13.9481  13.9481  14.2505  14.2505  14.2507
    15.5275  15.5275  15.9834  15.9834  15.9836  18.0187  18.0188  18.0188
    23.6448  23.6448  23.6448  27.4122  34.8233  34.8234  34.8236  37.7432
    37.7434  37.7435  39.5521  39.7493  39.7494  39.7498  42.8108  42.8108
    47.7920  47.7920  50.6542  51.3936  51.3937  51.3945  51.7184  51.7185
    51.7186  55.7879  55.7884  55.7884

          k = 0.0972-0.0972-0.1458 (   298 PWs)   bands (ev):

    10.7428  10.7461  11.4295  11.4297  13.2647  13.2649  13.6086  13.6212
    13.8824  13.8980  13.9850  13.9862  14.0471  14.0472  14.1018  14.1019
    15.8729  15.8751  15.9021  15.9027  16.1233  16.1263  18.1771  18.1771
    22.6913  22.6913  25.2685  25.2750  35.7201  35.7203  37.0890  37.0893
    38.3265  38.3568  39.9066  39.9131  41.6238  41.6598  41.6817  41.6822
    48.2381  48.2383  48.3522  48.3779  49.4921  49.5099  51.9743  51.9746
    52.9961  52.9978  56.7067  56.7078

     the Fermi energy is    15.7327 ev

!    total energy              =    -343.59646554 Ry
     Harris-Foulkes estimate   =    -343.59646476 Ry
     estimated scf accuracy    <          7.3E-09 Ry

     The total energy is the sum of the following terms:

     one-electron contribution =       2.49321595 Ry
     hartree contribution      =      57.60008822 Ry
     xc contribution           =    -120.66249674 Ry
     ewald contribution        =    -282.97368148 Ry
     Dispersion Correction     =      -0.05220697 Ry
     smearing contrib. (-TS)   =      -0.00138452 Ry

     total magnetization       =     2.65 Bohr mag/cell
     absolute magnetization    =     3.00 Bohr mag/cell

     convergence has been achieved in  14 iterations

     Forces acting on atoms (Ry/au):

     atom    1 type  1   force =    -0.00230803   -0.00230803    0.00230841
     atom    2 type  1   force =     0.00230765    0.00230765    0.00230765
     atom    3 type  1   force =    -0.00230803    0.00230841   -0.00230803
     atom    4 type  1   force =     0.00230841   -0.00230803   -0.00230803

     Total force =     0.007995     Total SCF correction =     0.000008


     entering subroutine stress ...

          total   stress  (Ry/bohr**3)                   (kbar)     P=   84.96
   0.00057755   0.00000000   0.00000000         84.96      0.00      0.00
   0.00000000   0.00057755   0.00000000          0.00     84.96      0.00
   0.00000000   0.00000000   0.00057755          0.00      0.00     84.96


     number of scf cycles    =   2
     number of bfgs steps    =   1

     enthalpy old            =    -343.5900328424 Ry
     enthalpy new            =    -343.5964655439 Ry

     CASE: enthalpy_new < enthalpy_old

     new trust radius        =       0.0304121947 bohr
     new conv_thr            =       0.0000000002 Ry

     new unit-cell volume =    279.80734 a.u.^3 (    41.46317 Ang^3 )

CELL_PARAMETERS (alat=  1.88972590)
   3.461153687   0.000000154   0.000000154
   0.000000154   3.461153687   0.000000154
   0.000000154   0.000000154   3.461153687

ATOMIC_POSITIONS (alat)
Ni1      1.736092113   1.736092113   0.002168579
Ni1      0.002167835   0.002167835   0.002167835
Ni1      1.736092113   0.002168579   1.736092113
Ni1      0.002168579   1.736092113   1.736092113



     Writing output data file Ni-ferromag.save
     NEW-OLD atomic charge density approx. for the potential

     Check: negative/imaginary core charge=   -0.000005    0.000000
     extrapolated charge   41.08585, renormalised to   40.00000

     total cpu time spent up to now is      444.1 secs

     Self-consistent Calculation

     iteration #  1     ecut=    15.00 Ry     beta=0.20
     Davidson diagonalization with overlap
     ethr =  1.00E-06,  avg # of iterations =  5.3

     total cpu time spent up to now is      465.5 secs

     total energy              =    -343.40107280 Ry
     Harris-Foulkes estimate   =    -342.61966815 Ry
     estimated scf accuracy    <       0.30270762 Ry

     total magnetization       =     2.95 Bohr mag/cell
     absolute magnetization    =     3.29 Bohr mag/cell

     iteration #  2     ecut=    15.00 Ry     beta=0.20
     Davidson diagonalization with overlap
     ethr =  7.57E-04,  avg # of iterations =  2.5

     total cpu time spent up to now is      473.8 secs

     total energy              =    -343.60531257 Ry
     Harris-Foulkes estimate   =    -343.62661589 Ry
     estimated scf accuracy    <       0.10853478 Ry

     total magnetization       =     2.53 Bohr mag/cell
     absolute magnetization    =     2.89 Bohr mag/cell

     iteration #  3     ecut=    15.00 Ry     beta=0.20
     Davidson diagonalization with overlap
     ethr =  2.71E-04,  avg # of iterations =  1.1

     total cpu time spent up to now is      480.9 secs

     total energy              =    -343.60277066 Ry
     Harris-Foulkes estimate   =    -343.60861041 Ry
     estimated scf accuracy    <       0.03887327 Ry

     total magnetization       =     2.59 Bohr mag/cell
     absolute magnetization    =     2.95 Bohr mag/cell

     iteration #  4     ecut=    15.00 Ry     beta=0.20
     Davidson diagonalization with overlap
     ethr =  9.72E-05,  avg # of iterations =  1.3

     total cpu time spent up to now is      488.1 secs

     total energy              =    -343.59229710 Ry
     Harris-Foulkes estimate   =    -343.60341660 Ry
     estimated scf accuracy    <       0.01887242 Ry

     total magnetization       =     2.61 Bohr mag/cell
     absolute magnetization    =     2.97 Bohr mag/cell

     iteration #  5     ecut=    15.00 Ry     beta=0.20
     Davidson diagonalization with overlap
     ethr =  4.72E-05,  avg # of iterations =  2.2

     total cpu time spent up to now is      496.1 secs

     total energy              =    -343.59955874 Ry
     Harris-Foulkes estimate   =    -343.59963573 Ry
     estimated scf accuracy    <       0.00419553 Ry

     total magnetization       =     2.71 Bohr mag/cell
     absolute magnetization    =     3.06 Bohr mag/cell

     iteration #  6     ecut=    15.00 Ry     beta=0.20
     Davidson diagonalization with overlap
     ethr =  1.05E-05,  avg # of iterations =  1.2

     total cpu time spent up to now is      503.3 secs

     total energy              =    -343.59808835 Ry
     Harris-Foulkes estimate   =    -343.59956946 Ry
     estimated scf accuracy    <       0.00389974 Ry

     total magnetization       =     2.71 Bohr mag/cell
     absolute magnetization    =     3.07 Bohr mag/cell

     iteration #  7     ecut=    15.00 Ry     beta=0.20
     Davidson diagonalization with overlap
     ethr =  9.75E-06,  avg # of iterations =  1.4

     total cpu time spent up to now is      510.6 secs

     total energy              =    -343.59849896 Ry
     Harris-Foulkes estimate   =    -343.59857869 Ry
     estimated scf accuracy    <       0.00010364 Ry

     total magnetization       =     2.70 Bohr mag/cell
     absolute magnetization    =     3.06 Bohr mag/cell

     iteration #  8     ecut=    15.00 Ry     beta=0.20
     Davidson diagonalization with overlap
     ethr =  2.59E-07,  avg # of iterations =  2.5

     total cpu time spent up to now is      519.6 secs

     total energy              =    -343.59846463 Ry
     Harris-Foulkes estimate   =    -343.59861730 Ry
     estimated scf accuracy    <       0.00024166 Ry

     total magnetization       =     2.69 Bohr mag/cell
     absolute magnetization    =     3.06 Bohr mag/cell

     iteration #  9     ecut=    15.00 Ry     beta=0.20
     Davidson diagonalization with overlap
     ethr =  2.59E-07,  avg # of iterations =  2.1

     total cpu time spent up to now is      527.9 secs

     total energy              =    -343.59861024 Ry
     Harris-Foulkes estimate   =    -343.59858059 Ry
     estimated scf accuracy    <       0.00009847 Ry

     total magnetization       =     2.70 Bohr mag/cell
     absolute magnetization    =     3.06 Bohr mag/cell

     iteration # 10     ecut=    15.00 Ry     beta=0.20
     Davidson diagonalization with overlap
     ethr =  2.46E-07,  avg # of iterations =  1.0

     total cpu time spent up to now is      534.9 secs

     total energy              =    -343.59851401 Ry
     Harris-Foulkes estimate   =    -343.59861568 Ry
     estimated scf accuracy    <       0.00022882 Ry

     total magnetization       =     2.71 Bohr mag/cell
     absolute magnetization    =     3.07 Bohr mag/cell

     iteration # 11     ecut=    15.00 Ry     beta=0.20
     Davidson diagonalization with overlap
     ethr =  2.46E-07,  avg # of iterations =  1.0

     total cpu time spent up to now is      542.0 secs

     total energy              =    -343.59855652 Ry
     Harris-Foulkes estimate   =    -343.59855568 Ry
     estimated scf accuracy    <       0.00000011 Ry

     total magnetization       =     2.71 Bohr mag/cell
     absolute magnetization    =     3.08 Bohr mag/cell

     iteration # 12     ecut=    15.00 Ry     beta=0.20
     Davidson diagonalization with overlap
     ethr =  2.73E-10,  avg # of iterations =  3.0

     total cpu time spent up to now is      551.6 secs

     total energy              =    -343.59855695 Ry
     Harris-Foulkes estimate   =    -343.59855669 Ry
     estimated scf accuracy    <       0.00000005 Ry

     total magnetization       =     2.70 Bohr mag/cell
     absolute magnetization    =     3.07 Bohr mag/cell

     iteration # 13     ecut=    15.00 Ry     beta=0.20
     Davidson diagonalization with overlap
     ethr =  1.19E-10,  avg # of iterations =  1.0

     total cpu time spent up to now is      558.6 secs

     total energy              =    -343.59855714 Ry
     Harris-Foulkes estimate   =    -343.59855696 Ry
     estimated scf accuracy    <          1.1E-09 Ry

     total magnetization       =     2.70 Bohr mag/cell
     absolute magnetization    =     3.07 Bohr mag/cell

     iteration # 14     ecut=    15.00 Ry     beta=0.20
     Davidson diagonalization with overlap
     ethr =  2.77E-12,  avg # of iterations =  1.9

     total cpu time spent up to now is      566.5 secs

     total energy              =    -343.59855721 Ry
     Harris-Foulkes estimate   =    -343.59855714 Ry
     estimated scf accuracy    <          8.2E-10 Ry

     total magnetization       =     2.70 Bohr mag/cell
     absolute magnetization    =     3.07 Bohr mag/cell

     iteration # 15     ecut=    15.00 Ry     beta=0.20
     Davidson diagonalization with overlap
     ethr =  2.06E-12,  avg # of iterations =  2.0

     Magnetic moment per site:
     atom:    1    charge:    2.8975    magn:    0.3045    constr:    0.0000
     atom:    2    charge:    2.8956    magn:    0.3043    constr:    0.0000
     atom:    3    charge:    2.8975    magn:    0.3045    constr:    0.0000
     atom:    4    charge:    2.8975    magn:    0.3045    constr:    0.0000

     total cpu time spent up to now is      574.3 secs

     End of self-consistent calculation

 ------ SPIN UP ------------


          k = 0.0000 0.0000 0.0000 (   257 PWs)   bands (ev):

     5.8797  10.2005  10.2005  10.2005  10.6805  10.6807  10.6807  12.5553
    12.5553  12.5553  13.7992  13.7992  14.6337  14.6337  14.6337  14.7331
    14.7331  14.7331  14.7332  14.7332  14.7332  17.8051  17.8051  17.8051
    25.4556  25.4557  25.4557  30.6301  30.6301  30.6301  30.6302  30.6302
    30.6302  37.4937  37.4938  37.4938  39.5644  40.0309  40.0311  40.0311
    43.8095  43.8095  43.8095  49.5696  49.7690  49.7690  49.7690  57.0418
    57.0418  57.0418  61.3107  61.3107

          k =-0.0000-0.0000 0.0482 (   280 PWs)   bands (ev):

     6.2560  10.2289  10.3912  10.3912  10.7959  10.8129  10.8130  12.4187
    12.6661  12.6661  13.6813  13.8511  13.9743  13.9743  14.4315  14.4315
    14.4874  14.4874  14.5297  14.6967  14.6967  16.2025  18.8387  18.8387
    25.4704  25.4704  27.4128  29.0339  29.0340  29.5807  29.5807  31.2315
    31.2315  37.2683  39.2241  39.3190  39.3200  39.7512  41.8821  41.8822
    42.0112  42.0112  42.2752  50.8743  50.9335  50.9477  50.9477  53.7548
    58.5258  58.5260  58.7328  58.7328

          k =-0.0000-0.0000 0.0963 (   284 PWs)   bands (ev):

     7.3324  10.0181  10.8447  10.8447  11.1177  11.2140  11.2142  12.0544
    12.8447  12.8449  12.9908  12.9908  13.3729  13.9804  13.9963  14.0053
    14.0053  14.0172  14.0172  14.3772  14.6924  14.6924  20.9108  20.9108
    25.7187  25.7187  26.2054  26.2054  27.8797  27.8797  31.7889  32.9076
    32.9076  37.4625  38.5661  38.8120  38.8120  39.8311  40.2004  43.0077
    43.0078  46.0480  46.0555  46.0556  52.9512  52.9512  53.0611  53.0611
    54.0148  57.1528  59.2250  59.2251

          k = 0.0000 0.0000-0.1445 (   288 PWs)   bands (ev):

     8.8556   8.8651  11.1323  11.1324  11.5668  11.5817  11.8887  11.8887
    11.9037  11.9037  13.1661  13.1872  13.4477  13.4477  13.4591  13.4591
    13.7545  13.7545  14.1735  14.1821  14.6944  14.6944  23.4644  23.4644
    23.4938  23.4939  26.1173  26.1173  26.9633  26.9634  35.4119  35.4119
    35.4304  35.4304  36.3636  36.4086  37.8735  37.8905  41.8111  41.8734
    47.9186  47.9186  47.9796  47.9797  49.4410  49.4410  55.4095  55.4096
    55.6710  55.6710  55.7207  55.7207

          k =-0.0000 0.0482 0.0482 (   282 PWs)   bands (ev):

     6.6232  10.4342  10.4342  10.5613  10.9190  10.9191  10.9331  12.3572
    12.7135  12.7333  13.5997  13.6524  13.6610  13.6684  13.8544  14.2677
    14.4054  14.4054  14.4921  14.4921  14.5923  17.2223  17.2223  19.6567
    25.3710  26.2626  27.6884  27.6884  29.5582  29.5582  30.0651  30.0652
    31.7995  37.8254  38.2307  38.8831  39.4128  39.4130  41.8768  41.8768
    42.5688  44.7841  45.0929  47.2457  50.0889  52.2699  52.7388  55.6815
    56.6127  57.4427  57.4431  58.3310

          k =-0.0000 0.0482 0.0963 (   293 PWs)   bands (ev):

     7.6702  10.2610  10.9338  10.9830  11.2141  11.2692  11.2901  12.0571
    12.5939  12.7402  12.8654  12.9962  13.0125  13.4753  13.9191  14.0040
    14.0154  14.0447  14.1999  14.4848  14.4951  15.1855  18.9314  21.5395
    23.1930  26.0117  26.7067  27.8087  28.6117  30.9707  31.1527  31.2384
    32.3944  35.4019  35.9478  39.8774  40.6342  42.0296  42.1904  42.3079
    43.2335  45.7031  46.8117  49.3306  49.8691  51.7145  52.1222  53.2521
    54.8846  55.0746  58.0046  58.9343

          k = 0.0000 0.0482-0.1445 (   288 PWs)   bands (ev):

     9.1437   9.1526  11.2930  11.2936  11.6223  11.6368  11.7523  11.7645
    11.9039  11.9185  12.7819  12.7977  13.4505  13.4622  13.6996  13.7048
    13.7250  13.7254  14.3841  14.3843  14.4859  14.4884  20.9041  20.9179
    23.9896  24.0166  26.7453  26.7653  29.6035  29.6109  32.9952  33.0020
    33.4361  33.4425  37.3742  37.4262  40.7898  40.7937  43.7963  43.8336
    44.9157  44.9320  48.1557  48.2112  52.2358  52.2570  52.3826  52.4360
    54.7410  54.7681  55.8774  55.8950

          k =-0.0000 0.0963 0.0963 (   290 PWs)   bands (ev):

     8.6174  10.8668  10.8668  11.2374  11.4954  11.4957  11.5027  11.9820
    12.2414  12.2415  12.4123  12.7404  13.1372  13.3809  13.6970  13.8540
    13.8541  14.0141  14.0141  14.2278  14.4180  16.5060  16.5060  20.3717
    23.2458  26.5403  28.0362  28.0362  29.1304  29.1305  32.4773  33.0240
    33.0255  33.1170  35.0190  38.7462  42.8922  43.8874  43.8875  44.7174
    45.2520  45.2527  45.2647  48.9490  50.7405  50.8029  50.8031  53.9401
    54.3627  54.6642  56.1901  57.1956

          k = 0.0000 0.0963-0.1445 (   296 PWs)   bands (ev):

     9.9019   9.9092  11.3520  11.3610  11.7529  11.7581  11.7649  11.7721
    11.9240  11.9376  12.4531  12.4634  13.4897  13.4905  13.5042  13.5162
    13.5574  13.5591  14.0523  14.0593  15.1257  15.1279  18.1178  18.1285
    25.4281  25.4467  27.4794  27.4967  29.9971  30.0059  30.8578  30.8604
    34.3618  34.3662  38.3003  38.3484  41.9979  42.0048  44.7795  44.7834
    44.8877  44.8922  48.6422  48.6885  50.0285  50.0513  53.0064  53.0338
    54.2513  54.2880  55.4805  55.4840

          k = 0.0000-0.1445-0.1445 (   300 PWs)   bands (ev):

    10.7646  10.7710  10.7710  10.7773  11.8761  11.8889  11.8889  11.9017
    12.2019  12.2056  12.2056  12.2093  13.3277  13.3290  13.3290  13.3303
    13.6809  13.6920  13.6920  13.7029  16.2544  16.2589  16.2589  16.2634
    27.4139  27.4268  27.4268  27.4396  28.8408  28.8516  28.8517  28.8626
    39.4854  39.4993  39.4993  39.5142  39.9141  39.9265  39.9266  39.9374
    48.6173  48.6191  48.6191  48.6215  51.9094  51.9389  51.9390  51.9688
    53.9636  53.9662  53.9663  53.9687

          k = 0.0482 0.0482 0.0482 (   293 PWs)   bands (ev):

     6.9778  10.6021  10.6021  10.6021  11.0377  11.0379  11.0379  12.3161
    12.7525  12.7525  13.3372  13.3372  13.3372  13.7666  13.7666  14.0194
    14.0195  14.0195  14.6045  14.6045  14.6046  17.8773  17.8774  17.8774
    26.4862  26.4863  26.4863  27.9257  27.9257  27.9257  32.3498  32.3499
    32.3499  35.0288  38.2207  38.2207  38.2207  40.4281  43.0647  43.0647
    44.7176  44.7177  44.7177  48.0565  50.1280  50.1280  54.9279  54.9279
    57.1630  57.1630  57.9540  58.2674

          k = 0.0482 0.0482 0.0963 (   294 PWs)   bands (ev):

     7.9825  10.4241  11.0039  11.0039  11.3371  11.3638  11.3639  12.0947
    12.5852  12.5852  12.7872  12.8347  12.8982  13.5880  13.6651  13.7560
    13.7564  14.0237  14.5033  14.5033  14.5318  15.5635  19.3112  19.3112
    23.8221  23.8221  27.8244  28.5937  28.5938  31.6706  31.6707  32.2074
    32.3781  33.9130  38.5124  39.2222  39.5661  40.6728  40.6728  44.1638
    45.3184  46.1525  49.0710  49.0710  50.2562  51.1284  52.5258  52.5259
    53.2071  54.9635  55.0867  58.3803

          k = 0.0482 0.0482-0.1445 (   282 PWs)   bands (ev):

     9.3745   9.3823  11.4181  11.4184  11.4611  11.4611  11.7228  11.7364
    12.1685  12.1685  12.6814  12.6968  13.1924  13.1979  13.5841  13.5842
    14.1897  14.2010  14.3257  14.3282  14.4531  14.4531  20.5197  20.5198
    22.2680  22.2680  29.5606  29.5617  29.8308  29.8382  30.2148  30.2168
    36.4637  36.4813  37.0216  37.0632  39.8452  39.8811  43.7659  43.7659
    46.4822  46.4990  47.8951  47.8951  51.7794  51.8103  53.1348  53.1431
    54.6102  54.6103  56.2065  56.4080

          k = 0.0482 0.0963 0.0963 (   286 PWs)   bands (ev):

     8.8369  10.7509  10.7510  11.0413  11.6603  11.7132  11.7133  12.1436
    12.3689  12.3690  12.5116  12.7463  12.8828  13.3889  13.3890  13.4050
    13.7436  14.3261  14.4007  14.4099  14.4108  16.6552  16.6553  19.5871
    21.9008  25.1160  25.1160  29.3090  29.4298  32.5683  32.5683  33.5072
    33.5073  35.4198  36.8244  38.6518  41.0640  41.0640  41.4410  44.9868
    46.3010  46.5199  48.5847  48.5847  51.4221  51.4221  52.5129  52.9127
    53.0261  54.6882  54.7798  55.1730

          k = 0.0482 0.0963-0.1445 (   290 PWs)   bands (ev):

     9.9301   9.9349  10.9782  10.9796  11.8837  11.8842  12.0466  12.0577
    12.3721  12.3768  12.4951  12.5052  13.0371  13.0410  13.2587  13.2610
    14.0486  14.0532  14.2897  14.2942  15.0276  15.0297  18.0704  18.0786
    22.9654  22.9725  26.9376  26.9432  30.7911  30.7965  34.5282  34.5289
    34.6846  34.6894  38.4221  38.4629  41.5895  41.5961  42.0402  42.0493
    47.4845  47.4850  48.1613  48.1827  49.6231  49.6388  53.2975  53.3096
    53.8984  53.9055  56.1600  56.1719

          k = 0.0482-0.1445-0.1445 (   292 PWs)   bands (ev):

    10.5019  10.5038  10.5038  10.5056  12.2972  12.3007  12.3007  12.3040
    12.3908  12.3985  12.3985  12.4062  13.0033  13.0069  13.0069  13.0105
    14.0198  14.0267  14.0267  14.0336  16.1523  16.1574  16.1574  16.1624
    24.6970  24.7023  24.7023  24.7076  32.3595  32.3634  32.3634  32.3673
    39.6849  39.6930  39.6930  39.7048  39.8029  39.8187  39.8187  39.8302
    48.6673  48.6687  48.6687  48.6703  49.3736  49.3909  49.3909  49.4079
    57.0362  57.0484  57.0485  57.0618

          k = 0.0963 0.0963 0.0963 (   296 PWs)   bands (ev):

     9.3814  10.5780  10.5781  10.5781  12.0856  12.0857  12.0857  12.6363
    12.7024  12.7024  12.7061  12.7116  12.7116  13.0119  13.0119  13.0120
    14.1486  14.1486  14.5418  14.5418  14.5418  17.0104  17.0104  17.0104
    22.5683  22.5683  22.5683  26.3998  33.9274  33.9274  33.9274  36.7207
    36.7208  36.7208  38.8030  38.8030  38.8030  38.9059  41.6541  41.6541
    46.7889  46.7889  49.5060  50.3852  50.3852  50.3855  50.6461  50.6461
    50.6461  54.4972  54.4975  54.4975

          k = 0.0963 0.0963-0.1445 (   298 PWs)   bands (ev):

    10.0066  10.0076  10.5061  10.5061  12.2152  12.2153  12.5168  12.5251
    12.7538  12.7550  12.8767  12.8783  12.8872  12.8958  12.9957  12.9958
    14.4539  14.4549  14.4624  14.4627  14.8874  14.8875  17.2537  17.2538
    21.5266  21.5266  24.2224  24.2278  34.8960  34.8960  36.0231  36.0233
    37.6454  37.6653  38.8320  38.8378  40.4876  40.5121  40.7190  40.7191
    47.1933  47.1933  47.3751  47.3919  48.4569  48.4677  50.9475  50.9476
    51.7721  51.7730  55.3795  55.3800

          k = 0.0963-0.1445-0.1445 (   292 PWs)   bands (ev):

    10.1782  10.1784  10.1784  10.1785  12.4769  12.4791  12.4791  12.4812
    12.6794  12.6817  12.6817  12.6841  13.4542  13.4590  13.4590  13.4639
    14.3766  14.3803  14.3803  14.3841  15.7041  15.7098  15.7098  15.7156
    22.3052  22.3100  22.3101  22.3148  36.5648  36.5704  36.5705  36.5761
    39.4688  39.4735  39.4736  39.4785  40.4774  40.4852  40.4852  40.4925
    46.7395  46.7504  46.7505  46.7612  47.6338  47.6387  47.6388  47.6432
    52.9925  52.9968  52.9968  53.0013

          k =-0.1445-0.1445-0.1445 (   304 PWs)   bands (ev):

    10.0556  10.0558  10.0558  10.0558  12.5623  12.5623  12.5623  12.5624
    12.5624  12.5625  12.5625  12.5625  14.5090  14.5091  14.5091  14.5093
    14.5093  14.5093  14.5093  14.5093  14.9347  14.9349  14.9350  14.9350
    21.3474  21.3474  21.3474  21.3475  37.9860  37.9862  37.9862  37.9863
    40.9510  40.9510  40.9510  40.9511  40.9511  40.9513  40.9513  40.9513
    45.5009  45.5009  45.5012  45.5012  45.5012  45.5012  45.5012  45.5013
    50.9772  50.9773  50.9773  50.9773

          k =-0.0482 0.0000 0.0482 (   282 PWs)   bands (ev):

     6.6232  10.4342  10.4342  10.5613  10.9190  10.9191  10.9331  12.3572
    12.7135  12.7333  13.5997  13.6524  13.6610  13.6684  13.8544  14.2677
    14.4054  14.4054  14.4921  14.4921  14.5923  17.2223  17.2223  19.6567
    25.3710  26.2626  27.6883  27.6885  29.5582  29.5582  30.0651  30.0652
    31.7995  37.8254  38.2307  38.8831  39.4129  39.4130  41.8767  41.8769
    42.5688  44.7841  45.0929  47.2457  50.0889  52.2699  52.7388  55.6816
    56.6127  57.4428  57.4431  58.3310

          k =-0.0482-0.0000 0.0963 (   293 PWs)   bands (ev):

     7.6702  10.2610  10.9338  10.9830  11.2141  11.2692  11.2901  12.0571
    12.5939  12.7402  12.8654  12.9962  13.0125  13.4753  13.9191  14.0040
    14.0154  14.0447  14.1999  14.4848  14.4951  15.1855  18.9314  21.5395
    23.1930  26.0117  26.7067  27.8087  28.6117  30.9707  31.1527  31.2384
    32.3944  35.4019  35.9478  39.8774  40.6342  42.0296  42.1904  42.3079
    43.2335  45.7031  46.8117  49.3306  49.8691  51.7145  52.1222  53.2521
    54.8846  55.0746  58.0045  58.9343

          k =-0.0963 0.0000 0.0963 (   290 PWs)   bands (ev):

     8.6174  10.8668  10.8668  11.2374  11.4954  11.4957  11.5027  11.9820
    12.2414  12.2415  12.4123  12.7404  13.1372  13.3809  13.6970  13.8540
    13.8541  14.0141  14.0141  14.2278  14.4180  16.5060  16.5060  20.3717
    23.2458  26.5403  28.0362  28.0363  29.1303  29.1305  32.4773  33.0241
    33.0255  33.1170  35.0190  38.7462  42.8922  43.8874  43.8875  44.7174
    45.2520  45.2528  45.2647  48.9490  50.7405  50.8029  50.8031  53.9401
    54.3627  54.6642  56.1901  57.1956

          k = 0.0482-0.0482 0.0482 (   293 PWs)   bands (ev):

     6.9778  10.6021  10.6021  10.6021  11.0377  11.0379  11.0379  12.3161
    12.7525  12.7525  13.3372  13.3372  13.3372  13.7666  13.7666  14.0194
    14.0195  14.0195  14.6045  14.6045  14.6046  17.8773  17.8774  17.8774
    26.4862  26.4862  26.4863  27.9257  27.9257  27.9258  32.3498  32.3499
    32.3499  35.0288  38.2206  38.2207  38.2207  40.4281  43.0647  43.0647
    44.7176  44.7177  44.7177  48.0565  50.1280  50.1280  54.9279  54.9279
    57.1630  57.1630  57.9540  58.2673

          k = 0.0482-0.0482 0.0963 (   294 PWs)   bands (ev):

     7.9825  10.4241  11.0039  11.0039  11.3371  11.3638  11.3639  12.0947
    12.5852  12.5852  12.7872  12.8347  12.8982  13.5880  13.6651  13.7560
    13.7564  14.0237  14.5033  14.5033  14.5318  15.5635  19.3112  19.3112
    23.8221  23.8221  27.8244  28.5938  28.5938  31.6706  31.6707  32.2075
    32.3781  33.9129  38.5124  39.2222  39.5661  40.6728  40.6728  44.1638
    45.3184  46.1525  49.0710  49.0711  50.2562  51.1284  52.5257  52.5259
    53.2071  54.9635  55.0867  58.3803

          k =-0.0963 0.0482 0.0482 (   294 PWs)   bands (ev):

     7.9825  10.4241  11.0039  11.0039  11.3371  11.3638  11.3639  12.0947
    12.5852  12.5852  12.7872  12.8347  12.8982  13.5880  13.6651  13.7560
    13.7564  14.0237  14.5033  14.5033  14.5318  15.5635  19.3112  19.3112
    23.8221  23.8221  27.8244  28.5937  28.5938  31.6706  31.6707  32.2075
    32.3781  33.9130  38.5124  39.2222  39.5661  40.6728  40.6728  44.1638
    45.3184  46.1525  49.0710  49.0710  50.2562  51.1284  52.5258  52.5259
    53.2071  54.9635  55.0867  58.3803

          k = 0.0482-0.0482-0.1445 (   282 PWs)   bands (ev):

     9.3745   9.3823  11.4181  11.4184  11.4611  11.4611  11.7228  11.7364
    12.1685  12.1685  12.6814  12.6968  13.1924  13.1979  13.5841  13.5842
    14.1897  14.2010  14.3257  14.3282  14.4531  14.4531  20.5197  20.5197
    22.2680  22.2680  29.5607  29.5616  29.8308  29.8382  30.2148  30.2168
    36.4637  36.4813  37.0216  37.0632  39.8451  39.8811  43.7658  43.7659
    46.4822  46.4990  47.8950  47.8951  51.7794  51.8103  53.1348  53.1431
    54.6102  54.6103  56.2066  56.4080

          k = 0.0963-0.0482 0.0963 (   286 PWs)   bands (ev):

     8.8369  10.7509  10.7510  11.0413  11.6603  11.7132  11.7133  12.1436
    12.3689  12.3690  12.5116  12.7463  12.8828  13.3889  13.3890  13.4050
    13.7436  14.3261  14.4007  14.4099  14.4108  16.6552  16.6553  19.5871
    21.9008  25.1160  25.1160  29.3090  29.4298  32.5683  32.5683  33.5072
    33.5073  35.4198  36.8244  38.6518  41.0640  41.0640  41.4410  44.9868
    46.3010  46.5199  48.5847  48.5847  51.4221  51.4221  52.5129  52.9127
    53.0261  54.6882  54.7798  55.1730

          k =-0.0963 0.0482 0.0963 (   286 PWs)   bands (ev):

     8.8369  10.7509  10.7510  11.0413  11.6603  11.7132  11.7133  12.1436
    12.3689  12.3690  12.5116  12.7463  12.8828  13.3889  13.3890  13.4050
    13.7436  14.3261  14.4007  14.4099  14.4108  16.6552  16.6552  19.5871
    21.9008  25.1160  25.1160  29.3090  29.4298  32.5683  32.5684  33.5072
    33.5073  35.4198  36.8244  38.6518  41.0640  41.0641  41.4410  44.9868
    46.3010  46.5199  48.5847  48.5847  51.4221  51.4222  52.5129  52.9127
    53.0261  54.6882  54.7798  55.1730

          k = 0.0963-0.0482-0.1445 (   290 PWs)   bands (ev):

     9.9301   9.9349  10.9782  10.9796  11.8837  11.8842  12.0466  12.0577
    12.3721  12.3768  12.4951  12.5052  13.0371  13.0410  13.2587  13.2610
    14.0486  14.0532  14.2897  14.2942  15.0276  15.0297  18.0704  18.0786
    22.9654  22.9725  26.9376  26.9432  30.7911  30.7965  34.5282  34.5289
    34.6846  34.6894  38.4221  38.4629  41.5895  41.5961  42.0402  42.0493
    47.4845  47.4850  48.1613  48.1827  49.6231  49.6388  53.2975  53.3096
    53.8984  53.9055  56.1600  56.1719

          k = 0.0963-0.0963 0.0963 (   296 PWs)   bands (ev):

     9.3814  10.5780  10.5781  10.5781  12.0856  12.0857  12.0857  12.6363
    12.7024  12.7024  12.7061  12.7116  12.7116  13.0119  13.0119  13.0120
    14.1486  14.1486  14.5418  14.5418  14.5418  17.0104  17.0104  17.0104
    22.5683  22.5683  22.5683  26.3998  33.9273  33.9274  33.9275  36.7207
    36.7208  36.7208  38.8030  38.8030  38.8031  38.9059  41.6541  41.6541
    46.7889  46.7889  49.5060  50.3852  50.3852  50.3855  50.6461  50.6461
    50.6461  54.4973  54.4975  54.4975

          k = 0.0963-0.0963-0.1445 (   298 PWs)   bands (ev):

    10.0066  10.0076  10.5061  10.5062  12.2152  12.2153  12.5168  12.5251
    12.7538  12.7550  12.8767  12.8783  12.8872  12.8958  12.9957  12.9958
    14.4539  14.4549  14.4624  14.4627  14.8874  14.8875  17.2538  17.2538
    21.5266  21.5266  24.2224  24.2278  34.8960  34.8961  36.0232  36.0233
    37.6454  37.6653  38.8320  38.8378  40.4876  40.5121  40.7190  40.7191
    47.1933  47.1934  47.3751  47.3919  48.4569  48.4677  50.9475  50.9476
    51.7721  51.7730  55.3795  55.3800

 ------ SPIN DOWN ----------


          k = 0.0000 0.0000 0.0000 (   257 PWs)   bands (ev):

     5.8357  10.6401  10.6402  10.6402  11.3654  11.3656  11.3656  13.3904
    13.3904  13.3904  14.5339  14.5339  15.3949  15.3949  15.3949  15.6855
    15.6855  15.6855  15.6856  15.6856  15.6856  17.7390  17.7391  17.7391
    25.7288  25.7289  25.7289  30.6261  30.6261  30.6261  30.6262  30.6262
    30.6263  37.5788  37.5789  37.5789  39.3738  40.1487  40.1490  40.1490
    43.7822  43.7822  43.7822  49.4161  49.7596  49.7596  49.7596  57.2460
    57.2460  57.2460  61.2818  61.2818

          k =-0.0000-0.0000 0.0482 (   280 PWs)   bands (ev):

     6.2119  10.6252  10.8391  10.8392  11.4890  11.4948  11.4950  13.2412
    13.5043  13.5043  14.4056  14.5874  14.7459  14.7460  15.1822  15.1823
    15.2925  15.4283  15.4283  15.6522  15.6522  16.2693  18.9525  18.9526
    25.7311  25.7311  27.6018  29.0911  29.0912  29.6117  29.6117  31.2422
    31.2422  37.3544  39.0741  39.3502  39.3507  39.8872  41.9847  41.9848
    42.0357  42.0358  42.2073  50.8822  50.8822  50.8979  50.9144  53.7710
    58.4529  58.4531  58.9379  58.9379

          k =-0.0000-0.0000 0.0963 (   284 PWs)   bands (ev):

     7.2926  10.2261  11.3136  11.3137  11.8341  11.8901  11.8902  12.8446
    13.5344  13.5346  13.8392  13.8392  14.0654  14.3237  14.7318  14.7318
    14.7375  14.9174  14.9174  15.1346  15.6482  15.6482  21.0935  21.0935
    25.9404  25.9404  26.3335  26.3335  27.9762  27.9762  31.8732  32.9489
    32.9489  37.5176  38.4930  38.8695  38.8695  39.7362  40.3489  42.9801
    42.9802  46.1425  46.1426  46.2673  52.8668  52.8668  52.9628  52.9628
    53.9377  57.0258  59.3081  59.3081

          k = 0.0000 0.0000-0.1445 (   288 PWs)   bands (ev):

     8.8587   8.8686  11.6144  11.6145  12.3177  12.3335  12.5607  12.5608
    12.5759  12.5760  13.7728  13.7957  14.3219  14.3219  14.3337  14.3337
    14.4534  14.4534  14.9231  14.9320  15.6502  15.6502  23.6346  23.6347
    23.6644  23.6644  26.2866  26.2867  27.1219  27.1219  35.4765  35.4765
    35.4948  35.4948  36.3296  36.3752  37.8743  37.8926  42.0131  42.0764
    47.8423  47.8424  47.9041  47.9041  49.5084  49.5085  55.5656  55.5656
    55.5722  55.5722  55.6218  55.6218

          k =-0.0000 0.0482 0.0482 (   282 PWs)   bands (ev):

     6.5801  10.8420  10.8421  11.0263  11.5998  11.6085  11.6086  13.1661
    13.5567  13.5637  14.3206  14.3619  14.3667  14.3863  14.5949  15.0112
    15.1498  15.1498  15.4325  15.4325  15.5388  17.5227  17.5227  19.8246
    25.5912  26.3938  27.8616  27.8616  29.6287  29.6288  30.1116  30.1118
    31.8178  37.7847  38.2955  38.8844  39.4381  39.4383  41.9866  41.9866
    42.5057  44.8444  45.0644  47.1931  50.0682  52.4150  52.6569  55.5752
    56.7700  57.3804  57.3808  58.2680

          k =-0.0000 0.0482 0.0963 (   293 PWs)   bands (ev):

     7.6350  10.4822  11.3717  11.4847  11.8995  11.9255  11.9721  12.8371
    13.2484  13.4220  13.6314  13.6610  13.8503  14.1943  14.6384  14.7302
    14.8082  14.8993  14.9162  15.4260  15.4390  15.8534  19.2530  21.7395
    23.3756  26.2218  26.8452  27.9249  28.7452  31.0648  31.2086  31.3059
    32.4902  35.4576  35.9800  39.8793  40.6471  41.9604  42.1336  42.4298
    43.2009  45.7817  47.0133  49.3712  49.7898  51.6507  52.0853  53.1654
    54.8297  54.9967  58.1506  58.8308

          k = 0.0000 0.0482-0.1445 (   288 PWs)   bands (ev):

     9.1585   9.1678  11.7670  11.7681  12.3645  12.3797  12.3960  12.4078
    12.5786  12.5934  13.4783  13.4961  14.3268  14.3388  14.4232  14.4264
    14.4304  14.4319  15.1740  15.1744  15.4275  15.4301  21.1693  21.1833
    24.1711  24.1981  26.9028  26.9240  29.7157  29.7241  33.0934  33.0993
    33.4889  33.4944  37.3877  37.4391  40.7563  40.7609  43.9581  43.9967
    44.8975  44.9152  48.0764  48.1325  52.1608  52.1823  52.4209  52.4729
    54.6474  54.6748  56.0216  56.0387

          k =-0.0000 0.0963 0.0963 (   290 PWs)   bands (ev):

     8.6052  11.1335  11.1335  11.8687  11.9586  12.1946  12.1949  12.7358
    12.8969  12.8969  13.0843  13.4882  14.0033  14.0832  14.4045  14.5468
    14.5470  14.9246  14.9246  15.1539  15.2123  17.0752  17.0753  20.6581
    23.4550  26.7228  28.1890  28.1890  29.2278  29.2279  32.5896  33.1075
    33.1093  33.1779  35.0723  38.7546  42.8368  43.8413  43.8414  44.6066
    45.2882  45.3013  45.3019  49.0575  50.7030  50.8260  50.8262  53.8097
    54.3901  54.5933  56.3742  57.1324

          k = 0.0000 0.0963-0.1445 (   296 PWs)   bands (ev):

     9.9701   9.9779  11.7530  11.7618  12.3659  12.3667  12.4806  12.4948
    12.6069  12.6209  13.1485  13.1597  14.1801  14.1805  14.2534  14.2552
    14.3885  14.4012  14.9694  14.9769  15.8840  15.8865  18.5552  18.5656
    25.6208  25.6391  27.6226  27.6410  30.1446  30.1526  30.9425  30.9457
    34.4285  34.4338  38.3193  38.3673  41.9892  41.9953  44.8088  44.8109
    44.8129  44.8144  48.5588  48.6053  50.0858  50.1097  52.9304  52.9581
    54.3464  54.3828  55.3936  55.3967

          k = 0.0000-0.1445-0.1445 (   300 PWs)   bands (ev):

    10.9823  10.9893  10.9893  10.9963  12.5757  12.5893  12.5893  12.6028
    12.8323  12.8366  12.8366  12.8408  14.0224  14.0237  14.0237  14.0253
    14.5781  14.5895  14.5895  14.6010  16.8956  16.8995  16.8995  16.9033
    27.5976  27.6097  27.6097  27.6217  28.9575  28.9692  28.9693  28.9811
    39.5567  39.5700  39.5700  39.5848  39.8762  39.8881  39.8882  39.8979
    48.5001  48.5024  48.5025  48.5053  51.8588  51.8886  51.8886  51.9188
    54.0468  54.0505  54.0506  54.0541

          k = 0.0482 0.0482 0.0482 (   293 PWs)   bands (ev):

     6.9376  11.0349  11.0349  11.0349  11.7049  11.7051  11.7051  13.1069
    13.5841  13.5841  14.0084  14.0084  14.0084  14.5055  14.5055  14.8033
    14.8034  14.8034  15.5019  15.5019  15.5019  18.2027  18.2027  18.2027
    26.6057  26.6057  26.6057  28.0904  28.0904  28.0904  32.3776  32.3778
    32.3778  35.0769  38.2824  38.2824  38.2824  40.2801  43.0981  43.0981
    44.7859  44.7860  44.7860  47.9865  50.0710  50.0710  55.0408  55.0408
    57.1100  57.1100  58.0094  58.1992

          k = 0.0482 0.0482 0.0963 (   294 PWs)   bands (ev):

     7.9578  10.6836  11.5075  11.5075  11.9613  11.9615  12.0139  12.8494
    13.2492  13.2492  13.4233  13.6189  13.7130  14.3886  14.4288  14.4967
    14.4974  14.7972  15.3828  15.4156  15.4157  16.1559  19.6210  19.6211
    24.0191  24.0191  27.9581  28.7326  28.7327  31.7423  31.7424  32.3057
    32.4561  33.9622  38.5630  39.1144  39.6343  40.6834  40.6834  44.1534
    45.3860  46.1967  49.0926  49.0927  50.2410  51.0541  52.4941  52.4943
    53.2167  54.8896  55.0325  58.3071

          k = 0.0482 0.0482-0.1445 (   282 PWs)   bands (ev):

     9.4178   9.4263  11.9455  11.9456  12.0268  12.0270  12.4344  12.4490
    12.8437  12.8438  13.3866  13.4034  13.9964  14.0009  14.3009  14.3010
    14.9471  14.9589  15.1367  15.1381  15.3732  15.3732  20.7629  20.7630
    22.5539  22.5539  29.6607  29.6617  29.9589  29.9657  30.3306  30.3327
    36.5295  36.5467  36.9754  37.0174  39.9100  39.9460  43.7459  43.7460
    46.5607  46.5789  47.8407  47.8408  51.6861  51.7168  53.0595  53.0678
    54.6187  54.6188  56.3527  56.4219

          k = 0.0482 0.0963 0.0963 (   286 PWs)   bands (ev):

     8.8590  11.1335  11.1335  11.6316  12.1379  12.2816  12.2818  12.8303
    13.0491  13.0491  13.1832  13.5029  13.6603  14.1416  14.1422  14.1447
    14.5384  15.1262  15.2736  15.2740  15.2966  17.1741  17.1742  19.8480
    22.2249  25.3192  25.3192  29.4548  29.5485  32.6203  32.6203  33.5975
    33.5976  35.4750  36.8319  38.6555  41.0656  41.0657  41.3836  45.1058
    46.2457  46.4512  48.5596  48.5596  51.4520  51.4520  52.4227  52.8686
    52.9822  54.7073  54.8221  55.0864

          k = 0.0482 0.0963-0.1445 (   290 PWs)   bands (ev):

    10.0851  10.0912  11.4912  11.4940  12.4058  12.4072  12.6543  12.6667
    13.0271  13.0328  13.2127  13.2239  13.7962  13.7991  13.9878  13.9898
    14.8645  14.8708  15.1757  15.1808  15.7733  15.7758  18.4589  18.4668
    23.2495  23.2558  27.1239  27.1288  30.8826  30.8889  34.5741  34.5759
    34.7478  34.7535  38.4248  38.4648  41.5731  41.5792  42.0647  42.0742
    47.4420  47.4422  48.1111  48.1331  49.5999  49.6165  53.2873  53.2993
    53.8262  53.8329  56.2120  56.2246

          k = 0.0482-0.1445-0.1445 (   292 PWs)   bands (ev):

    10.8515  10.8551  10.8551  10.8586  12.8342  12.8400  12.8400  12.8458
    13.0520  13.0596  13.0596  13.0671  13.7356  13.7388  13.7388  13.7421
    14.8823  14.8902  14.8902  14.8981  16.7601  16.7645  16.7645  16.7688
    24.9394  24.9440  24.9440  24.9485  32.4323  32.4371  32.4371  32.4420
    39.6339  39.6422  39.6423  39.6524  39.8741  39.8886  39.8886  39.9006
    48.5771  48.5785  48.5786  48.5803  49.3568  49.3748  49.3748  49.3925
    57.0851  57.0978  57.0978  57.1118

          k = 0.0963 0.0963 0.0963 (   296 PWs)   bands (ev):

     9.5226  11.0695  11.0696  11.0696  12.6137  12.6138  12.6138  13.1249
    13.3458  13.3458  13.3462  13.4658  13.4658  13.7579  13.7579  13.7579
    14.9819  14.9819  15.4199  15.4199  15.4200  17.4136  17.4137  17.4137
    22.8879  22.8879  22.8879  26.6110  33.9639  33.9639  33.9639  36.7818
    36.7820  36.7820  38.7464  38.8050  38.8050  38.8052  41.7410  41.7410
    46.7538  46.7538  49.5099  50.3139  50.3139  50.3142  50.6088  50.6089
    50.6089  54.5148  54.5151  54.5151

          k = 0.0963 0.0963-0.1445 (   298 PWs)   bands (ev):

    10.3357  10.3383  11.0230  11.0231  12.8111  12.8112  13.1420  13.1503
    13.4032  13.4135  13.5022  13.5030  13.5619  13.5620  13.6137  13.6137
    15.3138  15.3153  15.3417  15.3419  15.5602  15.5621  17.5752  17.5753
    21.9352  21.9353  24.4940  24.4988  34.8882  34.8883  36.1101  36.1102
    37.5271  37.5475  38.9028  38.9080  40.5716  40.5960  40.7045  40.7045
    47.1769  47.1770  47.3222  47.3391  48.4234  48.4347  50.8811  50.8812
    51.7923  51.7932  55.4498  55.4503

          k = 0.0963-0.1445-0.1445 (   292 PWs)   bands (ev):

    10.6344  10.6351  10.6351  10.6356  13.1689  13.1710  13.1711  13.1731
    13.4121  13.4142  13.4142  13.4165  13.8669  13.8724  13.8725  13.8780
    15.2452  15.2493  15.2493  15.2535  16.2113  16.2162  16.2162  16.2210
    22.6729  22.6772  22.6772  22.6814  36.5200  36.5265  36.5266  36.5331
    39.4587  39.4630  39.4630  39.4675  40.5502  40.5577  40.5577  40.5647
    46.7223  46.7337  46.7337  46.7450  47.5891  47.5944  47.5945  47.5993
    53.0418  53.0460  53.0460  53.0505

          k =-0.1445-0.1445-0.1445 (   304 PWs)   bands (ev):

    10.5392  10.5394  10.5394  10.5394  13.2927  13.2927  13.2927  13.2928
    13.2928  13.2928  13.2929  13.2929  14.8475  14.8476  14.8476  14.8478
    15.3839  15.3839  15.3840  15.3840  15.3840  15.3841  15.3841  15.3841
    21.7984  21.7985  21.7985  21.7985  37.8167  37.8170  37.8170  37.8171
    41.0292  41.0293  41.0293  41.0293  41.0293  41.0295  41.0295  41.0295
    45.4799  45.4799  45.4802  45.4802  45.4802  45.4803  45.4803  45.4803
    51.0727  51.0728  51.0728  51.0728

          k =-0.0482 0.0000 0.0482 (   282 PWs)   bands (ev):

     6.5801  10.8421  10.8421  11.0263  11.5998  11.6085  11.6087  13.1661
    13.5567  13.5637  14.3206  14.3619  14.3667  14.3863  14.5949  15.0112
    15.1498  15.1498  15.4325  15.4325  15.5388  17.5227  17.5227  19.8246
    25.5912  26.3938  27.8615  27.8616  29.6287  29.6288  30.1116  30.1118
    31.8178  37.7847  38.2955  38.8844  39.4381  39.4382  41.9865  41.9867
    42.5057  44.8444  45.0644  47.1931  50.0682  52.4150  52.6569  55.5752
    56.7700  57.3804  57.3808  58.2680

          k =-0.0482-0.0000 0.0963 (   293 PWs)   bands (ev):

     7.6350  10.4822  11.3717  11.4847  11.8995  11.9255  11.9721  12.8371
    13.2484  13.4220  13.6314  13.6610  13.8503  14.1943  14.6384  14.7302
    14.8082  14.8993  14.9162  15.4260  15.4390  15.8534  19.2530  21.7395
    23.3756  26.2218  26.8452  27.9249  28.7452  31.0648  31.2086  31.3059
    32.4902  35.4576  35.9800  39.8793  40.6471  41.9604  42.1335  42.4298
    43.2009  45.7817  47.0133  49.3712  49.7898  51.6507  52.0853  53.1654
    54.8297  54.9967  58.1506  58.8308

          k =-0.0963 0.0000 0.0963 (   290 PWs)   bands (ev):

     8.6052  11.1335  11.1335  11.8687  11.9586  12.1946  12.1949  12.7358
    12.8969  12.8969  13.0843  13.4882  14.0033  14.0832  14.4045  14.5468
    14.5470  14.9246  14.9246  15.1539  15.2123  17.0752  17.0753  20.6581
    23.4550  26.7228  28.1890  28.1890  29.2278  29.2280  32.5896  33.1076
    33.1093  33.1779  35.0723  38.7546  42.8368  43.8413  43.8414  44.6066
    45.2882  45.3014  45.3018  49.0575  50.7030  50.8260  50.8262  53.8097
    54.3901  54.5933  56.3742  57.1324

          k = 0.0482-0.0482 0.0482 (   293 PWs)   bands (ev):

     6.9376  11.0349  11.0349  11.0349  11.7049  11.7051  11.7051  13.1069
    13.5841  13.5841  14.0084  14.0084  14.0084  14.5055  14.5055  14.8033
    14.8034  14.8034  15.5018  15.5019  15.5019  18.2027  18.2027  18.2027
    26.6057  26.6057  26.6057  28.0904  28.0904  28.0905  32.3776  32.3777
    32.3778  35.0769  38.2823  38.2824  38.2824  40.2801  43.0981  43.0981
    44.7859  44.7860  44.7860  47.9865  50.0710  50.0710  55.0408  55.0408
    57.1100  57.1100  58.0095  58.1991

          k = 0.0482-0.0482 0.0963 (   294 PWs)   bands (ev):

     7.9578  10.6836  11.5075  11.5075  11.9613  11.9615  12.0139  12.8493
    13.2492  13.2492  13.4233  13.6189  13.7130  14.3886  14.4288  14.4967
    14.4974  14.7972  15.3828  15.4156  15.4157  16.1559  19.6210  19.6210
    24.0191  24.0191  27.9581  28.7326  28.7326  31.7423  31.7424  32.3057
    32.4561  33.9622  38.5630  39.1144  39.6343  40.6833  40.6834  44.1534
    45.3860  46.1967  49.0926  49.0927  50.2410  51.0541  52.4941  52.4943
    53.2167  54.8896  55.0324  58.3071

          k =-0.0963 0.0482 0.0482 (   294 PWs)   bands (ev):

     7.9578  10.6836  11.5075  11.5075  11.9613  11.9615  12.0139  12.8493
    13.2492  13.2492  13.4233  13.6189  13.7130  14.3886  14.4288  14.4967
    14.4974  14.7972  15.3828  15.4156  15.4157  16.1559  19.6210  19.6211
    24.0191  24.0191  27.9581  28.7326  28.7327  31.7423  31.7424  32.3057
    32.4561  33.9622  38.5630  39.1144  39.6343  40.6834  40.6834  44.1534
    45.3860  46.1967  49.0926  49.0927  50.2410  51.0541  52.4941  52.4943
    53.2167  54.8896  55.0325  58.3071

          k = 0.0482-0.0482-0.1445 (   282 PWs)   bands (ev):

     9.4178   9.4263  11.9456  11.9456  12.0267  12.0270  12.4344  12.4490
    12.8437  12.8438  13.3866  13.4034  13.9964  14.0009  14.3008  14.3010
    14.9471  14.9589  15.1367  15.1381  15.3732  15.3732  20.7629  20.7629
    22.5539  22.5539  29.6607  29.6616  29.9589  29.9658  30.3306  30.3327
    36.5295  36.5467  36.9754  37.0174  39.9100  39.9460  43.7459  43.7460
    46.5607  46.5789  47.8407  47.8408  51.6861  51.7168  53.0595  53.0678
    54.6187  54.6188  56.3527  56.4219

          k = 0.0963-0.0482 0.0963 (   286 PWs)   bands (ev):

     8.8590  11.1335  11.1335  11.6316  12.1379  12.2816  12.2818  12.8303
    13.0491  13.0491  13.1831  13.5029  13.6603  14.1416  14.1422  14.1447
    14.5384  15.1262  15.2736  15.2740  15.2966  17.1741  17.1742  19.8480
    22.2249  25.3192  25.3192  29.4548  29.5485  32.6203  32.6203  33.5975
    33.5976  35.4750  36.8319  38.6555  41.0656  41.0657  41.3836  45.1058
    46.2457  46.4512  48.5596  48.5596  51.4520  51.4520  52.4227  52.8686
    52.9821  54.7073  54.8221  55.0864

          k =-0.0963 0.0482 0.0963 (   286 PWs)   bands (ev):

     8.8590  11.1335  11.1335  11.6316  12.1379  12.2816  12.2818  12.8303
    13.0491  13.0491  13.1831  13.5029  13.6603  14.1416  14.1422  14.1447
    14.5384  15.1262  15.2736  15.2740  15.2966  17.1742  17.1742  19.8480
    22.2249  25.3192  25.3193  29.4548  29.5485  32.6202  32.6203  33.5975
    33.5976  35.4750  36.8319  38.6555  41.0656  41.0657  41.3836  45.1058
    46.2457  46.4512  48.5596  48.5596  51.4520  51.4521  52.4227  52.8686
    52.9822  54.7073  54.8221  55.0864

          k = 0.0963-0.0482-0.1445 (   290 PWs)   bands (ev):

    10.0851  10.0912  11.4912  11.4940  12.4058  12.4072  12.6543  12.6667
    13.0271  13.0328  13.2127  13.2239  13.7962  13.7991  13.9878  13.9898
    14.8645  14.8708  15.1757  15.1808  15.7733  15.7758  18.4589  18.4668
    23.2495  23.2558  27.1239  27.1288  30.8826  30.8889  34.5741  34.5759
    34.7478  34.7535  38.4248  38.4648  41.5731  41.5792  42.0647  42.0742
    47.4420  47.4422  48.1111  48.1331  49.5999  49.6166  53.2873  53.2993
    53.8262  53.8329  56.2120  56.2246

          k = 0.0963-0.0963 0.0963 (   296 PWs)   bands (ev):

     9.5226  11.0694  11.0696  11.0696  12.6137  12.6138  12.6138  13.1249
    13.3458  13.3458  13.3462  13.4658  13.4658  13.7578  13.7578  13.7580
    14.9819  14.9819  15.4199  15.4199  15.4200  17.4137  17.4137  17.4137
    22.8878  22.8879  22.8879  26.6110  33.9638  33.9639  33.9640  36.7819
    36.7820  36.7820  38.7464  38.8049  38.8050  38.8053  41.7410  41.7410
    46.7538  46.7538  49.5099  50.3139  50.3139  50.3143  50.6089  50.6089
    50.6089  54.5149  54.5150  54.5151

          k = 0.0963-0.0963-0.1445 (   298 PWs)   bands (ev):

    10.3357  10.3383  11.0230  11.0231  12.8111  12.8112  13.1420  13.1503
    13.4032  13.4135  13.5022  13.5030  13.5619  13.5620  13.6137  13.6137
    15.3138  15.3153  15.3417  15.3419  15.5602  15.5621  17.5752  17.5752
    21.9352  21.9353  24.4940  24.4988  34.8882  34.8883  36.1101  36.1102
    37.5271  37.5475  38.9028  38.9080  40.5716  40.5960  40.7044  40.7046
    47.1769  47.1770  47.3222  47.3391  48.4234  48.4347  50.8811  50.8812
    51.7923  51.7932  55.4498  55.4503

     the Fermi energy is    15.1745 ev

!    total energy              =    -343.59855739 Ry
     Harris-Foulkes estimate   =    -343.59855721 Ry
     estimated scf accuracy    <          7.5E-12 Ry

     The total energy is the sum of the following terms:

     one-electron contribution =      -1.31893257 Ry
     hartree contribution      =      58.73807312 Ry
     xc contribution           =    -120.57509377 Ry
     ewald contribution        =    -280.39115044 Ry
     Dispersion Correction     =      -0.05028713 Ry
     smearing contrib. (-TS)   =      -0.00116662 Ry

     total magnetization       =     2.70 Bohr mag/cell
     absolute magnetization    =     3.07 Bohr mag/cell

     convergence has been achieved in  15 iterations

     Forces acting on atoms (Ry/au):

     atom    1 type  1   force =    -0.00142131   -0.00142131    0.00142147
     atom    2 type  1   force =     0.00142116    0.00142116    0.00142116
     atom    3 type  1   force =    -0.00142131    0.00142147   -0.00142131
     atom    4 type  1   force =     0.00142147   -0.00142131   -0.00142131

     Total force =     0.004924     Total SCF correction =     0.000001


     entering subroutine stress ...

          total   stress  (Ry/bohr**3)                   (kbar)     P=   -3.38
  -0.00002299  -0.00000001  -0.00000001         -3.38     -0.00     -0.00
  -0.00000001  -0.00002299  -0.00000001         -0.00     -3.38     -0.00
  -0.00000001  -0.00000001  -0.00002299         -0.00     -0.00     -3.38


     number of scf cycles    =   3
     number of bfgs steps    =   2

     enthalpy old            =    -343.5964655439 Ry
     enthalpy new            =    -343.5985573947 Ry

     CASE: enthalpy_new < enthalpy_old

     new trust radius        =       0.0023743798 bohr
     new conv_thr            =       0.0000000001 Ry

     new unit-cell volume =    279.52704 a.u.^3 (    41.42163 Ang^3 )

CELL_PARAMETERS (alat=  1.88972590)
   3.459997552  -0.000001040  -0.000001040
  -0.000001040   3.459997552  -0.000001040
  -0.000001040  -0.000001040   3.459997552

ATOMIC_POSITIONS (alat)
Ni1      1.734786450   1.734786450   0.002891890
Ni1      0.002892184   0.002892184   0.002892184
Ni1      1.734786450   0.002891890   1.734786450
Ni1      0.002891890   1.734786450   1.734786450



     Writing output data file Ni-ferromag.save
     NEW-OLD atomic charge density approx. for the potential

     Check: negative/imaginary core charge=   -0.000005    0.000000
     extrapolated charge   39.95989, renormalised to   40.00000

     total cpu time spent up to now is      595.6 secs

     Self-consistent Calculation

     iteration #  1     ecut=    15.00 Ry     beta=0.20
     Davidson diagonalization with overlap
     ethr =  1.00E-06,  avg # of iterations =  2.8

     total cpu time spent up to now is      608.3 secs

     total energy              =    -343.59823500 Ry
     Harris-Foulkes estimate   =    -343.63739891 Ry
     estimated scf accuracy    <       0.00044810 Ry

     total magnetization       =     2.69 Bohr mag/cell
     absolute magnetization    =     3.06 Bohr mag/cell

     iteration #  2     ecut=    15.00 Ry     beta=0.20
     Davidson diagonalization with overlap
     ethr =  1.12E-06,  avg # of iterations =  2.1

     total cpu time spent up to now is      616.5 secs

     total energy              =    -343.59852604 Ry
     Harris-Foulkes estimate   =    -343.59855546 Ry
     estimated scf accuracy    <       0.00014932 Ry

     total magnetization       =     2.71 Bohr mag/cell
     absolute magnetization    =     3.07 Bohr mag/cell

     iteration #  3     ecut=    15.00 Ry     beta=0.20
     Davidson diagonalization with overlap
     ethr =  3.73E-07,  avg # of iterations =  1.0

     total cpu time spent up to now is      623.8 secs

     total energy              =    -343.59849128 Ry
     Harris-Foulkes estimate   =    -343.59853069 Ry
     estimated scf accuracy    <       0.00005331 Ry

     total magnetization       =     2.71 Bohr mag/cell
     absolute magnetization    =     3.07 Bohr mag/cell

     iteration #  4     ecut=    15.00 Ry     beta=0.20
     Davidson diagonalization with overlap
     ethr =  1.33E-07,  avg # of iterations =  2.0

     total cpu time spent up to now is      632.0 secs

     total energy              =    -343.59852247 Ry
     Harris-Foulkes estimate   =    -343.59853519 Ry
     estimated scf accuracy    <       0.00007061 Ry

     total magnetization       =     2.70 Bohr mag/cell
     absolute magnetization    =     3.07 Bohr mag/cell

     iteration #  5     ecut=    15.00 Ry     beta=0.20
     Davidson diagonalization with overlap
     ethr =  1.33E-07,  avg # of iterations =  1.0

     total cpu time spent up to now is      639.3 secs

     total energy              =    -343.59851593 Ry
     Harris-Foulkes estimate   =    -343.59852420 Ry
     estimated scf accuracy    <       0.00002840 Ry

     total magnetization       =     2.70 Bohr mag/cell
     absolute magnetization    =     3.07 Bohr mag/cell

     iteration #  6     ecut=    15.00 Ry     beta=0.20
     Davidson diagonalization with overlap
     ethr =  7.10E-08,  avg # of iterations =  1.0

     total cpu time spent up to now is      646.6 secs

     total energy              =    -343.59851710 Ry
     Harris-Foulkes estimate   =    -343.59851790 Ry
     estimated scf accuracy    <       0.00000407 Ry

     total magnetization       =     2.70 Bohr mag/cell
     absolute magnetization    =     3.07 Bohr mag/cell

     iteration #  7     ecut=    15.00 Ry     beta=0.20
     Davidson diagonalization with overlap
     ethr =  1.02E-08,  avg # of iterations =  1.0

     total cpu time spent up to now is      653.9 secs

     total energy              =    -343.59851735 Ry
     Harris-Foulkes estimate   =    -343.59851723 Ry
     estimated scf accuracy    <       0.00000135 Ry

     total magnetization       =     2.70 Bohr mag/cell
     absolute magnetization    =     3.07 Bohr mag/cell

     iteration #  8     ecut=    15.00 Ry     beta=0.20
     Davidson diagonalization with overlap
     ethr =  3.38E-09,  avg # of iterations =  1.0

     total cpu time spent up to now is      661.2 secs

     total energy              =    -343.59851700 Ry
     Harris-Foulkes estimate   =    -343.59851736 Ry
     estimated scf accuracy    <       0.00000176 Ry

     total magnetization       =     2.70 Bohr mag/cell
     absolute magnetization    =     3.07 Bohr mag/cell

     iteration #  9     ecut=    15.00 Ry     beta=0.20
     Davidson diagonalization with overlap
     ethr =  3.38E-09,  avg # of iterations =  1.0

     total cpu time spent up to now is      668.5 secs

     total energy              =    -343.59851731 Ry
     Harris-Foulkes estimate   =    -343.59851706 Ry
     estimated scf accuracy    <       0.00000057 Ry

     total magnetization       =     2.70 Bohr mag/cell
     absolute magnetization    =     3.07 Bohr mag/cell

     iteration # 10     ecut=    15.00 Ry     beta=0.20
     Davidson diagonalization with overlap
     ethr =  1.43E-09,  avg # of iterations =  1.0

     total cpu time spent up to now is      675.8 secs

     total energy              =    -343.59851662 Ry
     Harris-Foulkes estimate   =    -343.59851737 Ry
     estimated scf accuracy    <       0.00000172 Ry

     total magnetization       =     2.70 Bohr mag/cell
     absolute magnetization    =     3.07 Bohr mag/cell

     iteration # 11     ecut=    15.00 Ry     beta=0.20
     Davidson diagonalization with overlap
     ethr =  1.43E-09,  avg # of iterations =  1.2

     Magnetic moment per site:
     atom:    1    charge:    2.8946    magn:    0.3040    constr:    0.0000
     atom:    2    charge:    2.8927    magn:    0.3038    constr:    0.0000
     atom:    3    charge:    2.8946    magn:    0.3040    constr:    0.0000
     atom:    4    charge:    2.8946    magn:    0.3040    constr:    0.0000

     total cpu time spent up to now is      683.2 secs

     End of self-consistent calculation

 ------ SPIN UP ------------


          k = 0.0000 0.0000 0.0000 (   257 PWs)   bands (ev):

     5.8925  10.2146  10.2147  10.2147  10.6955  10.6955  10.6955  12.5731
    12.5731  12.5731  13.8189  13.8189  14.6542  14.6542  14.6542  14.7540
    14.7540  14.7540  14.7540  14.7540  14.7540  17.8257  17.8257  17.8257
    25.4846  25.4847  25.4847  30.6597  30.6598  30.6598  30.6598  30.6598
    30.6598  37.5250  37.5250  37.5250  39.5927  40.0702  40.0704  40.0704
    43.8461  43.8461  43.8461  49.6070  49.8080  49.8080  49.8081  57.0937
    57.0937  57.0937  61.3536  61.3536

          k = 0.0000 0.0000 0.0482 (   280 PWs)   bands (ev):

     6.2690  10.2431  10.4055  10.4055  10.8110  10.8280  10.8281  12.4362
    12.6840  12.6840  13.7008  13.8709  13.9938  13.9938  14.4520  14.4520
    14.5080  14.5081  14.5503  14.7176  14.7176  16.2228  18.8607  18.8607
    25.4993  25.4993  27.4423  29.0627  29.0627  29.6105  29.6105  31.2616
    31.2616  37.2996  39.2535  39.3515  39.3518  39.7911  41.9231  41.9232
    42.0468  42.0468  42.3095  50.9192  50.9729  50.9860  50.9860  53.7977
    58.5680  58.5681  58.7865  58.7865

          k = 0.0000 0.0000 0.0963 (   284 PWs)   bands (ev):

     7.3462  10.0327  10.8596  10.8596  11.1333  11.2298  11.2298  12.0712
    12.8628  12.8628  13.0091  13.0091  13.3918  13.9995  14.0162  14.0277
    14.0277  14.0346  14.0346  14.3977  14.7133  14.7133  20.9348  20.9348
    25.7470  25.7470  26.2327  26.2327  27.9097  27.9097  31.8191  32.9391
    32.9392  37.4935  38.5956  38.8473  38.8474  39.8625  40.2412  43.0423
    43.0423  46.0945  46.0977  46.0977  52.9909  52.9909  53.0997  53.0998
    54.0554  57.1953  59.2703  59.2704

          k =-0.0000-0.0000-0.1445 (   288 PWs)   bands (ev):

     8.8722   8.8776  11.1476  11.1476  11.5863  11.5948  11.9085  11.9085
    11.9170  11.9170  13.1892  13.2012  13.4694  13.4694  13.4759  13.4759
    13.7735  13.7736  14.1956  14.2005  14.7153  14.7153  23.4965  23.4965
    23.5132  23.5132  26.1437  26.1438  26.9951  26.9951  35.4494  35.4494
    35.4598  35.4599  36.4033  36.4288  37.9076  37.9172  41.8685  41.9039
    47.9687  47.9687  48.0033  48.0033  49.4850  49.4851  55.4539  55.4540
    55.7219  55.7219  55.7501  55.7501

          k = 0.0000 0.0482 0.0482 (   282 PWs)   bands (ev):

     6.6365  10.4487  10.4487  10.5758  10.9343  10.9343  10.9484  12.3746
    12.7314  12.7513  13.6188  13.6751  13.6802  13.6842  13.8741  14.2880
    14.4259  14.4259  14.5128  14.5128  14.6130  17.2441  17.2441  19.6796
    25.3985  26.2918  27.7175  27.7175  29.5876  29.5876  30.0954  30.0955
    31.8301  37.8561  38.2642  38.9171  39.4454  39.4455  41.9170  41.9170
    42.6034  44.8241  45.1302  47.2832  50.1279  52.3176  52.7779  55.7223
    56.6618  57.4852  57.4853  58.3728

          k = 0.0000 0.0482 0.0963 (   293 PWs)   bands (ev):

     7.6842  10.2758  10.9489  10.9981  11.2299  11.2849  11.3059  12.0740
    12.6116  12.7581  12.8836  13.0146  13.0307  13.4943  13.9388  14.0262
    14.0332  14.0645  14.2200  14.5056  14.5156  15.2066  18.9548  21.5641
    23.2187  26.0413  26.7344  27.8362  28.6437  31.0008  31.1830  31.2685
    32.4270  35.4334  35.9805  39.9100  40.6689  42.0631  42.2242  42.3490
    43.2682  45.7447  46.8584  49.3730  49.9070  51.7537  52.1628  53.2919
    54.9258  55.1155  58.0501  58.9766

          k =-0.0000 0.0482-0.1445 (   288 PWs)   bands (ev):

     9.1604   9.1654  11.3086  11.3089  11.6419  11.6501  11.7713  11.7782
    11.9237  11.9320  12.8033  12.8122  13.4723  13.4789  13.7203  13.7233
    13.7441  13.7444  14.4046  14.4047  14.5071  14.5085  20.9317  20.9396
    24.0216  24.0369  26.7787  26.7901  29.6358  29.6400  33.0279  33.0317
    33.4690  33.4726  37.4183  37.4477  40.8235  40.8258  43.8478  43.8689
    44.9564  44.9657  48.2047  48.2362  52.2797  52.2917  52.4384  52.4686
    54.7871  54.8025  55.9255  55.9354

          k = 0.0000 0.0963 0.0963 (   290 PWs)   bands (ev):

     8.6319  10.8822  10.8822  11.2532  11.5117  11.5118  11.5184  11.9987
    12.2586  12.2586  12.4296  12.7582  13.1559  13.3998  13.7162  13.8738
    13.8738  14.0339  14.0339  14.2478  14.4385  16.5283  16.5284  20.3960
    23.2716  26.5699  28.0652  28.0652  29.1600  29.1600  32.5080  33.0573
    33.0578  33.1476  35.0523  38.7794  42.9270  43.9223  43.9224  44.7518
    45.2928  45.2930  45.3029  48.9940  50.7798  50.8443  50.8444  53.9801
    54.4067  54.7045  56.2335  57.2435

          k =-0.0000 0.0963-0.1445 (   296 PWs)   bands (ev):

     9.9187   9.9228  11.3700  11.3751  11.7735  11.7759  11.7799  11.7846
    11.9435  11.9512  12.4728  12.4786  13.5090  13.5094  13.5266  13.5335
    13.5761  13.5772  14.0737  14.0777  15.1475  15.1488  18.1435  18.1495
    25.4594  25.4700  27.5129  27.5227  30.0287  30.0337  30.8891  30.8905
    34.3954  34.3979  38.3447  38.3719  42.0350  42.0389  44.8194  44.8216
    44.9237  44.9263  48.6896  48.7158  50.0764  50.0893  53.0523  53.0679
    54.3055  54.3262  55.5223  55.5242

          k =-0.0000-0.1445-0.1445 (   300 PWs)   bands (ev):

    10.7831  10.7867  10.7867  10.7903  11.8983  11.9056  11.9056  11.9129
    12.2204  12.2225  12.2225  12.2246  13.3472  13.3479  13.3479  13.3487
    13.7050  13.7112  13.7112  13.7174  16.2787  16.2812  16.2812  16.2838
    27.4483  27.4556  27.4556  27.4628  28.8753  28.8815  28.8815  28.8877
    39.5283  39.5363  39.5363  39.5446  39.9524  39.9592  39.9593  39.9656
    48.6550  48.6561  48.6561  48.6573  51.9619  51.9787  51.9787  51.9956
    54.0125  54.0140  54.0140  54.0154

          k = 0.0482 0.0482 0.0482 (   293 PWs)   bands (ev):

     6.9914  10.6168  10.6168  10.6168  11.0532  11.0533  11.0533  12.3334
    12.7706  12.7706  13.3559  13.3559  13.3559  13.7861  13.7861  14.0393
    14.0393  14.0393  14.6255  14.6255  14.6255  17.8998  17.8999  17.8999
    26.5138  26.5138  26.5138  27.9558  27.9558  27.9558  32.3810  32.3810
    32.3810  35.0605  38.2543  38.2543  38.2543  40.4584  43.1023  43.1023
    44.7578  44.7579  44.7579  48.0945  50.1664  50.1664  54.9767  54.9767
    57.2051  57.2051  57.9957  58.3096

          k = 0.0482 0.0482 0.0963 (   294 PWs)   bands (ev):

     7.9966  10.4391  11.0192  11.0192  11.3530  11.3796  11.3796  12.1117
    12.6029  12.6029  12.8058  12.8521  12.9164  13.6073  13.6848  13.7755
    13.7756  14.0435  14.5240  14.5240  14.5525  15.5848  19.3347  19.3348
    23.8489  23.8489  27.8534  28.6235  28.6235  31.7019  31.7020  32.2384
    32.4089  33.9453  38.5464  39.2523  39.6022  40.7075  40.7075  44.2009
    45.3591  46.1930  49.1125  49.1125  50.2970  51.1670  52.5665  52.5665
    53.2494  55.0041  55.1284  58.4230

          k = 0.0482 0.0482-0.1445 (   282 PWs)   bands (ev):

     9.3910   9.3955  11.4344  11.4345  11.4768  11.4768  11.7421  11.7498
    12.1855  12.1855  12.7025  12.7113  13.2123  13.2154  13.6033  13.6033
    14.2122  14.2186  14.3465  14.3479  14.4736  14.4736  20.5435  20.5435
    22.2947  22.2947  29.5897  29.5901  29.8628  29.8668  30.2471  30.2478
    36.5017  36.5117  37.0606  37.0842  39.8893  39.9097  43.8024  43.8024
    46.5279  46.5374  47.9327  47.9327  51.8248  51.8424  53.1765  53.1811
    54.6553  54.6553  56.2531  56.4515

          k = 0.0482 0.0963 0.0963 (   286 PWs)   bands (ev):

     8.8515  10.7663  10.7663  11.0569  11.6764  11.7295  11.7296  12.1605
    12.3863  12.3863  12.5291  12.7641  12.9009  13.4079  13.4079  13.4239
    13.7628  14.3465  14.4218  14.4305  14.4308  16.6774  16.6774  19.6101
    21.9276  25.1438  25.1438  29.3407  29.4578  32.5982  32.5982  33.5407
    33.5407  35.4534  36.8565  38.6849  41.0991  41.0991  41.4747  45.0289
    46.3371  46.5567  48.6242  48.6242  51.4645  51.4645  52.5531  52.9533
    53.0675  54.7332  54.8238  55.2136

          k = 0.0482 0.0963-0.1445 (   290 PWs)   bands (ev):

     9.9462   9.9489  10.9941  10.9950  11.9002  11.9005  12.0658  12.0720
    12.3904  12.3931  12.5147  12.5204  13.0564  13.0586  13.2779  13.2792
    14.0695  14.0721  14.3110  14.3136  15.0492  15.0503  18.0950  18.0997
    22.9940  22.9980  26.9677  26.9708  30.8225  30.8256  34.5600  34.5604
    34.7185  34.7212  38.4645  38.4876  41.6261  41.6299  42.0791  42.0842
    47.5224  47.5227  48.2040  48.2161  49.6670  49.6759  53.3424  53.3492
    53.9410  53.9450  56.2069  56.2136

          k = 0.0482-0.1445-0.1445 (   292 PWs)   bands (ev):

    10.5180  10.5191  10.5191  10.5201  12.3160  12.3179  12.3179  12.3199
    12.4112  12.4155  12.4156  12.4199  13.0232  13.0252  13.0253  13.0273
    14.0427  14.0466  14.0466  14.0506  16.1765  16.1793  16.1793  16.1822
    24.7272  24.7302  24.7302  24.7332  32.3920  32.3943  32.3943  32.3965
    39.7221  39.7271  39.7272  39.7333  39.8457  39.8541  39.8541  39.8611
    48.7054  48.7062  48.7062  48.7071  49.4208  49.4306  49.4306  49.4403
    57.0895  57.0966  57.0966  57.1040

          k = 0.0963 0.0963 0.0963 (   296 PWs)   bands (ev):

     9.3960  10.5932  10.5933  10.5933  12.1024  12.1025  12.1025  12.6539
    12.7219  12.7219  12.7235  12.7277  12.7277  13.0303  13.0303  13.0303
    14.1687  14.1687  14.5626  14.5626  14.5627  17.0322  17.0322  17.0322
    22.5955  22.5955  22.5955  26.4286  33.9584  33.9584  33.9584  36.7552
    36.7553  36.7553  38.8367  38.8368  38.8368  38.9345  41.6926  41.6926
    46.8262  46.8262  49.5473  50.4241  50.4241  50.4242  50.6859  50.6859
    50.6859  54.5432  54.5433  54.5433

          k = 0.0963 0.0963-0.1445 (   298 PWs)   bands (ev):

    10.0216  10.0222  10.5212  10.5212  12.2323  12.2323  12.5362  12.5409
    12.7721  12.7728  12.8959  12.8965  12.9063  12.9113  13.0136  13.0136
    14.4749  14.4755  14.4831  14.4832  14.9080  14.9081  17.2752  17.2752
    21.5539  21.5539  24.2514  24.2544  34.9258  34.9259  36.0584  36.0584
    37.6784  37.6897  38.8693  38.8726  40.5309  40.5448  40.7540  40.7540
    47.2315  47.2315  47.4159  47.4254  48.4978  48.5039  50.9868  50.9868
    51.8157  51.8162  55.4251  55.4252

          k = 0.0963-0.1445-0.1445 (   292 PWs)   bands (ev):

    10.1931  10.1932  10.1932  10.1932  12.4954  12.4966  12.4966  12.4978
    12.6983  12.6996  12.6996  12.7009  13.4746  13.4773  13.4774  13.4801
    14.3988  14.4009  14.4009  14.4030  15.7273  15.7306  15.7306  15.7338
    22.3347  22.3374  22.3374  22.3401  36.5977  36.6009  36.6010  36.6041
    39.5052  39.5078  39.5079  39.5106  40.5183  40.5226  40.5227  40.5268
    46.7820  46.7882  46.7882  46.7943  47.6736  47.6764  47.6764  47.6790
    53.0383  53.0408  53.0408  53.0433

          k =-0.1445-0.1445-0.1445 (   304 PWs)   bands (ev):

    10.0703  10.0703  10.0703  10.0703  12.5801  12.5801  12.5801  12.5801
    12.5801  12.5801  12.5801  12.5801  14.5300  14.5301  14.5301  14.5301
    14.5301  14.5301  14.5301  14.5301  14.9527  14.9528  14.9528  14.9528
    21.3749  21.3749  21.3749  21.3750  38.0139  38.0142  38.0142  38.0142
    40.9894  40.9894  40.9894  40.9894  40.9894  40.9895  40.9895  40.9895
    45.5376  45.5376  45.5377  45.5377  45.5377  45.5377  45.5377  45.5377
    51.0211  51.0211  51.0211  51.0211

          k =-0.0482-0.0000 0.0482 (   282 PWs)   bands (ev):

     6.6365  10.4487  10.4487  10.5758  10.9343  10.9343  10.9484  12.3746
    12.7314  12.7513  13.6188  13.6751  13.6802  13.6842  13.8741  14.2880
    14.4259  14.4259  14.5128  14.5128  14.6129  17.2441  17.2441  19.6796
    25.3985  26.2918  27.7175  27.7176  29.5876  29.5876  30.0954  30.0955
    31.8301  37.8561  38.2642  38.9171  39.4454  39.4455  41.9169  41.9171
    42.6034  44.8241  45.1302  47.2833  50.1280  52.3176  52.7778  55.7223
    56.6618  57.4852  57.4853  58.3728

          k =-0.0482 0.0000 0.0963 (   293 PWs)   bands (ev):

     7.6842  10.2758  10.9489  10.9981  11.2298  11.2849  11.3059  12.0740
    12.6116  12.7581  12.8836  13.0146  13.0308  13.4943  13.9388  14.0262
    14.0332  14.0645  14.2200  14.5056  14.5156  15.2066  18.9548  21.5641
    23.2187  26.0412  26.7344  27.8362  28.6437  31.0008  31.1830  31.2685
    32.4270  35.4334  35.9805  39.9100  40.6689  42.0631  42.2242  42.3489
    43.2682  45.7447  46.8585  49.3730  49.9070  51.7537  52.1628  53.2919
    54.9258  55.1154  58.0501  58.9766

          k =-0.0963-0.0000 0.0963 (   290 PWs)   bands (ev):

     8.6319  10.8822  10.8822  11.2532  11.5117  11.5118  11.5184  11.9987
    12.2586  12.2586  12.4296  12.7582  13.1559  13.3998  13.7162  13.8738
    13.8738  14.0339  14.0339  14.2478  14.4385  16.5283  16.5284  20.3960
    23.2716  26.5699  28.0652  28.0652  29.1599  29.1600  32.5080  33.0573
    33.0578  33.1476  35.0523  38.7794  42.9270  43.9223  43.9224  44.7518
    45.2927  45.2930  45.3029  48.9941  50.7798  50.8443  50.8443  53.9801
    54.4066  54.7045  56.2336  57.2435

          k = 0.0482-0.0482 0.0482 (   293 PWs)   bands (ev):

     6.9914  10.6168  10.6168  10.6168  11.0532  11.0533  11.0533  12.3334
    12.7706  12.7706  13.3559  13.3559  13.3559  13.7861  13.7861  14.0393
    14.0393  14.0393  14.6255  14.6255  14.6255  17.8999  17.8999  17.8999
    26.5138  26.5138  26.5138  27.9558  27.9558  27.9559  32.3810  32.3810
    32.3810  35.0605  38.2543  38.2544  38.2544  40.4584  43.1023  43.1023
    44.7577  44.7578  44.7578  48.0945  50.1664  50.1664  54.9767  54.9767
    57.2051  57.2051  57.9957  58.3095

          k = 0.0482-0.0482 0.0963 (   294 PWs)   bands (ev):

     7.9966  10.4391  11.0192  11.0192  11.3530  11.3796  11.3796  12.1117
    12.6029  12.6029  12.8058  12.8521  12.9164  13.6074  13.6848  13.7755
    13.7756  14.0435  14.5240  14.5240  14.5525  15.5848  19.3348  19.3348
    23.8489  23.8489  27.8533  28.6235  28.6235  31.7019  31.7020  32.2384
    32.4089  33.9454  38.5465  39.2523  39.6023  40.7075  40.7076  44.2009
    45.3590  46.1930  49.1125  49.1125  50.2970  51.1670  52.5664  52.5665
    53.2494  55.0041  55.1284  58.4230

          k =-0.0963 0.0482 0.0482 (   294 PWs)   bands (ev):

     7.9966  10.4391  11.0192  11.0192  11.3530  11.3796  11.3796  12.1117
    12.6029  12.6029  12.8058  12.8521  12.9164  13.6074  13.6848  13.7755
    13.7756  14.0435  14.5240  14.5240  14.5525  15.5848  19.3347  19.3348
    23.8489  23.8489  27.8534  28.6235  28.6235  31.7019  31.7020  32.2384
    32.4089  33.9453  38.5464  39.2523  39.6022  40.7075  40.7076  44.2009
    45.3591  46.1931  49.1124  49.1125  50.2970  51.1670  52.5665  52.5665
    53.2495  55.0040  55.1284  58.4230

          k = 0.0482-0.0482-0.1445 (   282 PWs)   bands (ev):

     9.3910   9.3955  11.4344  11.4345  11.4768  11.4768  11.7421  11.7498
    12.1855  12.1855  12.7025  12.7113  13.2123  13.2154  13.6033  13.6033
    14.2122  14.2186  14.3465  14.3479  14.4736  14.4736  20.5435  20.5435
    22.2947  22.2947  29.5898  29.5901  29.8628  29.8668  30.2471  30.2478
    36.5017  36.5117  37.0606  37.0842  39.8893  39.9097  43.8024  43.8025
    46.5278  46.5374  47.9327  47.9327  51.8248  51.8424  53.1765  53.1812
    54.6553  54.6553  56.2532  56.4515

          k = 0.0963-0.0482 0.0963 (   286 PWs)   bands (ev):

     8.8515  10.7663  10.7663  11.0569  11.6764  11.7295  11.7296  12.1605
    12.3863  12.3863  12.5291  12.7641  12.9009  13.4079  13.4079  13.4239
    13.7628  14.3465  14.4218  14.4305  14.4308  16.6774  16.6774  19.6101
    21.9276  25.1438  25.1438  29.3407  29.4578  32.5982  32.5982  33.5407
    33.5407  35.4534  36.8565  38.6849  41.0992  41.0992  41.4747  45.0290
    46.3371  46.5567  48.6241  48.6242  51.4645  51.4645  52.5531  52.9533
    53.0675  54.7332  54.8238  55.2136

          k =-0.0963 0.0482 0.0963 (   286 PWs)   bands (ev):

     8.8515  10.7663  10.7663  11.0569  11.6764  11.7295  11.7296  12.1605
    12.3863  12.3863  12.5291  12.7641  12.9009  13.4079  13.4079  13.4239
    13.7628  14.3465  14.4218  14.4305  14.4308  16.6774  16.6774  19.6101
    21.9276  25.1438  25.1438  29.3407  29.4578  32.5982  32.5982  33.5407
    33.5407  35.4534  36.8565  38.6850  41.0991  41.0992  41.4747  45.0290
    46.3371  46.5567  48.6241  48.6242  51.4644  51.4645  52.5531  52.9533
    53.0675  54.7332  54.8238  55.2136

          k = 0.0963-0.0482-0.1445 (   290 PWs)   bands (ev):

     9.9462   9.9489  10.9941  10.9950  11.9002  11.9005  12.0658  12.0720
    12.3904  12.3931  12.5147  12.5204  13.0564  13.0586  13.2779  13.2792
    14.0695  14.0721  14.3110  14.3136  15.0492  15.0503  18.0950  18.0997
    22.9940  22.9980  26.9676  26.9708  30.8225  30.8256  34.5600  34.5604
    34.7185  34.7212  38.4645  38.4876  41.6261  41.6299  42.0791  42.0843
    47.5224  47.5227  48.2040  48.2161  49.6670  49.6759  53.3423  53.3492
    53.9410  53.9450  56.2069  56.2136

          k = 0.0963-0.0963 0.0963 (   296 PWs)   bands (ev):

     9.3960  10.5932  10.5933  10.5933  12.1024  12.1024  12.1024  12.6539
    12.7219  12.7219  12.7235  12.7277  12.7277  13.0303  13.0303  13.0303
    14.1687  14.1687  14.5626  14.5626  14.5627  17.0322  17.0322  17.0322
    22.5955  22.5955  22.5955  26.4286  33.9583  33.9584  33.9584  36.7553
    36.7553  36.7553  38.8367  38.8368  38.8368  38.9346  41.6926  41.6926
    46.8262  46.8262  49.5473  50.4241  50.4241  50.4242  50.6859  50.6859
    50.6859  54.5432  54.5433  54.5433

          k = 0.0963-0.0963-0.1445 (   298 PWs)   bands (ev):

    10.0216  10.0222  10.5212  10.5212  12.2323  12.2323  12.5362  12.5409
    12.7721  12.7728  12.8959  12.8965  12.9063  12.9113  13.0136  13.0137
    14.4749  14.4755  14.4831  14.4832  14.9080  14.9081  17.2752  17.2752
    21.5539  21.5539  24.2514  24.2544  34.9258  34.9259  36.0583  36.0584
    37.6784  37.6897  38.8693  38.8726  40.5309  40.5449  40.7540  40.7540
    47.2315  47.2315  47.4159  47.4254  48.4978  48.5039  50.9868  50.9868
    51.8157  51.8162  55.4250  55.4252

 ------ SPIN DOWN ----------


          k = 0.0000 0.0000 0.0000 (   257 PWs)   bands (ev):

     5.8485  10.6537  10.6537  10.6537  11.3799  11.3799  11.3799  13.4077
    13.4077  13.4077  14.5529  14.5529  15.4148  15.4148  15.4148  15.7059
    15.7059  15.7059  15.7060  15.7060  15.7060  17.7597  17.7597  17.7597
    25.7577  25.7578  25.7578  30.6558  30.6558  30.6558  30.6559  30.6559
    30.6559  37.6103  37.6104  37.6104  39.4024  40.1881  40.1884  40.1884
    43.8187  43.8187  43.8188  49.4537  49.7988  49.7988  49.7988  57.2983
    57.2983  57.2983  61.3248  61.3248

          k = 0.0000 0.0000 0.0482 (   280 PWs)   bands (ev):

     6.2250  10.6390  10.8530  10.8530  11.5035  11.5095  11.5095  13.2582
    13.5217  13.5217  14.4245  14.6066  14.7649  14.7649  15.2020  15.2020
    15.3125  15.4485  15.4485  15.6726  15.6726  16.2895  18.9748  18.9748
    25.7599  25.7599  27.6313  29.1200  29.1200  29.6415  29.6415  31.2724
    31.2724  37.3859  39.1034  39.3829  39.3830  39.9272  42.0274  42.0276
    42.0696  42.0697  42.2416  50.9207  50.9207  50.9374  50.9590  53.8147
    58.4954  58.4954  58.9918  58.9919

          k = 0.0000 0.0000 0.0963 (   284 PWs)   bands (ev):

     7.3064  10.2405  11.3280  11.3280  11.8492  11.9054  11.9054  12.8610
    13.5520  13.5520  13.8570  13.8570  14.0839  14.3421  14.7510  14.7511
    14.7568  14.9368  14.9368  15.1544  15.6687  15.6687  21.1176  21.1177
    25.9685  25.9686  26.3609  26.3609  28.0063  28.0064  31.9034  32.9805
    32.9806  37.5488  38.5227  38.9048  38.9048  39.7677  40.3899  43.0149
    43.0149  46.1847  46.1849  46.3139  52.9066  52.9066  53.0016  53.0017
    53.9785  57.0686  59.3512  59.3512

          k =-0.0000-0.0000-0.1445 (   288 PWs)   bands (ev):

     8.8755   8.8811  11.6291  11.6291  12.3370  12.3460  12.5801  12.5801
    12.5887  12.5887  13.7957  13.8086  14.3434  14.3434  14.3501  14.3501
    14.4715  14.4715  14.9446  14.9496  15.6707  15.6707  23.6669  23.6669
    23.6838  23.6838  26.3131  26.3132  27.1535  27.1535  35.5140  35.5140
    35.5243  35.5244  36.3695  36.3953  37.9089  37.9192  42.0708  42.1067
    47.8927  47.8927  47.9277  47.9277  49.5525  49.5527  55.6107  55.6107
    55.6231  55.6232  55.6513  55.6513

          k = 0.0000 0.0482 0.0482 (   282 PWs)   bands (ev):

     6.5935  10.8561  10.8561  11.0403  11.6146  11.6233  11.6234  13.1829
    13.5742  13.5812  14.3392  14.3835  14.3853  14.4021  14.6138  15.0308
    15.1696  15.1697  15.4527  15.4528  15.5589  17.5445  17.5446  19.8477
    25.6185  26.4233  27.8906  27.8907  29.6582  29.6582  30.1420  30.1421
    31.8485  37.8155  38.3291  38.9183  39.4708  39.4708  42.0269  42.0270
    42.5405  44.8846  45.1016  47.2309  50.1074  52.4629  52.6962  55.6163
    56.8193  57.4230  57.4232  58.3100

          k = 0.0000 0.0482 0.0963 (   293 PWs)   bands (ev):

     7.6491  10.4968  11.3863  11.4993  11.9148  11.9407  11.9875  12.8535
    13.2656  13.4394  13.6501  13.6776  13.8682  14.2127  14.6574  14.7496
    14.8276  14.9186  14.9356  15.4463  15.4591  15.8741  19.2764  21.7642
    23.4013  26.2513  26.8731  27.9526  28.7771  31.0951  31.2389  31.3361
    32.5227  35.4892  36.0128  39.9121  40.6819  41.9941  42.1676  42.4711
    43.2357  45.8233  47.0600  49.4138  49.8279  51.6900  52.1260  53.2054
    54.8711  55.0377  58.1967  58.8733

          k =-0.0000 0.0482-0.1445 (   288 PWs)   bands (ev):

     9.1754   9.1806  11.7822  11.7828  12.3847  12.3933  12.4136  12.4202
    12.5979  12.6063  13.4995  13.5096  14.3484  14.3553  14.4437  14.4456
    14.4481  14.4488  15.1939  15.1941  15.4482  15.4497  21.1971  21.2050
    24.2032  24.2185  26.9364  26.9485  29.7482  29.7530  33.1260  33.1293
    33.5216  33.5247  37.4317  37.4609  40.7904  40.7930  44.0100  44.0319
    44.9387  44.9487  48.1257  48.1575  52.2049  52.2171  52.4766  52.5060
    54.6938  54.7093  56.0702  56.0799

          k = 0.0000 0.0963 0.0963 (   290 PWs)   bands (ev):

     8.6199  11.1487  11.1487  11.8840  11.9739  12.2104  12.2105  12.7520
    12.9135  12.9135  13.1012  13.5055  14.0215  14.1015  14.4230  14.5659
    14.5659  14.9441  14.9441  15.1735  15.2323  17.0973  17.0973  20.6824
    23.4810  26.7524  28.2180  28.2181  29.2574  29.2574  32.6205  33.1410
    33.1416  33.2083  35.1056  38.7879  42.8717  43.8764  43.8764  44.6412
    45.3269  45.3416  45.3419  49.1029  50.7424  50.8676  50.8677  53.8499
    54.4343  54.6337  56.4185  57.1822

          k =-0.0000 0.0963-0.1445 (   296 PWs)   bands (ev):

     9.9870   9.9915  11.7706  11.7755  12.3821  12.3826  12.4996  12.5077
    12.6259  12.6339  13.1678  13.1741  14.1987  14.1989  14.2726  14.2736
    14.4096  14.4168  14.9905  14.9947  15.9054  15.9068  18.5807  18.5866
    25.6522  25.6625  27.6563  27.6668  30.1761  30.1806  30.9738  30.9757
    34.4623  34.4654  38.3637  38.3909  42.0262  42.0296  44.8449  44.8472
    44.8508  44.8528  48.6064  48.6327  50.1342  50.1477  52.9765  52.9922
    54.4008  54.4214  55.4354  55.4372

          k =-0.0000-0.1445-0.1445 (   300 PWs)   bands (ev):

    11.0009  11.0049  11.0049  11.0088  12.5978  12.6055  12.6055  12.6132
    12.8504  12.8528  12.8529  12.8553  14.0412  14.0420  14.0420  14.0429
    14.6019  14.6083  14.6084  14.6149  16.9193  16.9215  16.9215  16.9237
    27.6318  27.6386  27.6387  27.6454  28.9924  28.9991  28.9991  29.0058
    39.5994  39.6071  39.6071  39.6153  39.9143  39.9208  39.9209  39.9266
    48.5381  48.5395  48.5395  48.5411  51.9116  51.9285  51.9285  51.9456
    54.0962  54.0984  54.0984  54.1005

          k = 0.0482 0.0482 0.0482 (   293 PWs)   bands (ev):

     6.9512  11.0491  11.0491  11.0491  11.7199  11.7200  11.7200  13.1237
    13.6017  13.6017  14.0265  14.0265  14.0265  14.5244  14.5244  14.8226
    14.8226  14.8226  15.5223  15.5223  15.5223  18.2252  18.2252  18.2252
    26.6334  26.6334  26.6334  28.1205  28.1205  28.1205  32.4088  32.4089
    32.4089  35.1086  38.3161  38.3162  38.3162  40.3105  43.1356  43.1356
    44.8262  44.8263  44.8263  48.0248  50.1096  50.1096  55.0897  55.0897
    57.1522  57.1522  57.1522  58.0518

          k = 0.0482 0.0482 0.0963 (   294 PWs)   bands (ev):

     7.9721  10.6984  11.5223  11.5223  11.9768  11.9768  12.0293  12.8658
    13.2663  13.2663  13.4409  13.6362  13.7307  14.4074  14.4479  14.5156
    14.5158  14.8164  15.4031  15.4359  15.4359  16.1769  19.6446  19.6446
    24.0460  24.0460  27.9871  28.7624  28.7624  31.7736  31.7737  32.3368
    32.4869  33.9947  38.5972  39.1446  39.6704  40.7182  40.7183  44.1903
    45.4269  46.2374  49.1343  49.1343  50.2820  51.0928  52.5350  52.5351
    53.2593  54.9305  55.0742  58.3500

          k = 0.0482 0.0482-0.1445 (   282 PWs)   bands (ev):

     9.4346   9.4394  11.9607  11.9608  12.0425  12.0426  12.4534  12.4617
    12.8602  12.8602  13.4074  13.4170  14.0155  14.0180  14.3195  14.3195
    14.9691  14.9759  15.1567  15.1575  15.3933  15.3933  20.7867  20.7868
    22.5806  22.5806  29.6898  29.6902  29.9909  29.9946  30.3629  30.3636
    36.5674  36.5772  37.0146  37.0384  39.9541  39.9746  43.7826  43.7826
    46.6069  46.6172  47.8785  47.8785  51.7317  51.7491  53.1012  53.1059
    54.6640  54.6640  56.4052  56.4654

          k = 0.0482 0.0963 0.0963 (   286 PWs)   bands (ev):

     8.8737  11.1486  11.1486  11.6468  12.1534  12.2974  12.2975  12.8467
    13.0659  13.0659  13.2001  13.5202  13.6779  14.1603  14.1606  14.1627
    14.5571  15.1460  15.2939  15.2940  15.3163  17.1961  17.1961  19.8711
    22.2517  25.3471  25.3472  29.4873  29.5760  32.6502  32.6502  33.6309
    33.6309  35.5085  36.8639  38.6888  41.1009  41.1009  41.4177  45.1478
    46.2819  46.4881  48.5991  48.5992  51.4947  51.4947  52.4630  52.9094
    53.0236  54.7525  54.8667  55.1270

          k = 0.0482 0.0963-0.1445 (   290 PWs)   bands (ev):

    10.1015  10.1050  11.5071  11.5086  12.4219  12.4227  12.6733  12.6803
    13.0451  13.0483  13.2320  13.2384  13.8147  13.8163  14.0064  14.0075
    14.8852  14.8888  15.1966  15.1995  15.7945  15.7959  18.4834  18.4879
    23.2780  23.2816  27.1539  27.1567  30.9142  30.9178  34.6061  34.6072
    34.7819  34.7851  38.4671  38.4898  41.6097  41.6132  42.1038  42.1092
    47.4799  47.4801  48.1539  48.1664  49.6441  49.6536  53.3324  53.3392
    53.8688  53.8726  56.2593  56.2664

          k = 0.0482-0.1445-0.1445 (   292 PWs)   bands (ev):

    10.8682  10.8702  10.8702  10.8722  12.8533  12.8566  12.8566  12.8598
    13.0720  13.0763  13.0763  13.0806  13.7548  13.7566  13.7566  13.7585
    14.9051  14.9096  14.9096  14.9141  16.7837  16.7861  16.7861  16.7886
    24.9693  24.9719  24.9719  24.9745  32.4653  32.4680  32.4680  32.4708
    39.6709  39.6758  39.6759  39.6814  39.9167  39.9245  39.9246  39.9317
    48.6154  48.6162  48.6162  48.6172  49.4044  49.4146  49.4146  49.4247
    57.1388  57.1462  57.1462  57.1540

          k = 0.0963 0.0963 0.0963 (   296 PWs)   bands (ev):

     9.5374  11.0843  11.0844  11.0844  12.6299  12.6300  12.6300  13.1419
    13.3632  13.3632  13.3633  13.4831  13.4831  13.7757  13.7757  13.7757
    15.0015  15.0015  15.4403  15.4403  15.4403  17.4354  17.4355  17.4355
    22.9151  22.9151  22.9151  26.6398  33.9948  33.9949  33.9949  36.8164
    36.8165  36.8165  38.7755  38.8389  38.8389  38.8389  41.7794  41.7794
    46.7911  46.7911  49.5513  50.3530  50.3530  50.3531  50.6488  50.6488
    50.6488  54.5609  54.5610  54.5610

          k = 0.0963 0.0963-0.1445 (   298 PWs)   bands (ev):

    10.3509  10.3524  11.0377  11.0378  12.8275  12.8276  13.1607  13.1654
    13.4228  13.4286  13.5198  13.5202  13.5793  13.5793  13.6313  13.6313
    15.3343  15.3351  15.3620  15.3620  15.5809  15.5820  17.5968  17.5968
    21.9624  21.9625  24.5230  24.5257  34.9181  34.9182  36.1453  36.1453
    37.5604  37.5720  38.9400  38.9429  40.6149  40.6287  40.7396  40.7396
    47.2152  47.2152  47.3631  47.3727  48.4644  48.4708  50.9206  50.9206
    51.8360  51.8366  55.4958  55.4959

          k = 0.0963-0.1445-0.1445 (   292 PWs)   bands (ev):

    10.6492  10.6495  10.6495  10.6499  13.1868  13.1880  13.1880  13.1892
    13.4303  13.4316  13.4316  13.4328  13.8871  13.8902  13.8902  13.8934
    15.2670  15.2693  15.2693  15.2717  16.2342  16.2370  16.2370  16.2397
    22.7022  22.7045  22.7046  22.7069  36.5532  36.5569  36.5570  36.5607
    39.4951  39.4976  39.4976  39.5001  40.5909  40.5951  40.5951  40.5991
    46.7650  46.7715  46.7715  46.7779  47.6292  47.6321  47.6322  47.6350
    53.0879  53.0903  53.0903  53.0928

          k =-0.1445-0.1445-0.1445 (   304 PWs)   bands (ev):

    10.5535  10.5535  10.5535  10.5536  13.3099  13.3099  13.3099  13.3099
    13.3099  13.3099  13.3100  13.3100  14.8658  14.8659  14.8659  14.8659
    15.4042  15.4042  15.4042  15.4042  15.4042  15.4042  15.4043  15.4043
    21.8258  21.8258  21.8258  21.8259  37.8448  37.8452  37.8452  37.8452
    41.0676  41.0676  41.0676  41.0676  41.0676  41.0677  41.0677  41.0677
    45.5166  45.5166  45.5167  45.5168  45.5168  45.5168  45.5168  45.5168
    51.1168  51.1169  51.1169  51.1169

          k =-0.0482-0.0000 0.0482 (   282 PWs)   bands (ev):

     6.5935  10.8561  10.8561  11.0403  11.6146  11.6233  11.6234  13.1829
    13.5742  13.5812  14.3392  14.3835  14.3853  14.4021  14.6138  15.0308
    15.1696  15.1697  15.4527  15.4528  15.5589  17.5445  17.5446  19.8477
    25.6185  26.4232  27.8906  27.8907  29.6582  29.6582  30.1420  30.1421
    31.8485  37.8155  38.3291  38.9183  39.4708  39.4708  42.0269  42.0271
    42.5405  44.8846  45.1016  47.2309  50.1075  52.4629  52.6962  55.6163
    56.8194  57.4230  57.4231  58.3100

          k =-0.0482 0.0000 0.0963 (   293 PWs)   bands (ev):

     7.6491  10.4968  11.3863  11.4993  11.9148  11.9407  11.9875  12.8535
    13.2656  13.4394  13.6502  13.6776  13.8682  14.2127  14.6575  14.7496
    14.8276  14.9186  14.9356  15.4463  15.4591  15.8741  19.2764  21.7642
    23.4013  26.2513  26.8731  27.9526  28.7771  31.0951  31.2389  31.3361
    32.5227  35.4892  36.0127  39.9121  40.6819  41.9941  42.1676  42.4710
    43.2357  45.8233  47.0600  49.4137  49.8279  51.6901  52.1260  53.2054
    54.8710  55.0377  58.1967  58.8732

          k =-0.0963-0.0000 0.0963 (   290 PWs)   bands (ev):

     8.6199  11.1487  11.1487  11.8840  11.9739  12.2104  12.2105  12.7520
    12.9135  12.9135  13.1012  13.5055  14.0215  14.1015  14.4230  14.5659
    14.5659  14.9441  14.9441  15.1735  15.2323  17.0973  17.0973  20.6824
    23.4810  26.7524  28.2180  28.2181  29.2574  29.2575  32.6204  33.1410
    33.1416  33.2083  35.1056  38.7880  42.8718  43.8764  43.8764  44.6412
    45.3269  45.3417  45.3418  49.1029  50.7425  50.8676  50.8677  53.8499
    54.4343  54.6338  56.4185  57.1822

          k = 0.0482-0.0482 0.0482 (   293 PWs)   bands (ev):

     6.9512  11.0491  11.0491  11.0491  11.7199  11.7200  11.7200  13.1237
    13.6017  13.6017  14.0265  14.0265  14.0265  14.5244  14.5244  14.8226
    14.8226  14.8226  15.5222  15.5222  15.5223  18.2252  18.2252  18.2252
    26.6334  26.6334  26.6334  28.1204  28.1205  28.1205  32.4089  32.4089
    32.4089  35.1086  38.3161  38.3162  38.3162  40.3105  43.1356  43.1356
    44.8262  44.8263  44.8263  48.0248  50.1096  50.1096  55.0897  55.0897
    57.1522  57.1522  58.0517  58.2417

          k = 0.0482-0.0482 0.0963 (   294 PWs)   bands (ev):

     7.9721  10.6984  11.5223  11.5223  11.9768  11.9768  12.0293  12.8658
    13.2663  13.2664  13.4409  13.6362  13.7307  14.4074  14.4480  14.5156
    14.5158  14.8164  15.4031  15.4359  15.4359  16.1769  19.6446  19.6446
    24.0460  24.0460  27.9871  28.7624  28.7624  31.7737  31.7737  32.3368
    32.4869  33.9947  38.5972  39.1446  39.6704  40.7182  40.7183  44.1903
    45.4269  46.2374  49.1342  49.1343  50.2820  51.0928  52.5350  52.5351
    53.2593  54.9305  55.0742  58.3500

          k =-0.0963 0.0482 0.0482 (   294 PWs)   bands (ev):

     7.9721  10.6984  11.5223  11.5223  11.9768  11.9768  12.0293  12.8658
    13.2664  13.2664  13.4409  13.6362  13.7307  14.4074  14.4480  14.5156
    14.5158  14.8164  15.4031  15.4359  15.4359  16.1769  19.6446  19.6446
    24.0460  24.0460  27.9872  28.7624  28.7624  31.7737  31.7737  32.3368
    32.4869  33.9947  38.5972  39.1446  39.6704  40.7182  40.7183  44.1903
    45.4269  46.2374  49.1342  49.1343  50.2821  51.0928  52.5350  52.5350
    53.2593  54.9304  55.0742  58.3500

          k = 0.0482-0.0482-0.1445 (   282 PWs)   bands (ev):

     9.4346   9.4394  11.9607  11.9608  12.0425  12.0426  12.4534  12.4617
    12.8602  12.8602  13.4074  13.4170  14.0155  14.0180  14.3194  14.3195
    14.9691  14.9759  15.1567  15.1575  15.3933  15.3933  20.7867  20.7867
    22.5806  22.5806  29.6898  29.6901  29.9909  29.9946  30.3630  30.3636
    36.5675  36.5772  37.0146  37.0384  39.9542  39.9746  43.7825  43.7826
    46.6069  46.6172  47.8785  47.8785  51.7317  51.7491  53.1012  53.1060
    54.6639  54.6640  56.4052  56.4654

          k = 0.0963-0.0482 0.0963 (   286 PWs)   bands (ev):

     8.8737  11.1486  11.1486  11.6468  12.1534  12.2974  12.2975  12.8467
    13.0659  13.0659  13.2001  13.5202  13.6779  14.1603  14.1606  14.1627
    14.5571  15.1460  15.2939  15.2940  15.3163  17.1961  17.1961  19.8711
    22.2517  25.3471  25.3471  29.4872  29.5760  32.6502  32.6502  33.6309
    33.6309  35.5085  36.8639  38.6888  41.1009  41.1009  41.4177  45.1478
    46.2820  46.4881  48.5991  48.5992  51.4946  51.4947  52.4630  52.9094
    53.0237  54.7525  54.8667  55.1270

          k =-0.0963 0.0482 0.0963 (   286 PWs)   bands (ev):

     8.8737  11.1486  11.1486  11.6467  12.1534  12.2975  12.2975  12.8467
    13.0659  13.0659  13.2001  13.5202  13.6779  14.1603  14.1606  14.1627
    14.5571  15.1460  15.2939  15.2940  15.3163  17.1961  17.1961  19.8711
    22.2517  25.3471  25.3472  29.4872  29.5760  32.6502  32.6502  33.6309
    33.6309  35.5086  36.8639  38.6888  41.1009  41.1009  41.4177  45.1478
    46.2820  46.4881  48.5991  48.5991  51.4946  51.4947  52.4630  52.9094
    53.0237  54.7525  54.8667  55.1270

          k = 0.0963-0.0482-0.1445 (   290 PWs)   bands (ev):

    10.1015  10.1050  11.5071  11.5086  12.4219  12.4227  12.6733  12.6803
    13.0451  13.0483  13.2320  13.2383  13.8147  13.8163  14.0064  14.0075
    14.8852  14.8888  15.1966  15.1995  15.7945  15.7959  18.4834  18.4879
    23.2780  23.2816  27.1539  27.1567  30.9142  30.9178  34.6061  34.6072
    34.7819  34.7851  38.4671  38.4898  41.6097  41.6132  42.1038  42.1092
    47.4800  47.4800  48.1539  48.1664  49.6441  49.6536  53.3324  53.3392
    53.8688  53.8726  56.2593  56.2664

          k = 0.0963-0.0963 0.0963 (   296 PWs)   bands (ev):

     9.5374  11.0843  11.0844  11.0844  12.6299  12.6300  12.6300  13.1419
    13.3632  13.3632  13.3633  13.4831  13.4831  13.7756  13.7757  13.7757
    15.0015  15.0015  15.4402  15.4403  15.4403  17.4354  17.4354  17.4355
    22.9151  22.9151  22.9151  26.6398  33.9948  33.9949  33.9949  36.8164
    36.8164  36.8165  38.7755  38.8388  38.8389  38.8390  41.7794  41.7795
    46.7911  46.7911  49.5513  50.3529  50.3530  50.3531  50.6488  50.6488
    50.6488  54.5609  54.5610  54.5610

          k = 0.0963-0.0963-0.1445 (   298 PWs)   bands (ev):

    10.3509  10.3524  11.0377  11.0378  12.8275  12.8275  13.1607  13.1654
    13.4228  13.4286  13.5198  13.5202  13.5793  13.5793  13.6313  13.6313
    15.3343  15.3351  15.3620  15.3620  15.5809  15.5820  17.5968  17.5968
    21.9625  21.9625  24.5230  24.5257  34.9181  34.9182  36.1453  36.1453
    37.5604  37.5720  38.9400  38.9430  40.6149  40.6287  40.7395  40.7396
    47.2152  47.2152  47.3631  47.3727  48.4644  48.4708  50.9205  50.9206
    51.8360  51.8366  55.4958  55.4959

     the Fermi energy is    15.1945 ev

!    total energy              =    -343.59851694 Ry
     Harris-Foulkes estimate   =    -343.59851693 Ry
     estimated scf accuracy    <          8.6E-12 Ry

     The total energy is the sum of the following terms:

     one-electron contribution =      -1.17844384 Ry
     hartree contribution      =      58.69546741 Ry
     xc contribution           =    -120.57817839 Ry
     ewald contribution        =    -280.48583451 Ry
     Dispersion Correction     =      -0.05035601 Ry
     smearing contrib. (-TS)   =      -0.00117161 Ry

     total magnetization       =     2.70 Bohr mag/cell
     absolute magnetization    =     3.07 Bohr mag/cell

     convergence has been achieved in  11 iterations

     Forces acting on atoms (Ry/au):

     atom    1 type  1   force =    -0.00080539   -0.00080539    0.00080540
     atom    2 type  1   force =     0.00080539    0.00080539    0.00080539
     atom    3 type  1   force =    -0.00080539    0.00080540   -0.00080539
     atom    4 type  1   force =     0.00080540   -0.00080539   -0.00080539

     Total force =     0.002790     Total SCF correction =     0.000004


     entering subroutine stress ...

          total   stress  (Ry/bohr**3)                   (kbar)     P=   -0.33
  -0.00000226   0.00000010   0.00000010         -0.33      0.01      0.01
   0.00000010  -0.00000226   0.00000010          0.01     -0.33      0.01
   0.00000010   0.00000010  -0.00000226          0.01      0.01     -0.33


     bfgs converged in   4 scf cycles and   3 bfgs steps
     (criteria: energy <  1.0E-04, force <  1.0E-03, cell <  5.0E-01)

     End of BFGS Geometry Optimization

     Final enthalpy =    -343.5985169446 Ry
Begin final coordinates
     new unit-cell volume =    279.52704 a.u.^3 (    41.42163 Ang^3 )

CELL_PARAMETERS (alat=  1.88972590)
   3.459997552  -0.000001040  -0.000001040
  -0.000001040   3.459997552  -0.000001040
  -0.000001040  -0.000001040   3.459997552

ATOMIC_POSITIONS (alat)
Ni1      1.734786450   1.734786450   0.002891890
Ni1      0.002892184   0.002892184   0.002892184
Ni1      1.734786450   0.002891890   1.734786450
Ni1      0.002891890   1.734786450   1.734786450
End final coordinates



     A final scf calculation at the relaxed structure.
     The G-vectors are recalculated for the final unit cell
     Results may differ from those at the preceding step.

     G-vector sticks info
     --------------------
     sticks:   dense  smooth     PW     G-vecs:    dense   smooth      PW
     Sum        1361     197     69                37705     2109     461

     Generating pointlists ...

     Title: 
     Ni-ferro-mag                                                               


     bravais-lattice index     =            0
     lattice parameter (alat)  =       1.8897  a.u.
     unit-cell volume          =     279.5270 (a.u.)^3
     number of atoms/cell      =            4
     number of atomic types    =            1
     number of electrons       =        40.00
     number of Kohn-Sham states=           52
     kinetic-energy cutoff     =      15.0000  Ry
     charge density cutoff     =     400.0000  Ry
     convergence threshold     =      1.4E-10
     mixing beta               =       0.2000
     number of iterations used =            8  plain     mixing
     Exchange-correlation      =  SLA  PW   PBE  PBE ( 1  4  3  4 0 0)

     celldm(1)=   1.889726  celldm(2)=   0.000000  celldm(3)=   0.000000
     celldm(4)=   0.000000  celldm(5)=   0.000000  celldm(6)=   0.000000

     crystal axes: (cart. coord. in units of alat)
               a(1) = (   3.459998  -0.000001  -0.000001 )  
               a(2) = (  -0.000001   3.459998  -0.000001 )  
               a(3) = (  -0.000001  -0.000001   3.459998 )  

     reciprocal axes: (cart. coord. in units 2 pi/alat)
               b(1) = (  0.289018  0.000000  0.000000 )  
               b(2) = (  0.000000  0.289018  0.000000 )  
               b(3) = (  0.000000  0.000000  0.289018 )  


     PseudoPot. # 1 for Ni read from file:
     /home/eliot/pseudo/Ni.pbe-nd-rrkjus.UPF
     MD5 check sum: 8081f0a005c9a5470caab1a58e82ecb2
     Pseudo is Ultrasoft + core correction, Zval = 10.0
     Generated by new atomic code, or converted to UPF format
     Using radial grid of 1203 points,  6 beta functions with: 
                l(1) =   0
                l(2) =   0
                l(3) =   1
                l(4) =   1
                l(5) =   2
                l(6) =   2
     Q(r) pseudized with 0 coefficients 


     atomic species   valence    mass     pseudopotential
        Ni1           10.00    58.69340     Ni( 1.00)

     Starting magnetic structure 
     atomic species   magnetization
        Ni1          0.500

      6 Sym. Ops. (no inversion) found



   Cartesian axes

     site n.     atom                  positions (alat units)
         1           Ni1 tau(   1) = (   1.7347865   1.7347865   0.0028919  )
         2           Ni1 tau(   2) = (   0.0028922   0.0028922   0.0028922  )
         3           Ni1 tau(   3) = (   1.7347865   0.0028919   1.7347865  )
         4           Ni1 tau(   4) = (   0.0028919   1.7347865   1.7347865  )

     number of k points=    32  Methfessel-Paxton smearing, width (Ry)=  0.0500
                       cart. coord. in units 2pi/alat
        k(    1) = (   0.0000000   0.0000000   0.0000000), wk =   0.0046296
        k(    2) = (   0.0000000   0.0000000   0.0481696), wk =   0.0277778
        k(    3) = (   0.0000000   0.0000000   0.0963392), wk =   0.0277778
        k(    4) = (  -0.0000000  -0.0000000  -0.1445088), wk =   0.0138889
        k(    5) = (   0.0000000   0.0481696   0.0481696), wk =   0.0277778
        k(    6) = (   0.0000000   0.0481696   0.0963392), wk =   0.0555556
        k(    7) = (  -0.0000000   0.0481695  -0.1445088), wk =   0.0555556
        k(    8) = (   0.0000001   0.0963392   0.0963392), wk =   0.0277778
        k(    9) = (  -0.0000000   0.0963391  -0.1445087), wk =   0.0555556
        k(   10) = (  -0.0000001  -0.1445088  -0.1445088), wk =   0.0138889
        k(   11) = (   0.0481696   0.0481696   0.0481696), wk =   0.0092593
        k(   12) = (   0.0481696   0.0481696   0.0963392), wk =   0.0277778
        k(   13) = (   0.0481696   0.0481696  -0.1445087), wk =   0.0277778
        k(   14) = (   0.0481696   0.0963392   0.0963392), wk =   0.0277778
        k(   15) = (   0.0481696   0.0963392  -0.1445087), wk =   0.0555556
        k(   16) = (   0.0481695  -0.1445088  -0.1445088), wk =   0.0277778
        k(   17) = (   0.0963392   0.0963392   0.0963392), wk =   0.0092593
        k(   18) = (   0.0963392   0.0963392  -0.1445087), wk =   0.0277778
        k(   19) = (   0.0963391  -0.1445088  -0.1445088), wk =   0.0277778
        k(   20) = (  -0.1445089  -0.1445089  -0.1445089), wk =   0.0046296
        k(   21) = (  -0.0481696  -0.0000000   0.0481696), wk =   0.0277778
        k(   22) = (  -0.0481696   0.0000000   0.0963392), wk =   0.0555556
        k(   23) = (  -0.0963392  -0.0000000   0.0963392), wk =   0.0277778
        k(   24) = (   0.0481696  -0.0481696   0.0481696), wk =   0.0277778
        k(   25) = (   0.0481696  -0.0481695   0.0963392), wk =   0.0555556
        k(   26) = (  -0.0963392   0.0481696   0.0481696), wk =   0.0277778
        k(   27) = (   0.0481695  -0.0481696  -0.1445088), wk =   0.0277778
        k(   28) = (   0.0963392  -0.0481695   0.0963392), wk =   0.0277778
        k(   29) = (  -0.0963391   0.0481696   0.0963392), wk =   0.0555556
        k(   30) = (   0.0963391  -0.0481696  -0.1445088), wk =   0.0555556
        k(   31) = (   0.0963392  -0.0963391   0.0963392), wk =   0.0277778
        k(   32) = (   0.0963391  -0.0963392  -0.1445088), wk =   0.0277778

     Dense  grid:    37705 G-vectors     FFT dimensions: (  45,  45,  45)

     Smooth grid:     2109 G-vectors     FFT dimensions: (  18,  18,  18)

     Largest allocated arrays     est. size (Mb)     dimensions
        Kohn-Sham Wavefunctions         0.23 Mb     (     284,   52)
        NL pseudopotentials             0.31 Mb     (     284,   72)
        Each V/rho on FFT grid          2.78 Mb     (   91125,   2)
        Each G-vector array             0.29 Mb     (   37705)
        G-vector shells                 0.02 Mb     (    2549)
     Largest temporary arrays     est. size (Mb)     dimensions
        Auxiliary wavefunctions         0.90 Mb     (     284,  208)
        Each subspace H/S matrix        0.66 Mb     (     208,  208)
        Each <psi_i|beta_j> matrix      0.06 Mb     (      72,   52)
        Arrays for rho mixing          11.12 Mb     (   91125,    8)

     Check: negative/imaginary core charge=   -0.000004    0.000000

     Initial potential from superposition of free atoms

     starting charge   39.99816, renormalised to   40.00000
     Starting wfc are   24 randomized atomic wfcs +   28 random wfc

     Writing output data file Ni-ferromag.save

     total cpu time spent up to now is      702.4 secs

     Self-consistent Calculation

     iteration #  1     ecut=    15.00 Ry     beta=0.20
     Davidson diagonalization with overlap
     ethr =  1.00E-06,  avg # of iterations = 12.1

     total cpu time spent up to now is      738.2 secs

     total energy              =    -342.87603703 Ry
     Harris-Foulkes estimate   =    -343.10309996 Ry
     estimated scf accuracy    <       2.34426005 Ry

     total magnetization       =     6.67 Bohr mag/cell
     absolute magnetization    =     6.68 Bohr mag/cell

     iteration #  2     ecut=    15.00 Ry     beta=0.20
     Davidson diagonalization with overlap
     ethr =  5.86E-03,  avg # of iterations =  1.0

     total cpu time spent up to now is      745.2 secs

     total energy              =    -343.16033722 Ry
     Harris-Foulkes estimate   =    -342.99152512 Ry
     estimated scf accuracy    <       0.83579793 Ry

     total magnetization       =     5.58 Bohr mag/cell
     absolute magnetization    =     5.68 Bohr mag/cell

     iteration #  3     ecut=    15.00 Ry     beta=0.20
     Davidson diagonalization with overlap
     ethr =  2.09E-03,  avg # of iterations =  1.1

     negative rho (up, down):  0.000E+00 2.245E-03

     total cpu time spent up to now is      752.1 secs

     total energy              =    -343.47361731 Ry
     Harris-Foulkes estimate   =    -343.24541174 Ry
     estimated scf accuracy    <       0.35155650 Ry

     total magnetization       =     4.33 Bohr mag/cell
     absolute magnetization    =     4.63 Bohr mag/cell

     iteration #  4     ecut=    15.00 Ry     beta=0.20
     Davidson diagonalization with overlap
     ethr =  8.79E-04,  avg # of iterations =  1.1

     negative rho (up, down):  0.000E+00 1.467E-03

     total cpu time spent up to now is      759.1 secs

     total energy              =    -343.55634836 Ry
     Harris-Foulkes estimate   =    -343.56650457 Ry
     estimated scf accuracy    <       0.07683546 Ry

     total magnetization       =     2.69 Bohr mag/cell
     absolute magnetization    =     3.22 Bohr mag/cell

     iteration #  5     ecut=    15.00 Ry     beta=0.20
     Davidson diagonalization with overlap
     ethr =  1.92E-04,  avg # of iterations =  1.0

     negative rho (up, down):  0.000E+00 9.439E-04

     total cpu time spent up to now is      766.1 secs

     total energy              =    -343.56747311 Ry
     Harris-Foulkes estimate   =    -343.56182475 Ry
     estimated scf accuracy    <       0.01104026 Ry

     total magnetization       =     2.62 Bohr mag/cell
     absolute magnetization    =     3.15 Bohr mag/cell

     iteration #  6     ecut=    15.00 Ry     beta=0.20
     Davidson diagonalization with overlap
     ethr =  2.76E-05,  avg # of iterations =  1.2

     negative rho (up, down):  0.000E+00 4.858E-04

     total cpu time spent up to now is      773.1 secs

     total energy              =    -343.57344454 Ry
     Harris-Foulkes estimate   =    -343.56813392 Ry
     estimated scf accuracy    <       0.00218744 Ry

     total magnetization       =     2.62 Bohr mag/cell
     absolute magnetization    =     3.13 Bohr mag/cell

     iteration #  7     ecut=    15.00 Ry     beta=0.20
     Davidson diagonalization with overlap
     ethr =  5.47E-06,  avg # of iterations =  2.3

     negative rho (up, down):  0.000E+00 3.230E-04

     total cpu time spent up to now is      781.5 secs

     total energy              =    -343.57693829 Ry
     Harris-Foulkes estimate   =    -343.57532691 Ry
     estimated scf accuracy    <       0.00200116 Ry

     total magnetization       =     2.79 Bohr mag/cell
     absolute magnetization    =     3.19 Bohr mag/cell

     iteration #  8     ecut=    15.00 Ry     beta=0.20
     Davidson diagonalization with overlap
     ethr =  5.00E-06,  avg # of iterations =  1.1

     negative rho (up, down):  0.000E+00 1.461E-04

     total cpu time spent up to now is      788.6 secs

     total energy              =    -343.57943925 Ry
     Harris-Foulkes estimate   =    -343.57732926 Ry
     estimated scf accuracy    <       0.00002922 Ry

     total magnetization       =     2.71 Bohr mag/cell
     absolute magnetization    =     3.10 Bohr mag/cell

     iteration #  9     ecut=    15.00 Ry     beta=0.20
     Davidson diagonalization with overlap
     ethr =  7.31E-08,  avg # of iterations =  1.5

     negative rho (up, down):  0.000E+00 3.011E-05

     total cpu time spent up to now is      795.9 secs

     total energy              =    -343.58080449 Ry
     Harris-Foulkes estimate   =    -343.57944408 Ry
     estimated scf accuracy    <       0.00001195 Ry

     total magnetization       =     2.70 Bohr mag/cell
     absolute magnetization    =     3.08 Bohr mag/cell

     iteration # 10     ecut=    15.00 Ry     beta=0.20
     Davidson diagonalization with overlap
     ethr =  2.99E-08,  avg # of iterations =  2.0

     negative rho (up, down):  0.000E+00 4.900E-06

     total cpu time spent up to now is      803.9 secs

     total energy              =    -343.58179649 Ry
     Harris-Foulkes estimate   =    -343.58082030 Ry
     estimated scf accuracy    <       0.00001740 Ry

     total magnetization       =     2.68 Bohr mag/cell
     absolute magnetization    =     3.05 Bohr mag/cell

     iteration # 11     ecut=    15.00 Ry     beta=0.20
     Davidson diagonalization with overlap
     ethr =  2.99E-08,  avg # of iterations =  1.8

     total cpu time spent up to now is      811.5 secs

     total energy              =    -343.58240039 Ry
     Harris-Foulkes estimate   =    -343.58180495 Ry
     estimated scf accuracy    <       0.00000736 Ry

     total magnetization       =     2.68 Bohr mag/cell
     absolute magnetization    =     3.04 Bohr mag/cell

     iteration # 12     ecut=    15.00 Ry     beta=0.20
     Davidson diagonalization with overlap
     ethr =  1.84E-08,  avg # of iterations =  1.0

     total cpu time spent up to now is      818.4 secs

     total energy              =    -343.58280702 Ry
     Harris-Foulkes estimate   =    -343.58240304 Ry
     estimated scf accuracy    <       0.00000059 Ry

     total magnetization       =     2.67 Bohr mag/cell
     absolute magnetization    =     3.03 Bohr mag/cell

     iteration # 13     ecut=    15.00 Ry     beta=0.20
     Davidson diagonalization with overlap
     ethr =  1.47E-09,  avg # of iterations =  1.5

     total cpu time spent up to now is      825.8 secs

     total energy              =    -343.58307272 Ry
     Harris-Foulkes estimate   =    -343.58280711 Ry
     estimated scf accuracy    <       0.00000034 Ry

     total magnetization       =     2.67 Bohr mag/cell
     absolute magnetization    =     3.03 Bohr mag/cell

     iteration # 14     ecut=    15.00 Ry     beta=0.20
     Davidson diagonalization with overlap
     ethr =  8.39E-10,  avg # of iterations =  1.5

     total cpu time spent up to now is      833.1 secs

     total energy              =    -343.58324281 Ry
     Harris-Foulkes estimate   =    -343.58307278 Ry
     estimated scf accuracy    <       0.00000002 Ry

     total magnetization       =     2.67 Bohr mag/cell
     absolute magnetization    =     3.03 Bohr mag/cell

     iteration # 15     ecut=    15.00 Ry     beta=0.20
     Davidson diagonalization with overlap
     ethr =  4.21E-11,  avg # of iterations =  2.5

     total cpu time spent up to now is      842.4 secs

     total energy              =    -343.58335245 Ry
     Harris-Foulkes estimate   =    -343.58324282 Ry
     estimated scf accuracy    <          5.1E-09 Ry

     total magnetization       =     2.67 Bohr mag/cell
     absolute magnetization    =     3.03 Bohr mag/cell

     iteration # 16     ecut=    15.00 Ry     beta=0.20
     Davidson diagonalization with overlap
     ethr =  1.27E-11,  avg # of iterations =  2.6

     total cpu time spent up to now is      852.0 secs

     total energy              =    -343.58342183 Ry
     Harris-Foulkes estimate   =    -343.58335247 Ry
     estimated scf accuracy    <       0.00000003 Ry

     total magnetization       =     2.67 Bohr mag/cell
     absolute magnetization    =     3.03 Bohr mag/cell

     iteration # 17     ecut=    15.00 Ry     beta=0.20
     Davidson diagonalization with overlap
     ethr =  1.27E-11,  avg # of iterations =  2.5

     total cpu time spent up to now is      861.2 secs

     total energy              =    -343.58346628 Ry
     Harris-Foulkes estimate   =    -343.58342183 Ry
     estimated scf accuracy    <       0.00000001 Ry

     total magnetization       =     2.67 Bohr mag/cell
     absolute magnetization    =     3.03 Bohr mag/cell

     iteration # 18     ecut=    15.00 Ry     beta=0.20
     Davidson diagonalization with overlap
     ethr =  1.27E-11,  avg # of iterations =  2.0

     total cpu time spent up to now is      869.9 secs

     total energy              =    -343.58349486 Ry
     Harris-Foulkes estimate   =    -343.58346628 Ry
     estimated scf accuracy    <       0.00000004 Ry

     total magnetization       =     2.67 Bohr mag/cell
     absolute magnetization    =     3.03 Bohr mag/cell

     iteration # 19     ecut=    15.00 Ry     beta=0.20
     Davidson diagonalization with overlap
     ethr =  1.27E-11,  avg # of iterations =  2.0

     total cpu time spent up to now is      878.2 secs

     total energy              =    -343.58351327 Ry
     Harris-Foulkes estimate   =    -343.58349487 Ry
     estimated scf accuracy    <       0.00000007 Ry

     total magnetization       =     2.67 Bohr mag/cell
     absolute magnetization    =     3.03 Bohr mag/cell

     iteration # 20     ecut=    15.00 Ry     beta=0.20
     Davidson diagonalization with overlap
     ethr =  1.27E-11,  avg # of iterations =  2.0

     total cpu time spent up to now is      886.4 secs

     total energy              =    -343.58352502 Ry
     Harris-Foulkes estimate   =    -343.58351327 Ry
     estimated scf accuracy    <       0.00000008 Ry

     total magnetization       =     2.67 Bohr mag/cell
     absolute magnetization    =     3.03 Bohr mag/cell

     iteration # 21     ecut=    15.00 Ry     beta=0.20
     Davidson diagonalization with overlap
     ethr =  1.27E-11,  avg # of iterations =  1.9

     total cpu time spent up to now is      894.6 secs

     total energy              =    -343.58353245 Ry
     Harris-Foulkes estimate   =    -343.58352502 Ry
     estimated scf accuracy    <       0.00000004 Ry

     total magnetization       =     2.67 Bohr mag/cell
     absolute magnetization    =     3.03 Bohr mag/cell

     iteration # 22     ecut=    15.00 Ry     beta=0.20
     Davidson diagonalization with overlap
     ethr =  1.27E-11,  avg # of iterations =  1.5

     total cpu time spent up to now is      901.9 secs

     total energy              =    -343.58353733 Ry
     Harris-Foulkes estimate   =    -343.58353246 Ry
     estimated scf accuracy    <       0.00000008 Ry

     total magnetization       =     2.67 Bohr mag/cell
     absolute magnetization    =     3.03 Bohr mag/cell

     iteration # 23     ecut=    15.00 Ry     beta=0.20
     Davidson diagonalization with overlap
     ethr =  1.27E-11,  avg # of iterations =  1.5

     total cpu time spent up to now is      909.5 secs

     total energy              =    -343.58354033 Ry
     Harris-Foulkes estimate   =    -343.58353733 Ry
     estimated scf accuracy    <       0.00000005 Ry

     total magnetization       =     2.67 Bohr mag/cell
     absolute magnetization    =     3.03 Bohr mag/cell

     iteration # 24     ecut=    15.00 Ry     beta=0.20
     Davidson diagonalization with overlap
     ethr =  1.27E-11,  avg # of iterations =  1.4

     total cpu time spent up to now is      916.7 secs

     total energy              =    -343.58354238 Ry
     Harris-Foulkes estimate   =    -343.58354033 Ry
     estimated scf accuracy    <       0.00000011 Ry

     total magnetization       =     2.67 Bohr mag/cell
     absolute magnetization    =     3.03 Bohr mag/cell

     iteration # 25     ecut=    15.00 Ry     beta=0.20
     Davidson diagonalization with overlap
     ethr =  1.27E-11,  avg # of iterations =  1.5

     total cpu time spent up to now is      924.3 secs

     total energy              =    -343.58354364 Ry
     Harris-Foulkes estimate   =    -343.58354238 Ry
     estimated scf accuracy    <       0.00000007 Ry

     total magnetization       =     2.67 Bohr mag/cell
     absolute magnetization    =     3.03 Bohr mag/cell

     iteration # 26     ecut=    15.00 Ry     beta=0.20
     Davidson diagonalization with overlap
     ethr =  1.27E-11,  avg # of iterations =  1.0

     total cpu time spent up to now is      931.2 secs

     total energy              =    -343.58354443 Ry
     Harris-Foulkes estimate   =    -343.58354364 Ry
     estimated scf accuracy    <       0.00000008 Ry

     total magnetization       =     2.67 Bohr mag/cell
     absolute magnetization    =     3.03 Bohr mag/cell

     iteration # 27     ecut=    15.00 Ry     beta=0.20
     Davidson diagonalization with overlap
     ethr =  1.27E-11,  avg # of iterations =  1.0

     total cpu time spent up to now is      938.1 secs

     total energy              =    -343.58354503 Ry
     Harris-Foulkes estimate   =    -343.58354443 Ry
     estimated scf accuracy    <       0.00000012 Ry

     total magnetization       =     2.67 Bohr mag/cell
     absolute magnetization    =     3.03 Bohr mag/cell

     iteration # 28     ecut=    15.00 Ry     beta=0.20
     Davidson diagonalization with overlap
     ethr =  1.27E-11,  avg # of iterations =  2.3

     total cpu time spent up to now is      946.9 secs

     total energy              =    -343.58354538 Ry
     Harris-Foulkes estimate   =    -343.58354505 Ry
     estimated scf accuracy    <          7.0E-09 Ry

     total magnetization       =     2.67 Bohr mag/cell
     absolute magnetization    =     3.03 Bohr mag/cell

     iteration # 29     ecut=    15.00 Ry     beta=0.20
     Davidson diagonalization with overlap
     ethr =  1.27E-11,  avg # of iterations =  1.0

     total cpu time spent up to now is      953.8 secs

     total energy              =    -343.58354557 Ry
     Harris-Foulkes estimate   =    -343.58354538 Ry
     estimated scf accuracy    <          9.3E-09 Ry

     total magnetization       =     2.67 Bohr mag/cell
     absolute magnetization    =     3.03 Bohr mag/cell

     iteration # 30     ecut=    15.00 Ry     beta=0.20
     Davidson diagonalization with overlap
     ethr =  1.27E-11,  avg # of iterations =  1.0

     total cpu time spent up to now is      960.7 secs

     total energy              =    -343.58354568 Ry
     Harris-Foulkes estimate   =    -343.58354557 Ry
     estimated scf accuracy    <       0.00000002 Ry

     total magnetization       =     2.67 Bohr mag/cell
     absolute magnetization    =     3.03 Bohr mag/cell

     iteration # 31     ecut=    15.00 Ry     beta=0.20
     Davidson diagonalization with overlap
     ethr =  1.27E-11,  avg # of iterations =  1.0

     total cpu time spent up to now is      967.6 secs

     total energy              =    -343.58354580 Ry
     Harris-Foulkes estimate   =    -343.58354568 Ry
     estimated scf accuracy    <       0.00000004 Ry

     total magnetization       =     2.67 Bohr mag/cell
     absolute magnetization    =     3.03 Bohr mag/cell

     iteration # 32     ecut=    15.00 Ry     beta=0.20
     Davidson diagonalization with overlap
     ethr =  1.27E-11,  avg # of iterations =  1.6

     total cpu time spent up to now is      975.5 secs

     total energy              =    -343.58354587 Ry
     Harris-Foulkes estimate   =    -343.58354581 Ry
     estimated scf accuracy    <          6.8E-09 Ry

     total magnetization       =     2.67 Bohr mag/cell
     absolute magnetization    =     3.03 Bohr mag/cell

     iteration # 33     ecut=    15.00 Ry     beta=0.20
     Davidson diagonalization with overlap
     ethr =  1.27E-11,  avg # of iterations =  1.5

     total cpu time spent up to now is      983.0 secs

     total energy              =    -343.58354590 Ry
     Harris-Foulkes estimate   =    -343.58354587 Ry
     estimated scf accuracy    <          1.7E-10 Ry

     total magnetization       =     2.67 Bohr mag/cell
     absolute magnetization    =     3.03 Bohr mag/cell

     iteration # 34     ecut=    15.00 Ry     beta=0.20
     Davidson diagonalization with overlap
     ethr =  4.20E-13,  avg # of iterations =  2.0

     Magnetic moment per site:
     atom:    1    charge:    3.0451    magn:    0.3149    constr:    0.0000
     atom:    2    charge:    3.0434    magn:    0.3146    constr:    0.0000
     atom:    3    charge:    3.0451    magn:    0.3149    constr:    0.0000
     atom:    4    charge:    3.0451    magn:    0.3149    constr:    0.0000

     total cpu time spent up to now is      990.9 secs

     End of self-consistent calculation

 ------ SPIN UP ------------


          k = 0.0000 0.0000 0.0000 (   257 PWs)   bands (ev):

     5.8932  10.2002  10.2002  10.2002  10.6789  10.6789  10.6789  12.5525
    12.5525  12.5525  13.7947  13.7947  14.6290  14.6290  14.6290  14.7301
    14.7301  14.7301  14.7301  14.7301  14.7301  17.8280  17.8280  17.8280
    25.4746  25.4747  25.4747  30.6601  30.6601  30.6601  30.6602  30.6602
    30.6602  37.5232  37.5233  37.5233  39.5985  40.0646  40.0648  40.0648
    43.8466  43.8466  43.8466  49.6110  49.8087  49.8087  49.8087  57.0895
    57.0895  57.0895  61.3546  61.3547

          k = 0.0000 0.0000 0.0482 (   264 PWs)   bands (ev):

     6.2697  10.2300  10.3907  10.3908  10.7942  10.8116  10.8117  12.4159
    12.6633  12.6633  13.6770  13.8467  13.9933  13.9933  14.4272  14.4272
    14.5025  14.5025  14.5747  14.7349  14.7349  16.2315  18.8807  18.8808
    25.5288  25.5288  27.7887  29.0913  29.0913  29.6122  29.6122  31.2670
    31.2670  37.3163  39.2584  39.5318  39.5319  40.0845  41.9826  41.9827
    42.0467  42.0467  42.3111  50.9185  50.9743  50.9883  50.9883  53.7953
    58.6859  58.6859  58.7822  58.7822

          k = 0.0000 0.0000 0.0963 (   280 PWs)   bands (ev):

     7.3468  10.0250  10.8442  10.8442  11.1159  11.2133  11.2133  12.0518
    12.8453  12.8453  12.9881  12.9881  13.3691  13.9918  13.9943  14.0059
    14.0059  14.0129  14.0129  14.4278  14.6893  14.6893  20.9311  20.9311
    25.7389  25.7389  26.2298  26.2299  27.9057  27.9057  31.9323  32.9429
    32.9429  37.4925  38.5982  38.8459  38.8459  39.8650  40.2488  43.0433
    43.0433  46.0869  46.0942  46.0943  52.9934  52.9934  53.1030  53.1030
    54.0580  57.1982  59.2569  59.2570

          k =-0.0000-0.0000-0.1445 (   256 PWs)   bands (ev):

     8.8720   8.8774  11.1317  11.1317  11.5702  11.5787  11.8918  11.8919
    11.9003  11.9004  13.1916  13.2034  13.4947  13.4947  13.5023  13.5023
    13.7505  13.7505  14.2552  14.2606  14.6913  14.6913  23.4928  23.4928
    23.5095  23.5095  26.1380  26.1381  26.9885  26.9885  35.7265  35.7265
    35.7433  35.7433  36.7755  36.8102  38.0489  38.0625  41.8788  41.9141
    47.9710  47.9710  48.0056  48.0056  49.4840  49.4841  55.4401  55.4402
    55.9242  55.9242  55.9520  55.9521

          k = 0.0000 0.0482 0.0482 (   270 PWs)   bands (ev):

     6.6372  10.4351  10.4351  10.5606  10.9176  10.9176  10.9321  12.3546
    12.7106  12.7305  13.6002  13.6543  13.6731  13.6742  13.8500  14.2633
    14.4215  14.4215  14.5139  14.5140  14.5892  17.2530  17.2530  19.6765
    25.3905  26.2876  27.9325  27.9326  29.6343  29.6343  30.1233  30.1233
    31.8297  37.8576  38.2619  38.9168  39.5557  39.5557  42.0641  42.0642
    42.6053  44.8216  45.1307  47.2855  50.1289  52.3142  52.7807  55.7234
    56.6540  57.6058  57.6059  58.3749

          k = 0.0000 0.0482 0.0963 (   275 PWs)   bands (ev):

     7.6849  10.2677  10.9343  10.9820  11.2127  11.2698  11.2896  12.0564
    12.6007  12.7471  12.8638  12.9983  13.0229  13.4779  13.9234  14.0100
    14.0227  14.0455  14.2295  14.5011  14.5218  15.2141  18.9990  21.6013
    23.2486  26.0390  26.7859  27.9543  28.6484  31.0116  31.3011  31.3152
    32.4557  35.5421  35.9894  39.9552  40.6925  42.0760  42.3153  42.3470
    43.3395  45.7710  46.8541  49.4924  49.9211  51.8321  52.6280  53.5690
    55.0676  55.1463  58.2933  59.0527

          k =-0.0000 0.0482-0.1445 (   266 PWs)   bands (ev):

     9.1595   9.1646  11.2932  11.2936  11.6240  11.6322  11.7589  11.7659
    11.9088  11.9171  12.7896  12.7985  13.4768  13.4840  13.7063  13.7093
    13.7322  13.7326  14.4129  14.4131  14.4994  14.5006  20.9927  21.0015
    24.0730  24.0882  26.8205  26.8316  29.6963  29.7000  33.1071  33.1134
    33.5240  33.5275  37.5421  37.5754  40.9409  40.9428  43.8465  43.8677
    45.1177  45.1267  48.2448  48.2777  52.4881  52.5036  52.7409  52.7704
    55.1550  55.1715  56.0930  56.1028

          k = 0.0000 0.0963 0.0963 (   276 PWs)   bands (ev):

     8.6319  10.8734  10.8735  11.2366  11.4953  11.4954  11.5039  11.9866
    12.2461  12.2461  12.4128  12.7408  13.1396  13.3800  13.6929  13.8597
    13.8597  14.0181  14.0181  14.2246  14.4159  16.5491  16.5492  20.3884
    23.2670  26.5629  28.1774  28.1774  29.2814  29.2814  32.7328  33.1087
    33.1097  33.1532  35.0508  38.7791  42.9366  44.0001  44.0001  44.7684
    45.3062  45.3063  45.4058  49.0057  51.0466  51.0467  51.1366  53.9839
    54.4041  54.7068  56.5965  57.2549

          k =-0.0000 0.0963-0.1445 (   268 PWs)   bands (ev):

     9.9163   9.9204  11.3599  11.3651  11.7585  11.7598  11.7647  11.7706
    11.9282  11.9360  12.4603  12.4662  13.4954  13.4960  13.5157  13.5229
    13.5651  13.5661  14.0800  14.0843  15.1467  15.1480  18.1990  18.2052
    25.5255  25.5375  27.6079  27.6176  30.1902  30.1964  30.9605  30.9622
    34.4769  34.4798  38.5022  38.5329  42.1460  42.1507  44.8770  44.8797
    45.0897  45.0910  49.0004  49.0260  50.2346  50.2504  53.4528  53.4679
    54.7660  54.7890  55.9025  55.9042

          k =-0.0000-0.1445-0.1445 (   268 PWs)   bands (ev):

    10.7770  10.7807  10.7807  10.7843  11.8851  11.8925  11.8925  11.8998
    12.2063  12.2084  12.2084  12.2106  13.3384  13.3389  13.3389  13.3396
    13.6973  13.7038  13.7038  13.7103  16.3017  16.3044  16.3044  16.3071
    27.6604  27.6693  27.6693  27.6781  28.9738  28.9805  28.9805  28.9873
    39.6916  39.7021  39.7021  39.7131  40.0659  40.0729  40.0730  40.0793
    48.7832  48.7860  48.7860  48.7890  52.4989  52.5138  52.5138  52.5288
    54.2545  54.2581  54.2581  54.2615

          k = 0.0482 0.0482 0.0482 (   281 PWs)   bands (ev):

     6.9922  10.6026  10.6026  10.6026  11.0369  11.0369  11.0369  12.3203
    12.7505  12.7505  13.3415  13.3415  13.3415  13.7661  13.7661  14.0185
    14.0185  14.0185  14.6100  14.6100  14.6100  17.9198  17.9199  17.9199
    26.5492  26.5493  26.5493  28.0471  28.0472  28.0472  32.3825  32.3826
    32.3826  35.1699  38.3105  38.3105  38.3105  40.4879  43.1153  43.1153
    44.8722  44.8723  44.8723  48.1488  50.3003  50.3003  54.9911  54.9911
    57.2735  57.2736  57.2736  58.0443

          k = 0.0482 0.0482 0.0963 (   276 PWs)   bands (ev):

     7.9971  10.4302  11.0039  11.0040  11.3366  11.3644  11.3644  12.0961
    12.5896  12.5896  12.7957  12.8325  12.9016  13.5905  13.6785  13.7636
    13.7638  14.0339  14.5183  14.5183  14.5571  15.5961  19.3592  19.3592
    23.8721  23.8721  27.9154  28.6764  28.6765  31.7224  31.7224  32.2896
    32.4442  33.9711  38.6523  39.2972  39.7240  40.7771  40.7771  44.3689
    45.3809  46.2030  49.2320  49.2321  50.3352  51.3360  52.8223  52.8223
    53.6269  55.1077  55.3498  58.5743

          k = 0.0482 0.0482-0.1445 (   268 PWs)   bands (ev):

     9.3891   9.3936  11.4200  11.4201  11.4626  11.4627  11.7268  11.7346
    12.1751  12.1751  12.6824  12.6911  13.1906  13.1937  13.5881  13.5881
    14.1926  14.1990  14.3221  14.3235  14.4779  14.4779  20.5815  20.5816
    22.3186  22.3186  29.8147  29.8159  29.9001  29.9043  30.2878  30.2885
    36.5001  36.5101  37.0620  37.0855  40.0152  40.0370  43.9280  43.9281
    46.5431  46.5526  48.0518  48.0518  51.8311  51.8487  53.1789  53.1837
    54.8828  54.8828  56.4757  56.4804

          k = 0.0482 0.0963 0.0963 (   272 PWs)   bands (ev):

     8.8506  10.7552  10.7552  11.0426  11.6613  11.7145  11.7146  12.1437
    12.3714  12.3714  12.5152  12.7437  12.8815  13.3861  13.3861  13.4207
    13.7448  14.3480  14.4197  14.4198  14.4406  16.6849  16.6849  19.6221
    22.0238  25.1653  25.1653  29.3454  29.4801  32.6935  32.6936  33.5501
    33.5501  35.5374  36.8616  38.7333  41.1157  41.1157  41.5053  45.0428
    46.4556  46.5633  48.6416  48.6417  51.6051  51.6051  52.6918  53.1345
    53.5904  54.7335  54.9541  55.4208

          k = 0.0482 0.0963-0.1445 (   274 PWs)   bands (ev):

     9.9413   9.9440  10.9816  10.9824  11.8847  11.8850  12.0520  12.0583
    12.3806  12.3833  12.4946  12.5004  13.0383  13.0404  13.2602  13.2616
    14.0475  14.0502  14.3042  14.3068  15.0341  15.0352  18.1446  18.1498
    23.0595  23.0637  27.0618  27.0648  30.9141  30.9172  34.6013  34.6015
    34.7962  34.7994  38.4706  38.4935  41.6902  41.6944  42.0984  42.1033
    47.6119  47.6123  48.3518  48.3642  49.6845  49.6940  53.3623  53.3700
    54.1287  54.1342  56.3904  56.3983

          k = 0.0482-0.1445-0.1445 (   276 PWs)   bands (ev):

    10.5084  10.5095  10.5095  10.5105  12.2991  12.3010  12.3010  12.3030
    12.4004  12.4048  12.4048  12.4092  13.0060  13.0081  13.0081  13.0101
    14.0398  14.0440  14.0440  14.0481  16.1721  16.1750  16.1750  16.1779
    24.7503  24.7536  24.7536  24.7570  32.4589  32.4608  32.4608  32.4627
    39.7346  39.7399  39.7400  39.7464  39.8771  39.8858  39.8858  39.8932
    48.7214  48.7220  48.7220  48.7227  49.7597  49.7691  49.7691  49.7784
    57.4184  57.4258  57.4259  57.4338

          k = 0.0963 0.0963 0.0963 (   274 PWs)   bands (ev):

     9.3918  10.5806  10.5806  10.5806  12.0876  12.0877  12.0877  12.6472
    12.7074  12.7074  12.7128  12.7138  12.7138  13.0143  13.0143  13.0143
    14.1832  14.1832  14.5422  14.5422  14.5422  17.0581  17.0581  17.0581
    22.6471  22.6471  22.6471  26.5515  34.0277  34.0278  34.0278  36.8165
    36.8165  36.8165  38.8957  38.8958  38.8958  38.9617  41.7734  41.7734
    47.0829  47.0829  49.8263  50.6302  50.6302  50.6303  50.9080  50.9080
    50.9081  54.6865  54.6867  54.6867

          k = 0.0963 0.0963-0.1445 (   284 PWs)   bands (ev):

    10.0126  10.0132  10.5082  10.5083  12.2138  12.2139  12.5163  12.5210
    12.7532  12.7538  12.8816  12.8820  12.9016  12.9066  12.9992  12.9993
    14.4547  14.4553  14.4700  14.4701  14.9170  14.9170  17.2677  17.2677
    21.6239  21.6239  24.2542  24.2573  34.9386  34.9387  36.1751  36.1751
    37.6902  37.7014  38.8922  38.8954  40.6289  40.6433  40.7565  40.7565
    47.4418  47.4435  47.4439  47.4521  48.6147  48.6216  51.0528  51.0529
    51.8589  51.8594  55.9109  55.9112

          k = 0.0963-0.1445-0.1445 (   284 PWs)   bands (ev):

    10.1815  10.1816  10.1816  10.1817  12.4749  12.4762  12.4762  12.4774
    12.6778  12.6791  12.6791  12.6805  13.4628  13.4655  13.4655  13.4683
    14.3851  14.3873  14.3873  14.3895  15.7252  15.7285  15.7285  15.7318
    22.3890  22.3911  22.3911  22.3931  36.6203  36.6233  36.6234  36.6264
    39.5173  39.5195  39.5196  39.5219  40.5389  40.5430  40.5431  40.5471
    46.8619  46.8657  46.8657  46.8694  47.6789  47.6810  47.6811  47.6831
    53.3832  53.3861  53.3861  53.3892

          k =-0.1445-0.1445-0.1445 (   280 PWs)   bands (ev):

    10.0584  10.0584  10.0584  10.0584  12.5598  12.5598  12.5598  12.5598
    12.5598  12.5598  12.5598  12.5598  14.5236  14.5236  14.5236  14.5237
    14.5237  14.5237  14.5237  14.5237  14.9563  14.9564  14.9564  14.9564
    21.5552  21.5552  21.5552  21.5552  38.0195  38.0197  38.0197  38.0197
    40.9891  40.9891  40.9891  40.9891  40.9891  40.9892  40.9892  40.9892
    45.6822  45.6822  45.6823  45.6823  45.6823  45.6823  45.6823  45.6823
    52.1175  52.1175  52.1175  52.1175

          k =-0.0482-0.0000 0.0482 (   270 PWs)   bands (ev):

     6.6372  10.4351  10.4351  10.5606  10.9176  10.9176  10.9321  12.3546
    12.7106  12.7305  13.6002  13.6543  13.6731  13.6742  13.8500  14.2633
    14.4215  14.4215  14.5139  14.5140  14.5892  17.2530  17.2530  19.6765
    25.3905  26.2876  27.9325  27.9326  29.6343  29.6343  30.1233  30.1233
    31.8298  37.8576  38.2619  38.9168  39.5557  39.5557  42.0641  42.0642
    42.6053  44.8216  45.1307  47.2855  50.1290  52.3142  52.7807  55.7234
    56.6540  57.6057  57.6059  58.3749

          k =-0.0482 0.0000 0.0963 (   275 PWs)   bands (ev):

     7.6849  10.2677  10.9343  10.9820  11.2127  11.2698  11.2896  12.0564
    12.6007  12.7471  12.8638  12.9983  13.0229  13.4779  13.9234  14.0100
    14.0227  14.0455  14.2295  14.5011  14.5218  15.2141  18.9990  21.6013
    23.2485  26.0390  26.7859  27.9543  28.6484  31.0116  31.3011  31.3152
    32.4557  35.5421  35.9893  39.9552  40.6925  42.0760  42.3153  42.3470
    43.3395  45.7710  46.8541  49.4924  49.9211  51.8321  52.6280  53.5690
    55.0676  55.1462  58.2934  59.0527

          k =-0.0963-0.0000 0.0963 (   276 PWs)   bands (ev):

     8.6319  10.8734  10.8735  11.2366  11.4953  11.4954  11.5039  11.9866
    12.2461  12.2461  12.4128  12.7408  13.1396  13.3800  13.6929  13.8597
    13.8597  14.0180  14.0181  14.2246  14.4159  16.5491  16.5492  20.3883
    23.2670  26.5629  28.1774  28.1774  29.2814  29.2815  32.7328  33.1087
    33.1097  33.1532  35.0508  38.7791  42.9366  44.0001  44.0001  44.7684
    45.3062  45.3063  45.4058  49.0057  51.0466  51.0467  51.1367  53.9839
    54.4040  54.7069  56.5965  57.2548

          k = 0.0482-0.0482 0.0482 (   281 PWs)   bands (ev):

     6.9922  10.6026  10.6026  10.6026  11.0369  11.0369  11.0369  12.3203
    12.7505  12.7505  13.3415  13.3415  13.3415  13.7661  13.7661  14.0185
    14.0185  14.0185  14.6100  14.6100  14.6100  17.9199  17.9199  17.9199
    26.5492  26.5492  26.5493  28.0471  28.0471  28.0472  32.3825  32.3826
    32.3826  35.1699  38.3105  38.3105  38.3105  40.4879  43.1153  43.1154
    44.8722  44.8722  44.8723  48.1488  50.3003  50.3004  54.9911  54.9911
    57.2735  57.2736  57.2736  58.0443

          k = 0.0482-0.0482 0.0963 (   276 PWs)   bands (ev):

     7.9971  10.4302  11.0039  11.0040  11.3366  11.3644  11.3644  12.0962
    12.5896  12.5896  12.7957  12.8325  12.9016  13.5905  13.6785  13.7636
    13.7638  14.0339  14.5183  14.5183  14.5571  15.5961  19.3592  19.3592
    23.8720  23.8721  27.9154  28.6764  28.6764  31.7224  31.7224  32.2895
    32.4442  33.9711  38.6523  39.2972  39.7240  40.7771  40.7771  44.3689
    45.3808  46.2030  49.2320  49.2320  50.3352  51.3360  52.8222  52.8223
    53.6269  55.1077  55.3498  58.5743

          k =-0.0963 0.0482 0.0482 (   276 PWs)   bands (ev):

     7.9971  10.4302  11.0039  11.0040  11.3366  11.3644  11.3644  12.0962
    12.5896  12.5896  12.7957  12.8325  12.9016  13.5905  13.6785  13.7636
    13.7638  14.0339  14.5183  14.5183  14.5571  15.5961  19.3592  19.3593
    23.8720  23.8720  27.9154  28.6764  28.6765  31.7224  31.7224  32.2895
    32.4442  33.9711  38.6522  39.2972  39.7240  40.7771  40.7771  44.3689
    45.3809  46.2031  49.2320  49.2320  50.3352  51.3360  52.8222  52.8222
    53.6269  55.1077  55.3498  58.5744

          k = 0.0482-0.0482-0.1445 (   268 PWs)   bands (ev):

     9.3891   9.3936  11.4200  11.4201  11.4626  11.4626  11.7268  11.7346
    12.1751  12.1751  12.6823  12.6911  13.1906  13.1937  13.5881  13.5881
    14.1926  14.1990  14.3221  14.3235  14.4779  14.4779  20.5815  20.5816
    22.3186  22.3186  29.8147  29.8159  29.9001  29.9043  30.2878  30.2885
    36.5001  36.5101  37.0620  37.0855  40.0153  40.0370  43.9280  43.9281
    46.5430  46.5525  48.0518  48.0518  51.8311  51.8487  53.1789  53.1837
    54.8827  54.8828  56.4757  56.4804

          k = 0.0963-0.0482 0.0963 (   272 PWs)   bands (ev):

     8.8506  10.7552  10.7552  11.0426  11.6613  11.7145  11.7146  12.1437
    12.3714  12.3714  12.5152  12.7437  12.8815  13.3861  13.3861  13.4207
    13.7448  14.3480  14.4197  14.4198  14.4406  16.6849  16.6849  19.6221
    22.0238  25.1653  25.1653  29.3454  29.4800  32.6935  32.6936  33.5501
    33.5501  35.5374  36.8617  38.7333  41.1158  41.1158  41.5053  45.0428
    46.4556  46.5633  48.6416  48.6417  51.6051  51.6051  52.6918  53.1345
    53.5904  54.7335  54.9541  55.4208

          k =-0.0963 0.0482 0.0963 (   272 PWs)   bands (ev):

     8.8506  10.7552  10.7552  11.0426  11.6613  11.7146  11.7146  12.1437
    12.3714  12.3714  12.5152  12.7437  12.8815  13.3861  13.3861  13.4207
    13.7448  14.3480  14.4197  14.4198  14.4406  16.6849  16.6849  19.6220
    22.0238  25.1653  25.1653  29.3454  29.4800  32.6935  32.6936  33.5500
    33.5501  35.5374  36.8616  38.7334  41.1157  41.1158  41.5053  45.0428
    46.4556  46.5633  48.6416  48.6417  51.6051  51.6051  52.6918  53.1345
    53.5904  54.7335  54.9541  55.4207

          k = 0.0963-0.0482-0.1445 (   274 PWs)   bands (ev):

     9.9413   9.9440  10.9816  10.9824  11.8847  11.8850  12.0520  12.0583
    12.3806  12.3833  12.4946  12.5004  13.0383  13.0404  13.2602  13.2616
    14.0475  14.0502  14.3042  14.3068  15.0341  15.0352  18.1446  18.1498
    23.0595  23.0637  27.0618  27.0648  30.9141  30.9171  34.6014  34.6015
    34.7962  34.7994  38.4706  38.4935  41.6902  41.6944  42.0984  42.1033
    47.6119  47.6123  48.3518  48.3643  49.6845  49.6940  53.3623  53.3700
    54.1286  54.1342  56.3904  56.3983

          k = 0.0963-0.0963 0.0963 (   274 PWs)   bands (ev):

     9.3918  10.5806  10.5806  10.5806  12.0876  12.0877  12.0877  12.6472
    12.7073  12.7074  12.7128  12.7138  12.7138  13.0143  13.0143  13.0143
    14.1833  14.1833  14.5422  14.5422  14.5422  17.0581  17.0581  17.0581
    22.6471  22.6471  22.6471  26.5514  34.0277  34.0277  34.0278  36.8165
    36.8165  36.8165  38.8957  38.8958  38.8958  38.9617  41.7734  41.7734
    47.0829  47.0830  49.8264  50.6301  50.6302  50.6303  50.9080  50.9081
    50.9081  54.6865  54.6866  54.6866

          k = 0.0963-0.0963-0.1445 (   284 PWs)   bands (ev):

    10.0126  10.0132  10.5082  10.5083  12.2138  12.2138  12.5163  12.5210
    12.7532  12.7538  12.8816  12.8820  12.9016  12.9066  12.9992  12.9993
    14.4547  14.4553  14.4700  14.4701  14.9170  14.9170  17.2677  17.2677
    21.6239  21.6239  24.2542  24.2573  34.9386  34.9387  36.1751  36.1751
    37.6902  37.7014  38.8922  38.8954  40.6289  40.6433  40.7565  40.7566
    47.4418  47.4435  47.4439  47.4521  48.6148  48.6216  51.0528  51.0528
    51.8589  51.8594  55.9109  55.9112

 ------ SPIN DOWN ----------


          k = 0.0000 0.0000 0.0000 (   257 PWs)   bands (ev):

     5.8514  10.6349  10.6350  10.6350  11.3555  11.3555  11.3555  13.3767
    13.3767  13.3767  14.5194  14.5194  15.3797  15.3797  15.3797  15.6693
    15.6693  15.6693  15.6693  15.6693  15.6693  17.7647  17.7647  17.7647
    25.7440  25.7441  25.7441  30.6585  30.6586  30.6586  30.6586  30.6586
    30.6586  37.6050  37.6050  37.6050  39.4111  40.1820  40.1822  40.1822
    43.8210  43.8210  43.8210  49.4594  49.7988  49.7988  49.7988  57.2951
    57.2951  57.2952  61.3294  61.3294

          k = 0.0000 0.0000 0.0482 (   264 PWs)   bands (ev):

     6.2279  10.6237  10.8338  10.8338  11.4788  11.4852  11.4853  13.2277
    13.4905  13.4905  14.3915  14.5730  14.7516  14.7516  15.1676  15.1676
    15.3232  15.4288  15.4288  15.6739  15.6739  16.2960  18.9949  18.9949
    25.7851  25.7852  27.9682  29.1468  29.1468  29.6448  29.6448  31.2801
    31.2801  37.3984  39.1101  39.5558  39.5559  40.2038  42.0649  42.0649
    42.0885  42.0886  42.2447  50.9237  50.9237  50.9389  50.9602  53.8129
    58.6132  58.6132  58.9882  58.9882

          k = 0.0000 0.0000 0.0963 (   280 PWs)   bands (ev):

     7.3092  10.2337  11.3078  11.3078  11.8234  11.8813  11.8814  12.8319
    13.5275  13.5276  13.8253  13.8253  14.0525  14.3310  14.7182  14.7182
    14.7228  14.9050  14.9050  15.1702  15.6319  15.6319  21.1110  21.1110
    25.9572  25.9573  26.3569  26.3569  28.0030  28.0030  32.0133  32.9856
    32.9856  37.5452  38.5255  38.9038  38.9039  39.7710  40.3954  43.0159
    43.0159  46.1819  46.1820  46.3071  52.9111  52.9111  53.0068  53.0068
    53.9823  57.0730  59.4092  59.4092

          k =-0.0000-0.0000-0.1445 (   256 PWs)   bands (ev):

     8.8780   8.8836  11.6083  11.6083  12.3111  12.3200  12.5562  12.5563
    12.5649  12.5649  13.7865  13.7993  14.3503  14.3503  14.3579  14.3579
    14.4399  14.4399  14.9876  14.9932  15.6339  15.6339  23.6609  23.6610
    23.6778  23.6778  26.3039  26.3040  27.1476  27.1476  35.7863  35.7864
    35.8029  35.8030  36.7309  36.7657  38.0453  38.0595  42.0804  42.1163
    47.8962  47.8962  47.9312  47.9312  49.5531  49.5532  55.5955  55.5956
    55.8215  55.8215  55.8493  55.8493

          k = 0.0000 0.0482 0.0482 (   270 PWs)   bands (ev):

     6.5964  10.8393  10.8393  11.0206  11.5907  11.5987  11.5988  13.1531
    13.5428  13.5500  14.3136  14.3626  14.3689  14.3737  14.5803  14.9966
    15.1534  15.1534  15.4391  15.4391  15.5226  17.5478  17.5478  19.8414
    25.6073  26.4187  28.0999  28.0999  29.7037  29.7037  30.1693  30.1694
    31.8500  37.8176  38.3251  38.9189  39.5751  39.5752  42.1656  42.1657
    42.5443  44.8821  45.1035  47.2344  50.1081  52.4604  52.7007  55.6194
    56.8110  57.5388  57.5389  58.3150

          k = 0.0000 0.0482 0.0963 (   275 PWs)   bands (ev):

     7.6520  10.4893  11.3679  11.4783  11.8923  11.9153  11.9633  12.8260
    13.2456  13.4192  13.6320  13.6477  13.8400  14.1865  14.6321  14.7298
    14.7984  14.9059  14.9153  15.4274  15.4503  15.8711  19.3134  21.7972
    23.4269  26.2471  26.9210  28.0655  28.7823  31.1050  31.3554  31.3804
    32.5517  35.5946  36.0212  39.9556  40.7056  42.0089  42.2581  42.4693
    43.3054  45.8479  47.0569  49.5288  49.8423  51.7668  52.5763  53.4744
    55.0099  55.0717  58.4001  58.9472

          k =-0.0000 0.0482-0.1445 (   266 PWs)   bands (ev):

     9.1767   9.1820  11.7621  11.7628  12.3579  12.3666  12.3924  12.3991
    12.5749  12.5834  13.4769  13.4869  14.3375  14.3449  14.4196  14.4219
    14.4257  14.4262  15.1883  15.1884  15.4263  15.4277  21.2515  21.2603
    24.2506  24.2658  26.9756  26.9873  29.8069  29.8113  33.2018  33.2076
    33.5767  33.5797  37.5513  37.5842  40.9047  40.9070  44.0088  44.0307
    45.0991  45.1088  48.1662  48.1994  52.4053  52.4208  52.7643  52.7930
    55.0504  55.0670  56.2337  56.2432

          k = 0.0000 0.0963 0.0963 (   276 PWs)   bands (ev):

     8.6219  11.1395  11.1395  11.8605  11.9556  12.1856  12.1857  12.7287
    12.8915  12.8915  13.0773  13.4782  13.9932  14.0725  14.3908  14.5415
    14.5415  14.9153  14.9153  15.1381  15.1990  17.1078  17.1078  20.6703
    23.4731  26.7437  28.3255  28.3255  29.3757  29.3757  32.8397  33.1897
    33.1915  33.2149  35.1052  38.7876  42.8825  43.9505  43.9505  44.6585
    45.3555  45.3556  45.4306  49.1121  51.0583  51.0584  51.0876  53.8556
    54.4326  54.6383  56.7667  57.1975

          k =-0.0000 0.0963-0.1445 (   268 PWs)   bands (ev):

     9.9865   9.9910  11.7578  11.7628  12.3575  12.3580  12.4759  12.4840
    12.6023  12.6103  13.1455  13.1519  14.1750  14.1754  14.2513  14.2522
    14.3857  14.3931  14.9813  14.9859  15.8925  15.8940  18.6262  18.6323
    25.7131  25.7248  27.7471  27.7575  30.3316  30.3373  31.0436  31.0458
    34.5420  34.5454  38.5166  38.5470  42.1351  42.1394  44.9123  44.9148
    45.0039  45.0050  48.9062  48.9319  50.2819  50.2981  53.3660  53.3814
    54.8456  54.8683  55.8064  55.8079

          k =-0.0000-0.1445-0.1445 (   268 PWs)   bands (ev):

    10.9953  10.9993  10.9994  11.0033  12.5748  12.5825  12.5825  12.5903
    12.8269  12.8293  12.8293  12.8317  14.0218  14.0224  14.0224  14.0232
    14.5805  14.5872  14.5872  14.5939  16.9304  16.9328  16.9328  16.9351
    27.8346  27.8430  27.8430  27.8513  29.0878  29.0949  29.0950  29.1022
    39.7641  39.7742  39.7742  39.7851  40.0220  40.0287  40.0288  40.0344
    48.6604  48.6633  48.6633  48.6665  52.4314  52.4465  52.4465  52.4617
    54.3281  54.3322  54.3322  54.3362

          k = 0.0482 0.0482 0.0482 (   281 PWs)   bands (ev):

     6.9542  11.0315  11.0315  11.0315  11.6959  11.6960  11.6960  13.0991
    13.5708  13.5708  14.0045  14.0045  14.0045  14.4947  14.4947  14.7903
    14.7904  14.7904  15.4951  15.4951  15.4952  18.2379  18.2379  18.2379
    26.6656  26.6656  26.6656  28.2090  28.2090  28.2090  32.4123  32.4123
    32.4123  35.2160  38.3673  38.3674  38.3674  40.3402  43.1483  43.1483
    44.9358  44.9360  44.9360  48.0827  50.2425  50.2425  55.1019  55.1019
    57.2199  57.2200  57.2200  58.0629

          k = 0.0482 0.0482 0.0963 (   276 PWs)   bands (ev):

     7.9748  10.6896  11.5026  11.5027  11.9546  11.9546  12.0047  12.8401
    13.2447  13.2447  13.4206  13.6064  13.7034  14.3805  14.4297  14.4918
    14.4921  14.7963  15.3932  15.4176  15.4176  16.1774  19.6627  19.6628
    24.0656  24.0656  28.0470  28.8126  28.8127  31.7946  31.7946  32.3857
    32.5214  34.0211  38.6977  39.1889  39.7892  40.7861  40.7861  44.3547
    45.4490  46.2518  49.2497  49.2497  50.3220  51.2635  52.7823  52.7823
    53.6166  55.0292  55.2889  58.4939

          k = 0.0482 0.0482-0.1445 (   268 PWs)   bands (ev):

     9.4346   9.4394  11.9410  11.9410  12.0216  12.0217  12.4288  12.4371
    12.8400  12.8400  13.3787  13.3883  13.9836  13.9862  14.2955  14.2955
    14.9390  14.9457  15.1217  15.1225  15.3819  15.3819  20.8188  20.8189
    22.5995  22.5995  29.9084  29.9094  30.0261  30.0298  30.4033  30.4040
    36.5665  36.5763  37.0159  37.0396  40.0780  40.0999  43.9050  43.9050
    46.6204  46.6307  47.9951  47.9951  51.7391  51.7566  53.1055  53.1103
    54.8840  54.8840  56.4948  56.4994

          k = 0.0482 0.0963 0.0963 (   272 PWs)   bands (ev):

     8.8750  11.1363  11.1363  11.6260  12.1338  12.2756  12.2757  12.8216
    13.0421  13.0422  13.1779  13.4900  13.6489  14.1294  14.1294  14.1460
    14.5278  15.1347  15.2705  15.2706  15.3203  17.1931  17.1932  19.8777
    22.3395  25.3657  25.3657  29.4899  29.5960  32.7433  32.7433  33.6403
    33.6403  35.5934  36.8687  38.7368  41.1167  41.1167  41.4497  45.1659
    46.3952  46.4970  48.6178  48.6179  51.6285  51.6285  52.5969  53.0904
    53.5278  54.7539  54.9899  55.3293

          k = 0.0482 0.0963-0.1445 (   274 PWs)   bands (ev):

    10.0982  10.1017  11.4902  11.4918  12.4011  12.4019  12.6515  12.6585
    13.0249  13.0281  13.2031  13.2095  13.7863  13.7879  13.9791  13.9803
    14.8528  14.8563  15.1761  15.1790  15.7674  15.7687  18.5236  18.5285
    23.3373  23.3411  27.2436  27.2462  31.0037  31.0073  34.6467  34.6475
    34.8577  34.8614  38.4745  38.4969  41.6727  41.6767  42.1237  42.1289
    47.5649  47.5655  48.2957  48.3084  49.6614  49.6714  53.3525  53.3601
    54.0544  54.0596  56.4301  56.4382

          k = 0.0482-0.1445-0.1445 (   276 PWs)   bands (ev):

    10.8580  10.8600  10.8600  10.8620  12.8333  12.8365  12.8365  12.8397
    13.0489  13.0532  13.0532  13.0576  13.7268  13.7286  13.7286  13.7304
    14.8896  14.8942  14.8942  14.8988  16.7684  16.7709  16.7709  16.7733
    24.9882  24.9911  24.9911  24.9940  32.5315  32.5339  32.5339  32.5363
    39.6840  39.6892  39.6893  39.6950  39.9485  39.9567  39.9567  39.9641
    48.6318  48.6325  48.6325  48.6333  49.7371  49.7469  49.7469  49.7567
    57.4544  57.4621  57.4621  57.4704

          k = 0.0963 0.0963 0.0963 (   274 PWs)   bands (ev):

     9.5352  11.0681  11.0682  11.0682  12.6101  12.6102  12.6102  13.1264
    13.3426  13.3426  13.3428  13.4555  13.4555  13.7493  13.7493  13.7493
    15.0012  15.0012  15.4078  15.4078  15.4078  17.4524  17.4524  17.4524
    22.9600  22.9600  22.9600  26.7563  34.0632  34.0633  34.0633  36.8771
    36.8771  36.8771  38.8037  38.8961  38.8961  38.8961  41.8587  41.8587
    47.0451  47.0451  49.8087  50.5523  50.5523  50.5524  50.8655  50.8655
    50.8655  54.6999  54.7001  54.7001

          k = 0.0963 0.0963-0.1445 (   284 PWs)   bands (ev):

    10.3414  10.3429  11.0205  11.0205  12.8040  12.8040  13.1389  13.1437
    13.4037  13.4095  13.4913  13.4918  13.5595  13.5595  13.6062  13.6063
    15.3021  15.3030  15.3361  15.3361  15.5790  15.5801  17.5819  17.5819
    22.0229  22.0229  24.5213  24.5240  34.9309  34.9310  36.2611  36.2612
    37.5731  37.5846  38.9633  38.9662  40.7124  40.7267  40.7444  40.7444
    47.3897  47.3995  47.4191  47.4191  48.5797  48.5868  50.9859  50.9859
    51.8763  51.8768  55.9648  55.9650

          k = 0.0963-0.1445-0.1445 (   284 PWs)   bands (ev):

    10.6344  10.6348  10.6348  10.6351  13.1589  13.1602  13.1602  13.1614
    13.4008  13.4021  13.4021  13.4034  13.8741  13.8772  13.8772  13.8803
    15.2406  15.2431  15.2431  15.2455  16.2192  16.2220  16.2220  16.2248
    22.7494  22.7511  22.7512  22.7529  36.5753  36.5789  36.5790  36.5826
    39.5100  39.5120  39.5120  39.5141  40.6132  40.6172  40.6172  40.6210
    46.8415  46.8456  46.8456  46.8497  47.6340  47.6364  47.6364  47.6387
    53.4126  53.4156  53.4156  53.4187

          k =-0.1445-0.1445-0.1445 (   280 PWs)   bands (ev):

    10.5389  10.5390  10.5390  10.5390  13.2807  13.2807  13.2807  13.2807
    13.2807  13.2807  13.2808  13.2808  14.8717  14.8718  14.8718  14.8719
    15.3843  15.3843  15.3843  15.3843  15.3843  15.3844  15.3844  15.3844
    21.9904  21.9904  21.9904  21.9904  37.8526  37.8530  37.8530  37.8530
    41.0698  41.0698  41.0698  41.0698  41.0698  41.0699  41.0699  41.0699
    45.6557  45.6557  45.6557  45.6557  45.6558  45.6558  45.6558  45.6558
    52.1556  52.1556  52.1556  52.1556

          k =-0.0482-0.0000 0.0482 (   270 PWs)   bands (ev):

     6.5964  10.8393  10.8393  11.0206  11.5907  11.5987  11.5988  13.1531
    13.5428  13.5500  14.3136  14.3626  14.3689  14.3737  14.5803  14.9966
    15.1534  15.1534  15.4391  15.4391  15.5226  17.5478  17.5478  19.8414
    25.6073  26.4187  28.0998  28.0999  29.7037  29.7037  30.1693  30.1694
    31.8501  37.8176  38.3252  38.9189  39.5751  39.5752  42.1656  42.1658
    42.5443  44.8821  45.1036  47.2344  50.1081  52.4604  52.7006  55.6194
    56.8110  57.5388  57.5389  58.3150

          k =-0.0482 0.0000 0.0963 (   275 PWs)   bands (ev):

     7.6520  10.4893  11.3679  11.4783  11.8923  11.9153  11.9633  12.8260
    13.2456  13.4192  13.6320  13.6477  13.8400  14.1865  14.6321  14.7298
    14.7984  14.9059  14.9153  15.4274  15.4503  15.8711  19.3134  21.7972
    23.4269  26.2471  26.9210  28.0655  28.7823  31.1050  31.3555  31.3804
    32.5517  35.5945  36.0212  39.9556  40.7056  42.0089  42.2581  42.4693
    43.3054  45.8479  47.0570  49.5288  49.8423  51.7668  52.5763  53.4744
    55.0099  55.0717  58.4002  58.9472

          k =-0.0963-0.0000 0.0963 (   276 PWs)   bands (ev):

     8.6219  11.1395  11.1395  11.8605  11.9556  12.1856  12.1857  12.7287
    12.8915  12.8916  13.0773  13.4782  13.9932  14.0725  14.3908  14.5415
    14.5415  14.9153  14.9153  15.1381  15.1990  17.1078  17.1078  20.6703
    23.4731  26.7437  28.3255  28.3255  29.3757  29.3758  32.8397  33.1897
    33.1914  33.2149  35.1053  38.7876  42.8825  43.9505  43.9505  44.6585
    45.3555  45.3556  45.4306  49.1122  51.0583  51.0583  51.0876  53.8557
    54.4325  54.6383  56.7667  57.1975

          k = 0.0482-0.0482 0.0482 (   281 PWs)   bands (ev):

     6.9542  11.0315  11.0315  11.0315  11.6959  11.6960  11.6960  13.0991
    13.5708  13.5708  14.0045  14.0045  14.0045  14.4947  14.4947  14.7903
    14.7903  14.7904  15.4951  15.4951  15.4952  18.2379  18.2379  18.2379
    26.6656  26.6656  26.6656  28.2089  28.2090  28.2090  32.4123  32.4123
    32.4124  35.2159  38.3673  38.3674  38.3674  40.3402  43.1483  43.1484
    44.9358  44.9359  44.9359  48.0827  50.2425  50.2425  55.1019  55.1019
    57.2199  57.2200  57.2200  58.0629

          k = 0.0482-0.0482 0.0963 (   276 PWs)   bands (ev):

     7.9748  10.6896  11.5026  11.5026  11.9546  11.9546  12.0047  12.8402
    13.2447  13.2447  13.4206  13.6064  13.7034  14.3805  14.4298  14.4918
    14.4920  14.7963  15.3932  15.4175  15.4176  16.1774  19.6628  19.6628
    24.0655  24.0656  28.0470  28.8126  28.8127  31.7945  31.7946  32.3857
    32.5214  34.0212  38.6977  39.1889  39.7892  40.7861  40.7862  44.3547
    45.4490  46.2518  49.2496  49.2497  50.3220  51.2635  52.7822  52.7823
    53.6166  55.0292  55.2889  58.4938

          k =-0.0963 0.0482 0.0482 (   276 PWs)   bands (ev):

     7.9748  10.6896  11.5026  11.5026  11.9546  11.9546  12.0047  12.8402
    13.2447  13.2447  13.4206  13.6064  13.7034  14.3805  14.4298  14.4918
    14.4921  14.7963  15.3932  15.4175  15.4176  16.1774  19.6627  19.6628
    24.0655  24.0656  28.0470  28.8126  28.8127  31.7946  31.7946  32.3857
    32.5214  34.0211  38.6977  39.1889  39.7892  40.7861  40.7862  44.3548
    45.4490  46.2519  49.2496  49.2497  50.3220  51.2635  52.7822  52.7823
    53.6166  55.0292  55.2889  58.4937

          k = 0.0482-0.0482-0.1445 (   268 PWs)   bands (ev):

     9.4346   9.4394  11.9410  11.9410  12.0216  12.0217  12.4288  12.4371
    12.8400  12.8400  13.3787  13.3883  13.9836  13.9862  14.2955  14.2956
    14.9390  14.9457  15.1217  15.1225  15.3819  15.3819  20.8188  20.8189
    22.5995  22.5995  29.9085  29.9093  30.0261  30.0298  30.4033  30.4040
    36.5665  36.5764  37.0159  37.0396  40.0780  40.0999  43.9050  43.9050
    46.6204  46.6307  47.9951  47.9951  51.7391  51.7566  53.1055  53.1103
    54.8840  54.8840  56.4948  56.4994

          k = 0.0963-0.0482 0.0963 (   272 PWs)   bands (ev):

     8.8750  11.1363  11.1363  11.6260  12.1338  12.2756  12.2757  12.8216
    13.0421  13.0422  13.1779  13.4900  13.6489  14.1294  14.1294  14.1460
    14.5278  15.1347  15.2705  15.2706  15.3203  17.1931  17.1932  19.8777
    22.3395  25.3657  25.3657  29.4899  29.5960  32.7433  32.7433  33.6403
    33.6403  35.5934  36.8688  38.7368  41.1167  41.1167  41.4497  45.1660
    46.3952  46.4970  48.6178  48.6179  51.6284  51.6284  52.5969  53.0904
    53.5277  54.7539  54.9899  55.3292

          k =-0.0963 0.0482 0.0963 (   272 PWs)   bands (ev):

     8.8750  11.1363  11.1363  11.6260  12.1338  12.2756  12.2757  12.8216
    13.0421  13.0422  13.1779  13.4900  13.6489  14.1294  14.1294  14.1460
    14.5278  15.1347  15.2705  15.2706  15.3203  17.1932  17.1932  19.8777
    22.3395  25.3657  25.3657  29.4899  29.5960  32.7433  32.7434  33.6402
    33.6403  35.5934  36.8687  38.7368  41.1166  41.1167  41.4497  45.1660
    46.3952  46.4971  48.6178  48.6179  51.6284  51.6284  52.5969  53.0904
    53.5278  54.7539  54.9899  55.3292

          k = 0.0963-0.0482-0.1445 (   274 PWs)   bands (ev):

    10.0982  10.1017  11.4902  11.4918  12.4011  12.4019  12.6515  12.6585
    13.0249  13.0281  13.2031  13.2094  13.7863  13.7879  13.9792  13.9803
    14.8528  14.8563  15.1761  15.1790  15.7674  15.7687  18.5236  18.5285
    23.3374  23.3411  27.2436  27.2462  31.0037  31.0072  34.6468  34.6476
    34.8577  34.8614  38.4745  38.4969  41.6728  41.6767  42.1237  42.1289
    47.5650  47.5655  48.2957  48.3085  49.6614  49.6714  53.3525  53.3601
    54.0544  54.0596  56.4301  56.4382

          k = 0.0963-0.0963 0.0963 (   274 PWs)   bands (ev):

     9.5351  11.0681  11.0682  11.0682  12.6102  12.6102  12.6102  13.1264
    13.3426  13.3426  13.3428  13.4555  13.4555  13.7493  13.7493  13.7494
    15.0012  15.0012  15.4077  15.4078  15.4078  17.4524  17.4524  17.4524
    22.9600  22.9600  22.9600  26.7563  34.0632  34.0633  34.0633  36.8771
    36.8771  36.8772  38.8037  38.8960  38.8962  38.8962  41.8587  41.8588
    47.0451  47.0451  49.8087  50.5522  50.5523  50.5524  50.8655  50.8655
    50.8655  54.6999  54.7000  54.7000

          k = 0.0963-0.0963-0.1445 (   284 PWs)   bands (ev):

    10.3414  10.3429  11.0205  11.0205  12.8040  12.8040  13.1389  13.1437
    13.4037  13.4095  13.4913  13.4918  13.5595  13.5595  13.6062  13.6063
    15.3021  15.3030  15.3361  15.3361  15.5790  15.5802  17.5819  17.5819
    22.0229  22.0229  24.5213  24.5240  34.9309  34.9310  36.2611  36.2611
    37.5731  37.5846  38.9633  38.9662  40.7124  40.7267  40.7444  40.7445
    47.3897  47.3995  47.4190  47.4191  48.5797  48.5868  50.9859  50.9859
    51.8763  51.8768  55.9648  55.9650

     the Fermi energy is    15.1774 ev

!    total energy              =    -343.58354597 Ry
     Harris-Foulkes estimate   =    -343.58354590 Ry
     estimated scf accuracy    <          3.7E-11 Ry

     The total energy is the sum of the following terms:

     one-electron contribution =      -1.12804645 Ry
     hartree contribution      =      58.63091721 Ry
     xc contribution           =    -120.54897679 Ry
     ewald contribution        =    -280.48583451 Ry
     Dispersion Correction     =      -0.05035601 Ry
     smearing contrib. (-TS)   =      -0.00124942 Ry

     total magnetization       =     2.67 Bohr mag/cell
     absolute magnetization    =     3.03 Bohr mag/cell

     convergence has been achieved in  34 iterations

     Forces acting on atoms (Ry/au):

     atom    1 type  1   force =    -0.00083534   -0.00083534    0.00083708
     atom    2 type  1   force =     0.00083359    0.00083359    0.00083359
     atom    3 type  1   force =    -0.00083534    0.00083708   -0.00083534
     atom    4 type  1   force =     0.00083708   -0.00083534   -0.00083534

     Total force =     0.002894     Total SCF correction =     0.000002


     entering subroutine stress ...

          total   stress  (Ry/bohr**3)                   (kbar)     P=  -50.52
  -0.00034341   0.00000010   0.00000010        -50.52      0.01      0.01
   0.00000010  -0.00034341   0.00000010          0.01    -50.52      0.01
   0.00000010   0.00000010  -0.00034341          0.01      0.01    -50.52


     Writing output data file Ni-ferromag.save

     init_run     :     10.09s CPU     10.27s WALL (       2 calls)
     electrons    :    884.71s CPU    901.67s WALL (       5 calls)
     update_pot   :     16.74s CPU     16.79s WALL (       3 calls)
     forces       :     20.45s CPU     20.66s WALL (       5 calls)
     stress       :     44.50s CPU     45.05s WALL (       5 calls)

     Called by init_run:
     wfcinit      :      4.09s CPU      4.15s WALL (       2 calls)
     potinit      :      1.78s CPU      1.83s WALL (       2 calls)

     Called by electrons:
     c_bands      :    693.28s CPU    702.70s WALL (     107 calls)
     sum_band     :    133.92s CPU    137.33s WALL (     107 calls)
     v_of_rho     :     31.68s CPU     32.88s WALL (     112 calls)
     newd         :     25.97s CPU     28.79s WALL (     112 calls)
     mix_rho      :      1.49s CPU      1.62s WALL (     107 calls)

     Called by c_bands:
     init_us_2    :      3.41s CPU      3.34s WALL (   14464 calls)
     cegterg      :    681.35s CPU    690.75s WALL (    6848 calls)

     Called by sum_band:
     sum_band:bec :      1.08s CPU      1.14s WALL (    6848 calls)
     addusdens    :     36.26s CPU     38.96s WALL (     107 calls)

     Called by *egterg:
     h_psi        :    322.99s CPU    324.46s WALL (   19292 calls)
     s_psi        :     35.07s CPU     35.13s WALL (   19292 calls)
     g_psi        :      1.45s CPU      1.41s WALL (   12316 calls)
     cdiaghg      :    184.31s CPU    184.35s WALL (   18972 calls)

     Called by h_psi:
     add_vuspsi   :     35.19s CPU     35.20s WALL (   19292 calls)

     General routines
     calbec       :     55.89s CPU     55.85s WALL (   27740 calls)
     fft          :     10.62s CPU     11.72s WALL (    3642 calls)
     ffts         :      0.09s CPU      0.08s WALL (     438 calls)
     fftw         :    210.06s CPU    211.41s WALL ( 1922956 calls)
     interpolate  :      1.45s CPU      1.79s WALL (     438 calls)

     Parallel routines
     fft_scatter  :     11.98s CPU     12.52s WALL ( 1927036 calls)

     PWSCF        : 16m18.23s CPU    16m36.33s WALL


   This run was terminated on:   0: 0:35  27May2016            

=------------------------------------------------------------------------------=
   JOB DONE.
=------------------------------------------------------------------------------=
