
     Program PWSCF v.5.3.0 (svn rev. 11974) starts on 27May2016 at  0: 0:35 

     This program is part of the open-source Quantum ESPRESSO suite
     for quantum simulation of materials; please cite
         "P. Giannozzi et al., J. Phys.:Condens. Matter 21 395502 (2009);
          URL http://www.quantum-espresso.org", 
     in publications or presentations arising from this work. More details at
     http://www.quantum-espresso.org/quote

     Parallel version (MPI), running on     1 processors
     Waiting for input...
     Reading input from standard input
     Message from routine read_cards :
     DEPRECATED: no units specified in CELL_PARAMETERS card

     Current dimensions of program PWSCF are:
     Max number of different atomic species (ntypx) = 10
     Max number of k-points (npk) =  40000
     Max angular momentum in pseudopotentials (lmaxx) =  3
               file Ni.pbe-nd-rrkjus.UPF: wavefunction(s)  4S renormalized

     -------------------------------------
     Parameters for Dispersion Correction:
     -------------------------------------
       atom      VdW radius       C_6     

        Ni1        3.014        159.927

     Subspace diagonalization in iterative solution of the eigenvalue problem:
     a serial algorithm will be used


     G-vector sticks info
     --------------------
     sticks:   dense  smooth     PW     G-vecs:    dense   smooth      PW
     Sum        1413     285     97                39847     3575     739

     Generating pointlists ...
     new r_m :   0.4125 (alat units)  0.7795 (a.u.) for type    1

     Title: 
     Ni-ferro-mag                                                               


     bravais-lattice index     =            0
     lattice parameter (alat)  =       1.8897  a.u.
     unit-cell volume          =     295.0010 (a.u.)^3
     number of atoms/cell      =            4
     number of atomic types    =            1
     number of electrons       =        40.00
     number of Kohn-Sham states=           52
     kinetic-energy cutoff     =      20.0000  Ry
     charge density cutoff     =     400.0000  Ry
     convergence threshold     =      1.0E-08
     mixing beta               =       0.2000
     number of iterations used =            8  plain     mixing
     Exchange-correlation      =  SLA  PW   PBE  PBE ( 1  4  3  4 0 0)
     nstep                     =           50


     celldm(1)=   1.889726  celldm(2)=   0.000000  celldm(3)=   0.000000
     celldm(4)=   0.000000  celldm(5)=   0.000000  celldm(6)=   0.000000

     crystal axes: (cart. coord. in units of alat)
               a(1) = (   3.522700   0.000000   0.000000 )  
               a(2) = (   0.000000   3.522700   0.000000 )  
               a(3) = (   0.000000   0.000000   3.522700 )  

     reciprocal axes: (cart. coord. in units 2 pi/alat)
               b(1) = (  0.283873  0.000000  0.000000 )  
               b(2) = (  0.000000  0.283873  0.000000 )  
               b(3) = (  0.000000  0.000000  0.283873 )  


     PseudoPot. # 1 for Ni read from file:
     /home/eliot/pseudo/Ni.pbe-nd-rrkjus.UPF
     MD5 check sum: 8081f0a005c9a5470caab1a58e82ecb2
     Pseudo is Ultrasoft + core correction, Zval = 10.0
     Generated by new atomic code, or converted to UPF format
     Using radial grid of 1203 points,  6 beta functions with: 
                l(1) =   0
                l(2) =   0
                l(3) =   1
                l(4) =   1
                l(5) =   2
                l(6) =   2
     Q(r) pseudized with 0 coefficients 


     atomic species   valence    mass     pseudopotential
        Ni1           10.00    58.69340     Ni( 1.00)

     Starting magnetic structure 
     atomic species   magnetization
        Ni1          0.500

      6 Sym. Ops. (no inversion) found



   Cartesian axes

     site n.     atom                  positions (alat units)
         1           Ni1 tau(   1) = (   1.7691699   1.7691699   0.0000000  )
         2           Ni1 tau(   2) = (   0.0000000   0.0000000   0.0000000  )
         3           Ni1 tau(   3) = (   1.7691699   0.0000000   1.7691699  )
         4           Ni1 tau(   4) = (   0.0000000   1.7691699   1.7691699  )

     number of k points=    32  Methfessel-Paxton smearing, width (Ry)=  0.0500
                       cart. coord. in units 2pi/alat
        k(    1) = (   0.0000000   0.0000000   0.0000000), wk =   0.0046296
        k(    2) = (   0.0000000   0.0000000   0.0473122), wk =   0.0277778
        k(    3) = (   0.0000000   0.0000000   0.0946244), wk =   0.0277778
        k(    4) = (   0.0000000   0.0000000  -0.1419366), wk =   0.0138889
        k(    5) = (   0.0000000   0.0473122   0.0473122), wk =   0.0277778
        k(    6) = (   0.0000000   0.0473122   0.0946244), wk =   0.0555556
        k(    7) = (   0.0000000   0.0473122  -0.1419366), wk =   0.0555556
        k(    8) = (   0.0000000   0.0946244   0.0946244), wk =   0.0277778
        k(    9) = (   0.0000000   0.0946244  -0.1419366), wk =   0.0555556
        k(   10) = (   0.0000000  -0.1419366  -0.1419366), wk =   0.0138889
        k(   11) = (   0.0473122   0.0473122   0.0473122), wk =   0.0092593
        k(   12) = (   0.0473122   0.0473122   0.0946244), wk =   0.0277778
        k(   13) = (   0.0473122   0.0473122  -0.1419366), wk =   0.0277778
        k(   14) = (   0.0473122   0.0946244   0.0946244), wk =   0.0277778
        k(   15) = (   0.0473122   0.0946244  -0.1419366), wk =   0.0555556
        k(   16) = (   0.0473122  -0.1419366  -0.1419366), wk =   0.0277778
        k(   17) = (   0.0946244   0.0946244   0.0946244), wk =   0.0092593
        k(   18) = (   0.0946244   0.0946244  -0.1419366), wk =   0.0277778
        k(   19) = (   0.0946244  -0.1419366  -0.1419366), wk =   0.0277778
        k(   20) = (  -0.1419366  -0.1419366  -0.1419366), wk =   0.0046296
        k(   21) = (  -0.0473122   0.0000000   0.0473122), wk =   0.0277778
        k(   22) = (  -0.0473122   0.0000000   0.0946244), wk =   0.0555556
        k(   23) = (  -0.0946244   0.0000000   0.0946244), wk =   0.0277778
        k(   24) = (   0.0473122  -0.0473122   0.0473122), wk =   0.0277778
        k(   25) = (   0.0473122  -0.0473122   0.0946244), wk =   0.0555556
        k(   26) = (  -0.0946244   0.0473122   0.0473122), wk =   0.0277778
        k(   27) = (   0.0473122  -0.0473122  -0.1419366), wk =   0.0277778
        k(   28) = (   0.0946244  -0.0473122   0.0946244), wk =   0.0277778
        k(   29) = (  -0.0946244   0.0473122   0.0946244), wk =   0.0555556
        k(   30) = (   0.0946244  -0.0473122  -0.1419366), wk =   0.0555556
        k(   31) = (   0.0946244  -0.0946244   0.0946244), wk =   0.0277778
        k(   32) = (   0.0946244  -0.0946244  -0.1419366), wk =   0.0277778

     Dense  grid:    39847 G-vectors     FFT dimensions: (  45,  45,  45)

     Smooth grid:     3575 G-vectors     FFT dimensions: (  20,  20,  20)

     Largest allocated arrays     est. size (Mb)     dimensions
        Kohn-Sham Wavefunctions         0.37 Mb     (     466,   52)
        NL pseudopotentials             0.51 Mb     (     466,   72)
        Each V/rho on FFT grid          2.78 Mb     (   91125,   2)
        Each G-vector array             0.30 Mb     (   39847)
        G-vector shells                 0.30 Mb     (   39847)
     Largest temporary arrays     est. size (Mb)     dimensions
        Auxiliary wavefunctions         1.48 Mb     (     466,  208)
        Each subspace H/S matrix        0.66 Mb     (     208,  208)
        Each <psi_i|beta_j> matrix      0.06 Mb     (      72,   52)
        Arrays for rho mixing          11.12 Mb     (   91125,    8)

     Check: negative/imaginary core charge=   -0.000005    0.000000

     Initial potential from superposition of free atoms

     starting charge   39.99816, renormalised to   40.00000
     Starting wfc are   24 randomized atomic wfcs +   28 random wfc

     total cpu time spent up to now is        7.6 secs

     Self-consistent Calculation

     iteration #  1     ecut=    20.00 Ry     beta=0.20
     Davidson diagonalization with overlap
     ethr =  1.00E-02,  avg # of iterations =  5.5

     total cpu time spent up to now is       34.0 secs

     total energy              =    -342.89986839 Ry
     Harris-Foulkes estimate   =    -343.17407809 Ry
     estimated scf accuracy    <       2.40846678 Ry

     total magnetization       =     6.91 Bohr mag/cell
     absolute magnetization    =     6.92 Bohr mag/cell

     iteration #  2     ecut=    20.00 Ry     beta=0.20
     Davidson diagonalization with overlap
     ethr =  6.02E-03,  avg # of iterations =  1.0

     total cpu time spent up to now is       43.0 secs

     total energy              =    -343.20223290 Ry
     Harris-Foulkes estimate   =    -343.03578379 Ry
     estimated scf accuracy    <       0.77100223 Ry

     total magnetization       =     5.77 Bohr mag/cell
     absolute magnetization    =     5.87 Bohr mag/cell

     iteration #  3     ecut=    20.00 Ry     beta=0.20
     Davidson diagonalization with overlap
     ethr =  1.93E-03,  avg # of iterations =  1.3

     negative rho (up, down):  0.000E+00 3.618E-03

     total cpu time spent up to now is       52.3 secs

     total energy              =    -343.51892663 Ry
     Harris-Foulkes estimate   =    -343.27432910 Ry
     estimated scf accuracy    <       0.35881733 Ry

     total magnetization       =     4.53 Bohr mag/cell
     absolute magnetization    =     4.85 Bohr mag/cell

     iteration #  4     ecut=    20.00 Ry     beta=0.20
     Davidson diagonalization with overlap
     ethr =  8.97E-04,  avg # of iterations =  1.3

     negative rho (up, down):  0.000E+00 2.257E-03

     total cpu time spent up to now is       61.7 secs

     total energy              =    -343.60688773 Ry
     Harris-Foulkes estimate   =    -343.63291062 Ry
     estimated scf accuracy    <       0.11913950 Ry

     total magnetization       =     2.57 Bohr mag/cell
     absolute magnetization    =     3.19 Bohr mag/cell

     iteration #  5     ecut=    20.00 Ry     beta=0.20
     Davidson diagonalization with overlap
     ethr =  2.98E-04,  avg # of iterations =  1.0

     negative rho (up, down):  0.000E+00 1.327E-03

     total cpu time spent up to now is       70.7 secs

     total energy              =    -343.61256463 Ry
     Harris-Foulkes estimate   =    -343.61521986 Ry
     estimated scf accuracy    <       0.01831568 Ry

     total magnetization       =     2.64 Bohr mag/cell
     absolute magnetization    =     3.25 Bohr mag/cell

     iteration #  6     ecut=    20.00 Ry     beta=0.20
     Davidson diagonalization with overlap
     ethr =  4.58E-05,  avg # of iterations =  2.3

     negative rho (up, down):  0.000E+00 5.722E-04

     total cpu time spent up to now is       80.9 secs

     total energy              =    -343.61903281 Ry
     Harris-Foulkes estimate   =    -343.61721583 Ry
     estimated scf accuracy    <       0.00185501 Ry

     total magnetization       =     2.73 Bohr mag/cell
     absolute magnetization    =     3.32 Bohr mag/cell

     iteration #  7     ecut=    20.00 Ry     beta=0.20
     Davidson diagonalization with overlap
     ethr =  4.64E-06,  avg # of iterations =  4.9

     negative rho (up, down):  0.000E+00 4.772E-04

     total cpu time spent up to now is       93.5 secs

     total energy              =    -343.62199113 Ry
     Harris-Foulkes estimate   =    -343.62072161 Ry
     estimated scf accuracy    <       0.00154108 Ry

     total magnetization       =     3.03 Bohr mag/cell
     absolute magnetization    =     3.52 Bohr mag/cell

     iteration #  8     ecut=    20.00 Ry     beta=0.20
     Davidson diagonalization with overlap
     ethr =  3.85E-06,  avg # of iterations =  1.0

     negative rho (up, down):  0.000E+00 2.938E-04

     total cpu time spent up to now is      102.6 secs

     total energy              =    -343.62290321 Ry
     Harris-Foulkes estimate   =    -343.62233115 Ry
     estimated scf accuracy    <       0.00008260 Ry

     total magnetization       =     2.91 Bohr mag/cell
     absolute magnetization    =     3.37 Bohr mag/cell

     iteration #  9     ecut=    20.00 Ry     beta=0.20
     Davidson diagonalization with overlap
     ethr =  2.07E-07,  avg # of iterations =  1.4

     negative rho (up, down):  0.000E+00 1.012E-04

     total cpu time spent up to now is      111.9 secs

     total energy              =    -343.62339343 Ry
     Harris-Foulkes estimate   =    -343.62292951 Ry
     estimated scf accuracy    <       0.00005980 Ry

     total magnetization       =     2.88 Bohr mag/cell
     absolute magnetization    =     3.33 Bohr mag/cell

     iteration # 10     ecut=    20.00 Ry     beta=0.20
     Davidson diagonalization with overlap
     ethr =  1.50E-07,  avg # of iterations =  1.0

     negative rho (up, down):  0.000E+00 2.476E-05

     total cpu time spent up to now is      121.0 secs

     total energy              =    -343.62366505 Ry
     Harris-Foulkes estimate   =    -343.62341048 Ry
     estimated scf accuracy    <       0.00001755 Ry

     total magnetization       =     2.90 Bohr mag/cell
     absolute magnetization    =     3.34 Bohr mag/cell

     iteration # 11     ecut=    20.00 Ry     beta=0.20
     Davidson diagonalization with overlap
     ethr =  4.39E-08,  avg # of iterations =  1.0

     negative rho (up, down):  0.000E+00 2.743E-06

     total cpu time spent up to now is      130.1 secs

     total energy              =    -343.62384281 Ry
     Harris-Foulkes estimate   =    -343.62367219 Ry
     estimated scf accuracy    <       0.00000242 Ry

     total magnetization       =     2.88 Bohr mag/cell
     absolute magnetization    =     3.31 Bohr mag/cell

     iteration # 12     ecut=    20.00 Ry     beta=0.20
     Davidson diagonalization with overlap
     ethr =  6.05E-09,  avg # of iterations =  1.0

     total cpu time spent up to now is      139.1 secs

     total energy              =    -343.62396251 Ry
     Harris-Foulkes estimate   =    -343.62384403 Ry
     estimated scf accuracy    <       0.00000031 Ry

     total magnetization       =     2.87 Bohr mag/cell
     absolute magnetization    =     3.30 Bohr mag/cell

     iteration # 13     ecut=    20.00 Ry     beta=0.20
     Davidson diagonalization with overlap
     ethr =  7.74E-10,  avg # of iterations =  2.0

     total cpu time spent up to now is      149.1 secs

     total energy              =    -343.62403815 Ry
     Harris-Foulkes estimate   =    -343.62396269 Ry
     estimated scf accuracy    <       0.00000003 Ry

     total magnetization       =     2.87 Bohr mag/cell
     absolute magnetization    =     3.30 Bohr mag/cell

     iteration # 14     ecut=    20.00 Ry     beta=0.20
     Davidson diagonalization with overlap
     ethr =  6.62E-11,  avg # of iterations =  2.0

     total cpu time spent up to now is      159.7 secs

     total energy              =    -343.62408785 Ry
     Harris-Foulkes estimate   =    -343.62403818 Ry
     estimated scf accuracy    <       0.00000002 Ry

     total magnetization       =     2.87 Bohr mag/cell
     absolute magnetization    =     3.30 Bohr mag/cell

     iteration # 15     ecut=    20.00 Ry     beta=0.20
     Davidson diagonalization with overlap
     ethr =  4.53E-11,  avg # of iterations =  2.0

     total cpu time spent up to now is      170.7 secs

     total energy              =    -343.62411859 Ry
     Harris-Foulkes estimate   =    -343.62408791 Ry
     estimated scf accuracy    <       0.00000001 Ry

     total magnetization       =     2.87 Bohr mag/cell
     absolute magnetization    =     3.30 Bohr mag/cell

     iteration # 16     ecut=    20.00 Ry     beta=0.20
     Davidson diagonalization with overlap
     ethr =  3.42E-11,  avg # of iterations =  2.0

     Magnetic moment per site:
     atom:    1    charge:    3.0557    magn:    0.3439    constr:    0.0000
     atom:    2    charge:    3.0540    magn:    0.3438    constr:    0.0000
     atom:    3    charge:    3.0557    magn:    0.3439    constr:    0.0000
     atom:    4    charge:    3.0557    magn:    0.3439    constr:    0.0000

     total cpu time spent up to now is      181.0 secs

     End of self-consistent calculation

 ------ SPIN UP ------------


          k = 0.0000 0.0000 0.0000 (   461 PWs)   bands (ev):

     5.2259   9.5022   9.5022   9.5022   9.9417   9.9423   9.9423  11.6770
    11.6770  11.6770  12.8267  12.8267  13.5271  13.5271  13.5271  13.6135
    13.6135  13.6135  13.6137  13.6137  13.6137  16.7391  16.7394  16.7394
    23.3577  23.3578  23.3578  29.0889  29.0889  29.0889  29.0891  29.0891
    29.0892  34.1285  34.1285  34.1289  37.3782  37.3783  37.3783  38.0459
    41.8807  41.8807  41.8807  45.6395  45.6395  45.6395  47.5875  54.3535
    54.3535  54.3535  58.7960  58.8560

          k = 0.0000 0.0000 0.0473 (   449 PWs)   bands (ev):

     5.5876   9.5210   9.6828   9.6828  10.0509  10.0660  10.0664  11.5519
    11.7767  11.7767  12.7114  12.8717  12.9789  12.9791  13.3773  13.3773
    13.4434  13.4434  13.4790  13.6143  13.6143  15.1458  17.6796  17.6798
    23.4602  23.4603  25.6089  27.3643  27.3646  27.9648  27.9648  29.6425
    29.6425  34.3235  36.3438  36.3441  37.4189  37.5099  39.3273  39.3273
    39.7041  39.7041  40.3695  47.0594  47.6560  47.6560  48.4218  50.9727
    55.4664  55.4664  56.0379  56.0385

          k = 0.0000 0.0000 0.0946 (   446 PWs)   bands (ev):

     6.6253   9.2808  10.1106  10.1106  10.3509  10.4393  10.4400  11.2174
    11.9477  11.9484  12.0658  12.0658  12.4320  12.9980  13.0001  13.0001
    13.0062  13.0251  13.0251  13.3485  13.6146  13.6146  19.6145  19.6147
    23.7938  23.7938  24.6193  24.6193  26.1948  26.1948  29.8944  31.2099
    31.2099  34.6724  36.3088  36.4983  36.4983  37.8957  38.0362  40.3557
    40.3561  43.4420  43.4753  43.4753  50.4578  50.4647  50.4647  50.4728
    50.4728  54.4511  55.6516  55.6517

          k = 0.0000 0.0000-0.1419 (   466 PWs)   bands (ev):

     8.1018   8.1245  10.3811  10.3811  10.7586  10.7904  11.0549  11.0552
    11.0865  11.0867  12.2367  12.2812  12.4943  12.4943  12.5181  12.5181
    12.7688  12.7688  13.1629  13.1804  13.6150  13.6150  21.9512  21.9514
    22.0072  22.0073  24.2014  24.2015  25.2279  25.2279  33.5335  33.5335
    33.5734  33.5734  34.4117  34.4928  35.2906  35.3109  39.5078  39.6385
    45.0713  45.0715  45.1932  45.1934  46.9246  46.9247  51.8387  51.8388
    53.4888  53.4888  53.5939  53.5939

          k = 0.0000 0.0473 0.0473 (   451 PWs)   bands (ev):

     5.9409   9.7156   9.7157   9.8423  10.1648  10.1653  10.1791  11.4936
    11.8206  11.8371  12.6407  12.6755  12.6973  12.7100  12.8682  13.2530
    13.3738  13.3738  13.4415  13.4418  13.5016  16.0586  16.0586  18.4373
    23.4803  24.6447  25.8039  25.8042  27.8315  27.8315  28.4501  28.4508
    30.1668  35.5339  35.6512  36.5386  36.5391  36.8047  39.4977  39.4982
    40.7254  42.0027  42.9405  44.6730  45.9157  49.0586  49.8917  52.4546
    53.1297  54.7588  54.7601  55.6633

          k = 0.0000 0.0473 0.0946 (   440 PWs)   bands (ev):

     6.9516   9.5135  10.1883  10.2369  10.4402  10.4922  10.5106  11.2204
    11.7144  11.8508  11.9636  12.0771  12.1027  12.5261  12.9379  13.0045
    13.0274  13.0443  13.1925  13.4375  13.4455  14.1109  17.6501  20.2007
    21.6850  24.1585  25.0820  26.1263  26.9001  29.1522  29.4428  29.4902
    30.5051  33.2403  33.9555  37.2363  38.1303  39.8783  40.0806  40.1085
    40.6390  43.4030  44.2928  46.4410  47.2410  48.0678  49.3348  50.7604
    52.3563  52.6370  54.3105  56.0248

          k = 0.0000 0.0473-0.1419 (   448 PWs)   bands (ev):

     8.3817   8.4031  10.5285  10.5299  10.8088  10.8395  10.9284  10.9543
    11.0696  11.1004  11.8789  11.9117  12.4949  12.5192  12.7255  12.7362
    12.7540  12.7554  13.3509  13.3512  13.4336  13.4384  19.4845  19.5131
    22.4481  22.4984  24.9481  24.9852  27.8234  27.8357  31.0284  31.0448
    31.5350  31.5469  35.2958  35.3945  38.3404  38.3458  41.4948  41.5741
    42.5255  42.5559  45.3490  45.4646  49.3788  49.4800  49.7657  49.8104
    52.0216  52.0613  52.7357  52.7659

          k = 0.0000 0.0946 0.0946 (   439 PWs)   bands (ev):

     7.8698  10.0915  10.0917  10.4577  10.7004  10.7017  10.7177  11.1528
    11.3926  11.3927  11.5435  11.8551  12.2044  12.4422  12.7277  12.8771
    12.8776  13.0142  13.0145  13.1803  13.3898  15.3350  15.3350  18.9168
    21.7126  24.7144  26.3495  26.3496  27.4327  27.4333  30.5328  31.1469
    31.1535  31.2595  33.0934  36.3504  40.9794  41.3930  41.3934  42.5959
    42.8646  43.1306  43.1307  46.4911  46.8973  47.9192  47.9200  51.0488
    51.5710  51.6016  52.7793  54.7378

          k = 0.0000 0.0946-0.1419 (   448 PWs)   bands (ev):

     9.1197   9.1373  10.5445  10.5645  10.9306  10.9498  10.9654  10.9726
    11.0893  11.1180  11.5877  11.6092  12.5290  12.5441  12.5456  12.5528
    12.6127  12.6158  13.0408  13.0554  14.0342  14.0380  16.8380  16.8604
    23.8024  23.8407  25.7581  25.7883  28.1938  28.2122  29.0640  29.0677
    32.4438  32.4518  36.2462  36.3408  39.8077  39.8262  42.5196  42.5376
    42.6141  42.6223  46.1623  46.2570  47.2991  47.3491  49.8470  49.8998
    51.1104  51.1956  52.9421  52.9615

          k = 0.0000-0.1419-0.1419 (   428 PWs)   bands (ev):

     9.9625   9.9776   9.9777   9.9923  11.0383  11.0657  11.0657  11.0927
    11.3628  11.3707  11.3707  11.3783  12.3998  12.4022  12.4022  12.4053
    12.6860  12.7086  12.7086  12.7310  15.0783  15.0889  15.0889  15.0997
    25.7649  25.7919  25.7919  25.8185  27.1236  27.1416  27.1417  27.1605
    37.3378  37.3629  37.3629  37.3893  37.9788  38.0111  38.0112  38.0386
    46.6154  46.6158  46.6158  46.6195  48.6732  48.7281  48.7281  48.7828
    51.1427  51.1437  51.1437  51.1438

          k = 0.0473 0.0473 0.0473 (   440 PWs)   bands (ev):

     6.2828   9.8729   9.8731   9.8731  10.2773  10.2780  10.2780  11.4597
    11.8562  11.8562  12.4005  12.4005  12.4007  12.7834  12.7834  13.0253
    13.0258  13.0258  13.5545  13.5545  13.5547  16.6759  16.6760  16.6760
    24.9127  24.9129  24.9129  26.1321  26.1321  26.1324  30.6783  30.6787
    30.6787  32.9950  35.6897  35.6897  35.6901  38.7698  40.5878  40.5878
    42.2181  42.2181  42.2181  45.9968  47.1210  47.1210  50.9997  50.9997
    54.6163  54.6175  54.6175  54.8984

          k = 0.0473 0.0473 0.0946 (   439 PWs)   bands (ev):

     7.2550   9.6702  10.2467  10.2470  10.5557  10.5844  10.5847  11.2560
    11.7049  11.7050  11.8907  11.9389  11.9931  12.6322  12.6997  12.7856
    12.7876  13.0179  13.4597  13.4598  13.4916  14.4671  18.0027  18.0028
    22.2948  22.2949  26.1911  26.8044  26.8045  29.8728  29.8731  30.2933
    30.4822  32.1451  36.1616  37.3002  37.3184  38.2864  38.2864  41.8038
    42.8920  43.8655  46.4081  46.4082  47.2955  48.5153  49.6511  49.6513
    50.1355  52.4289  52.5065  54.9778

          k = 0.0473 0.0473-0.1419 (   454 PWs)   bands (ev):

     8.6089   8.6280  10.6200  10.6213  10.6848  10.6851  10.9039  10.9326
    11.3218  11.3219  11.7860  11.8182  12.2537  12.2647  12.6219  12.6224
    13.1715  13.1942  13.2841  13.2891  13.4050  13.4050  19.1488  19.1489
    20.7270  20.7271  27.7701  27.7747  27.9783  27.9941  28.4177  28.4248
    34.3929  34.4258  34.9432  35.0098  37.4995  37.5684  41.6312  41.6312
    44.0868  44.1216  44.8268  44.8271  48.9034  48.9546  50.2991  50.3156
    51.5157  51.5159  53.2330  53.2493

          k = 0.0473 0.0946 0.0946 (   447 PWs)   bands (ev):

     8.0885   9.9840   9.9844  10.2694  10.8663  10.9091  10.9095  11.2994
    11.5059  11.5062  11.6365  11.8569  11.9785  12.4447  12.4451  12.4619
    12.7574  13.2980  13.3631  13.3801  13.3820  15.4666  15.4667  18.2609
    20.3872  23.4787  23.4787  27.4954  27.6046  30.6776  30.6778  31.6075
    31.6080  33.4951  34.7502  36.4099  38.7926  38.7929  39.6269  42.4114
    43.2811  44.2440  45.8858  45.8859  48.6028  48.6032  49.8262  50.0425
    50.3172  51.0072  51.7240  52.3111

          k = 0.0473 0.0946-0.1419 (   450 PWs)   bands (ev):

     9.1618   9.1739  10.2010  10.2046  11.0740  11.0751  11.2039  11.2271
    11.5084  11.5181  11.6225  11.6436  12.1201  12.1281  12.3278  12.3329
    13.0423  13.0513  13.2635  13.2728  13.9438  13.9472  16.8243  16.8426
    21.3922  21.4067  25.2258  25.2359  28.9680  28.9761  32.5570  32.5616
    32.7396  32.7471  36.3673  36.4452  39.5761  39.5929  39.8786  39.8920
    44.6625  44.6673  45.1301  45.1689  47.0886  47.1087  49.9684  49.9992
    51.1612  51.1808  53.3083  53.3349

          k = 0.0473-0.1419-0.1419 (   432 PWs)   bands (ev):

     9.7327   9.7382   9.7382   9.7430  11.4462  11.4540  11.4540  11.4609
    11.5234  11.5388  11.5388  11.5547  12.0890  12.0967  12.0967  12.1046
    13.0156  13.0297  13.0297  13.0440  14.9925  15.0042  15.0042  15.0160
    23.0239  23.0352  23.0352  23.0464  30.5161  30.5194  30.5194  30.5232
    37.6166  37.6358  37.6358  37.6618  37.8081  37.8398  37.8398  37.8617
    46.1231  46.1231  46.1247  46.1289  46.2266  46.2572  46.2572  46.2810
    54.1206  54.1391  54.1392  54.1648

          k = 0.0946 0.0946 0.0946 (   456 PWs)   bands (ev):

     8.6350   9.8239   9.8245   9.8245  11.2600  11.2606  11.2606  11.7568
    11.8113  11.8113  11.8204  11.8307  11.8307  12.0998  12.0998  12.1003
    13.1497  13.1497  13.5043  13.5043  13.5045  15.8489  15.8490  15.8490
    20.9880  20.9880  20.9881  24.7170  32.0240  32.0240  32.0244  34.7106
    34.7109  34.7109  36.7491  36.7491  36.7497  37.3387  39.3707  39.3707
    43.9403  43.9403  47.1829  47.5014  47.5014  47.5030  47.5796  47.5800
    47.5800  51.7432  51.7439  51.7439

          k = 0.0946 0.0946-0.1419 (   440 PWs)   bands (ev):

     9.2614   9.2650   9.7576   9.7580  11.3765  11.3768  11.6461  11.6638
    11.8640  11.8665  11.9773  11.9831  11.9922  12.0093  12.0972  12.0978
    13.4260  13.4279  13.4345  13.4360  13.8422  13.8436  16.1392  16.1393
    19.9614  19.9615  22.5396  22.5503  32.9673  32.9674  34.0833  34.0839
    35.8891  35.9221  36.6977  36.7158  38.3831  38.4381  38.8820  38.8821
    44.1382  44.1386  44.4540  44.4847  45.5126  45.5210  48.0258  48.0259
    48.9842  48.9946  52.4171  52.4191

          k = 0.0946-0.1419-0.1419 (   448 PWs)   bands (ev):

     9.4410   9.4417   9.4417   9.4418  11.6104  11.6153  11.6153  11.6196
    11.7948  11.7996  11.7996  11.8048  12.5258  12.5357  12.5357  12.5459
    13.3495  13.3572  13.3572  13.3650  14.6307  14.6439  14.6440  14.6572
    20.6638  20.6730  20.6730  20.6822  34.6874  34.6913  34.6913  34.6954
    37.6658  37.6797  37.6798  37.6946  38.3557  38.3715  38.3715  38.3845
    43.5877  43.5981  43.5981  43.6077  44.6766  44.6804  44.6804  44.6837
    49.8225  49.8287  49.8287  49.8361

          k =-0.1419-0.1419-0.1419 (   432 PWs)   bands (ev):

     9.3289   9.3296   9.3296   9.3296  11.6905  11.6906  11.6906  11.6908
    11.6908  11.6913  11.6913  11.6913  13.4805  13.4805  13.4805  13.4815
    13.4815  13.4816  13.4816  13.4816  14.0015  14.0023  14.0023  14.0023
    19.7905  19.7905  19.7905  19.7907  36.5074  36.5076  36.5076  36.5076
    38.9626  38.9626  38.9628  38.9628  38.9628  38.9637  38.9637  38.9637
    42.4560  42.4560  42.4564  42.4564  42.4564  42.4569  42.4570  42.4570
    48.1669  48.1669  48.1669  48.1673

          k =-0.0473 0.0000 0.0473 (   451 PWs)   bands (ev):

     5.9409   9.7156   9.7157   9.8423  10.1648  10.1653  10.1791  11.4936
    11.8206  11.8371  12.6407  12.6755  12.6973  12.7100  12.8682  13.2530
    13.3738  13.3738  13.4415  13.4418  13.5016  16.0586  16.0587  18.4373
    23.4803  24.6447  25.8039  25.8042  27.8315  27.8315  28.4501  28.4508
    30.1668  35.5339  35.6512  36.5386  36.5391  36.8047  39.4976  39.4983
    40.7254  42.0027  42.9405  44.6730  45.9157  49.0586  49.8917  52.4546
    53.1297  54.7588  54.7601  55.6633

          k =-0.0473 0.0000 0.0946 (   440 PWs)   bands (ev):

     6.9516   9.5135  10.1883  10.2369  10.4402  10.4922  10.5106  11.2204
    11.7144  11.8508  11.9636  12.0771  12.1027  12.5261  12.9379  13.0045
    13.0274  13.0443  13.1925  13.4375  13.4455  14.1109  17.6501  20.2007
    21.6850  24.1585  25.0820  26.1263  26.9001  29.1522  29.4428  29.4902
    30.5051  33.2403  33.9555  37.2363  38.1303  39.8783  40.0806  40.1085
    40.6390  43.4030  44.2928  46.4410  47.2410  48.0678  49.3348  50.7604
    52.3563  52.6370  54.3105  56.0248

          k =-0.0946 0.0000 0.0946 (   439 PWs)   bands (ev):

     7.8698  10.0915  10.0917  10.4577  10.7004  10.7017  10.7177  11.1528
    11.3926  11.3927  11.5435  11.8551  12.2044  12.4422  12.7277  12.8771
    12.8776  13.0142  13.0145  13.1803  13.3898  15.3350  15.3350  18.9168
    21.7126  24.7144  26.3495  26.3496  27.4327  27.4333  30.5328  31.1469
    31.1535  31.2595  33.0934  36.3504  40.9794  41.3930  41.3934  42.5959
    42.8646  43.1306  43.1306  46.4911  46.8973  47.9192  47.9200  51.0488
    51.5710  51.6016  52.7793  54.7302

          k = 0.0473-0.0473 0.0473 (   440 PWs)   bands (ev):

     6.2828   9.8729   9.8731   9.8731  10.2773  10.2780  10.2780  11.4597
    11.8562  11.8562  12.4005  12.4005  12.4007  12.7834  12.7834  13.0253
    13.0258  13.0258  13.5545  13.5545  13.5546  16.6759  16.6760  16.6760
    24.9127  24.9129  24.9129  26.1321  26.1321  26.1324  30.6783  30.6786
    30.6787  32.9950  35.6897  35.6897  35.6902  38.7698  40.5878  40.5878
    42.2180  42.2181  42.2181  45.9968  47.1210  47.1210  50.9997  50.9997
    54.6163  54.6175  54.6176  54.8985

          k = 0.0473-0.0473 0.0946 (   439 PWs)   bands (ev):

     7.2550   9.6702  10.2467  10.2470  10.5557  10.5844  10.5847  11.2560
    11.7049  11.7050  11.8907  11.9389  11.9931  12.6322  12.6997  12.7856
    12.7876  13.0179  13.4597  13.4598  13.4916  14.4671  18.0027  18.0028
    22.2948  22.2949  26.1911  26.8044  26.8045  29.8728  29.8730  30.2933
    30.4822  32.1451  36.1616  37.3002  37.3184  38.2864  38.2865  41.8038
    42.8920  43.8655  46.4080  46.4082  47.2955  48.5153  49.6511  49.6513
    50.1355  52.4289  52.5065  54.9778

          k =-0.0946 0.0473 0.0473 (   439 PWs)   bands (ev):

     7.2550   9.6702  10.2467  10.2470  10.5557  10.5844  10.5847  11.2560
    11.7049  11.7050  11.8907  11.9389  11.9931  12.6322  12.6997  12.7856
    12.7876  13.0179  13.4597  13.4598  13.4916  14.4671  18.0027  18.0028
    22.2948  22.2949  26.1911  26.8044  26.8045  29.8728  29.8731  30.2933
    30.4822  32.1451  36.1616  37.3002  37.3184  38.2864  38.2864  41.8038
    42.8920  43.8655  46.4081  46.4082  47.2955  48.5153  49.6511  49.6513
    50.1355  52.4289  52.5065  54.9778

          k = 0.0473-0.0473-0.1419 (   454 PWs)   bands (ev):

     8.6089   8.6280  10.6200  10.6213  10.6849  10.6851  10.9039  10.9326
    11.3218  11.3219  11.7860  11.8182  12.2537  12.2647  12.6219  12.6224
    13.1715  13.1942  13.2841  13.2891  13.4050  13.4050  19.1488  19.1489
    20.7271  20.7271  27.7701  27.7746  27.9783  27.9941  28.4177  28.4248
    34.3929  34.4258  34.9432  35.0098  37.4995  37.5684  41.6311  41.6313
    44.0868  44.1216  44.8267  44.8271  48.9034  48.9546  50.2991  50.3156
    51.5157  51.5159  53.2329  53.2492

          k = 0.0946-0.0473 0.0946 (   447 PWs)   bands (ev):

     8.0885   9.9840   9.9844  10.2694  10.8663  10.9091  10.9095  11.2994
    11.5059  11.5062  11.6365  11.8569  11.9785  12.4447  12.4451  12.4619
    12.7574  13.2980  13.3631  13.3801  13.3820  15.4666  15.4667  18.2609
    20.3872  23.4787  23.4787  27.4954  27.6046  30.6776  30.6778  31.6075
    31.6080  33.4951  34.7502  36.4099  38.7926  38.7929  39.6269  42.4114
    43.2811  44.2440  45.8858  45.8859  48.6028  48.6032  49.8262  50.0425
    50.3172  51.0072  51.7240  52.3105

          k =-0.0946 0.0473 0.0946 (   447 PWs)   bands (ev):

     8.0885   9.9840   9.9844  10.2694  10.8663  10.9091  10.9095  11.2994
    11.5059  11.5062  11.6365  11.8569  11.9785  12.4447  12.4451  12.4619
    12.7574  13.2980  13.3631  13.3801  13.3820  15.4666  15.4666  18.2609
    20.3872  23.4787  23.4787  27.4954  27.6046  30.6776  30.6778  31.6075
    31.6080  33.4951  34.7502  36.4099  38.7926  38.7929  39.6269  42.4114
    43.2811  44.2440  45.8858  45.8859  48.6028  48.6032  49.8262  50.0425
    50.3172  51.0072  51.7240  52.3108

          k = 0.0946-0.0473-0.1419 (   450 PWs)   bands (ev):

     9.1618   9.1739  10.2010  10.2046  11.0740  11.0751  11.2039  11.2271
    11.5084  11.5181  11.6225  11.6436  12.1201  12.1281  12.3278  12.3329
    13.0423  13.0513  13.2635  13.2728  13.9438  13.9472  16.8243  16.8426
    21.3922  21.4067  25.2258  25.2359  28.9680  28.9761  32.5570  32.5616
    32.7396  32.7471  36.3673  36.4452  39.5761  39.5929  39.8786  39.8920
    44.6625  44.6673  45.1301  45.1689  47.0886  47.1087  49.9684  49.9992
    51.1612  51.1808  53.3080  53.3348

          k = 0.0946-0.0946 0.0946 (   456 PWs)   bands (ev):

     8.6350   9.8239   9.8245   9.8245  11.2600  11.2606  11.2606  11.7568
    11.8113  11.8113  11.8204  11.8307  11.8307  12.0998  12.0998  12.1003
    13.1497  13.1497  13.5043  13.5043  13.5045  15.8489  15.8490  15.8490
    20.9880  20.9880  20.9881  24.7170  32.0240  32.0240  32.0244  34.7106
    34.7109  34.7109  36.7491  36.7491  36.7497  37.3387  39.3707  39.3707
    43.9403  43.9403  47.1829  47.5014  47.5014  47.5031  47.5796  47.5800
    47.5800  51.7432  51.7439  51.7439

          k = 0.0946-0.0946-0.1419 (   440 PWs)   bands (ev):

     9.2614   9.2650   9.7576   9.7580  11.3765  11.3768  11.6461  11.6638
    11.8640  11.8665  11.9773  11.9831  11.9922  12.0093  12.0972  12.0978
    13.4260  13.4279  13.4345  13.4360  13.8422  13.8436  16.1392  16.1392
    19.9614  19.9615  22.5396  22.5503  32.9673  32.9675  34.0833  34.0839
    35.8891  35.9221  36.6977  36.7158  38.3831  38.4381  38.8820  38.8822
    44.1382  44.1386  44.4540  44.4847  45.5126  45.5210  48.0258  48.0259
    48.9842  48.9946  52.4171  52.4191

 ------ SPIN DOWN ----------


          k = 0.0000 0.0000 0.0000 (   461 PWs)   bands (ev):

     5.1694   9.9736   9.9736   9.9736  10.6688  10.6695  10.6695  12.5672
    12.5672  12.5672  13.6185  13.6185  14.3532  14.3532  14.3532  14.6322
    14.6322  14.6322  14.6326  14.6326  14.6326  16.6574  16.6577  16.6577
    23.6642  23.6642  23.6642  29.0745  29.0745  29.0745  29.0748  29.0748
    29.0749  34.2863  34.2863  34.2867  37.5205  37.5207  37.5207  37.8334
    41.8537  41.8537  41.8537  45.6940  45.6940  45.6940  47.4205  54.5382
    54.5382  54.5382  58.8669  58.8670

          k = 0.0000 0.0000 0.0473 (   449 PWs)   bands (ev):

     5.5310   9.9441  10.1644  10.1644  10.7874  10.7910  10.7915  12.4289
    12.6709  12.6709  13.4935  13.6654  13.8085  13.8090  14.1903  14.1903
    14.3026  14.4450  14.4450  14.6330  14.6330  15.2169  17.7830  17.7832
    23.7511  23.7511  25.8090  27.4296  27.4300  27.9917  27.9917  29.6442
    29.6442  34.4636  36.4162  36.4165  37.2709  37.6497  39.4453  39.4454
    39.7436  39.7436  40.2995  47.0636  47.6172  47.6172  48.4966  50.9428
    55.6726  55.6726  55.9585  55.9591

          k = 0.0000 0.0000 0.0946 (   446 PWs)   bands (ev):

     6.5730   9.4893  10.6173  10.6174  11.1129  11.1588  11.1596  12.0603
    12.6859  12.6868  12.9730  12.9730  13.1796  13.3878  13.7878  13.7878
    13.7980  13.9821  13.9821  14.1656  14.6335  14.6335  19.7964  19.7966
    24.0391  24.0391  24.7560  24.7561  26.2931  26.2932  29.9874  31.2448
    31.2448  34.7759  36.2614  36.5668  36.5668  37.8002  38.1805  40.3527
    40.3531  43.5717  43.5718  43.6597  50.3702  50.3702  50.3838  50.3838
    50.3998  54.3285  55.8420  55.8421

          k = 0.0000 0.0000-0.1419 (   466 PWs)   bands (ev):

     8.0928   8.1162  10.9039  10.9040  11.5570  11.5911  11.7729  11.7736
    11.8053  11.8059  12.8945  12.9433  13.4232  13.4232  13.4481  13.4481
    13.5302  13.5303  13.9710  13.9893  14.6338  14.6338  22.1282  22.1284
    22.1854  22.1856  24.3939  24.3940  25.3877  25.3877  33.5970  33.5970
    33.6367  33.6367  34.3855  34.4690  35.3313  35.3554  39.7003  39.8335
    45.0171  45.0174  45.1413  45.1416  46.9977  46.9978  52.0042  52.0042
    53.3734  53.3734  53.4785  53.4785

          k = 0.0000 0.0473 0.0473 (   451 PWs)   bands (ev):

     5.8853  10.1517  10.1518  10.3433  10.8879  10.8981  10.8987  12.3568
    12.7202  12.7241  13.4148  13.4395  13.4543  13.4833  13.6672  14.0556
    14.1782  14.1783  14.4435  14.4436  14.5131  16.3741  16.3742  18.5995
    23.7399  24.7705  25.9906  25.9909  27.9112  27.9113  28.4906  28.4913
    30.1770  35.6292  35.6398  36.6013  36.6018  36.8203  39.6136  39.6142
    40.6410  42.0854  42.9115  44.6093  45.9594  49.2119  49.8083  52.5989
    53.0868  54.7058  54.7071  55.5981

          k = 0.0000 0.0473 0.0946 (   440 PWs)   bands (ev):

     6.9041   9.7369  10.6596  10.7798  11.1628  11.1978  11.2370  12.0522
    12.4146  12.5810  12.7635  12.8175  12.9888  13.3021  13.7147  13.7962
    13.8652  13.9503  13.9806  14.4401  14.4510  14.8289  17.9889  20.4009
    21.8802  24.3865  25.2286  26.2552  27.0276  29.2553  29.5034  29.5552
    30.6027  33.3131  33.9965  37.2678  38.1616  39.8231  40.0219  40.2246
    40.6287  43.4829  44.4998  46.5008  47.1555  48.0384  49.3084  50.6774
    52.3001  52.5407  54.4883  56.3503

          k = 0.0000 0.0473-0.1419 (   448 PWs)   bands (ev):

     8.3848   8.4071  11.0410  11.0438  11.5923  11.6224  11.6225  11.6501
    11.7906  11.8222  12.6283  12.6662  13.4264  13.4509  13.5058  13.5121
    13.5204  13.5230  14.2001  14.2012  14.4368  14.4422  19.7646  19.7936
    22.6367  22.6875  25.1166  25.1569  27.9377  27.9524  31.1373  31.1519
    31.5916  31.6019  35.3162  35.4144  38.3341  38.3376  41.6451  41.7274
    42.5132  42.5467  45.2913  45.4090  49.4375  49.5366  49.6900  49.7350
    51.9281  51.9690  52.8794  52.9091

          k = 0.0000 0.0946 0.0946 (   439 PWs)   bands (ev):

     7.8456  10.3671  10.3673  11.1306  11.2116  11.4455  11.4470  11.9564
    12.0961  12.0961  12.2648  12.6570  13.1292  13.2010  13.4932  13.6266
    13.6272  13.9839  13.9842  14.1703  14.2429  15.9465  15.9467  19.2242
    21.9273  24.9117  26.5102  26.5103  27.5325  27.5332  30.6576  31.2324
    31.2399  31.3256  33.1440  36.3792  40.9115  41.3651  41.3655  42.6288
    42.7431  43.1730  43.1730  46.6043  46.9091  47.9520  47.9529  51.0968
    51.4425  51.5469  52.9476  54.6260

          k = 0.0000 0.0946-0.1419 (   448 PWs)   bands (ev):

     9.1787   9.1980  10.9700  10.9898  11.6080  11.6096  11.7072  11.7373
    11.8192  11.8491  12.3343  12.3582  13.2908  13.2914  13.3603  13.3637
    13.4767  13.5024  14.0179  14.0338  14.8499  14.8546  17.3051  17.3270
    24.0026  24.0401  25.9071  25.9401  28.3518  28.3682  29.1516  29.1569
    32.5119  32.5220  36.2696  36.3643  39.8035  39.8199  42.4583  42.4750
    42.6332  42.6404  46.0908  46.1868  47.3693  47.4221  49.7839  49.8376
    51.2176  51.3019  52.8498  52.8680

          k = 0.0000-0.1419-0.1419 (   428 PWs)   bands (ev):

    10.1805  10.1975  10.1975  10.2141  11.7836  11.8128  11.8128  11.8415
    12.0426  12.0516  12.0516  12.0606  13.1492  13.1520  13.1520  13.1554
    13.6431  13.6668  13.6668  13.6905  15.7693  15.7784  15.7784  15.7872
    25.9549  25.9802  25.9803  26.0051  27.2425  27.2627  27.2628  27.2839
    37.4101  37.4341  37.4341  37.4602  37.9399  37.9707  37.9708  37.9959
    46.4888  46.4905  46.4905  46.4954  48.6456  48.7014  48.7014  48.7571
    51.2364  51.2393  51.2393  51.2410

          k = 0.0473 0.0473 0.0473 (   440 PWs)   bands (ev):

     6.2301  10.3364  10.3365  10.3365  10.9873  10.9883  10.9883  12.3030
    12.7441  12.7441  13.1200  13.1200  13.1201  13.5815  13.5815  13.8674
    13.8679  13.8679  14.5128  14.5128  14.5132  17.0178  17.0180  17.0180
    25.0388  25.0390  25.0390  26.3046  26.3046  26.3049  30.6989  30.6994
    30.6994  33.0574  35.7771  35.7771  35.7775  38.6094  40.6366  40.6366
    42.2967  42.2967  42.2967  45.9049  47.0697  47.0697  51.1567  51.1567
    54.5624  54.5637  54.5637  55.1960

          k = 0.0473 0.0473 0.0946 (   439 PWs)   bands (ev):

     7.2178   9.9340  10.7879  10.7881  11.2210  11.2219  11.2786  12.0616
    12.4164  12.4165  12.5760  12.7768  12.8635  13.4890  13.5197  13.5838
    13.5869  13.8516  14.4031  14.4326  14.4332  15.1054  18.3295  18.3296
    22.5019  22.5020  26.3304  26.9505  26.9506  29.9454  29.9458  30.4019
    30.5668  32.1899  36.2289  37.2177  37.3742  38.3103  38.3103  41.8111
    42.9666  43.8801  46.4463  46.4464  47.3249  48.4537  49.6283  49.6286
    50.1295  52.3462  52.4575  55.0847

          k = 0.0473 0.0473-0.1419 (   454 PWs)   bands (ev):

     8.6405   8.6612  11.2086  11.2088  11.2679  11.2692  11.6631  11.6944
    12.0450  12.0453  12.5448  12.5807  13.1157  13.1247  13.3971  13.3976
    13.9859  14.0102  14.1575  14.1601  14.3862  14.3864  19.4041  19.4042
    21.0303  21.0303  27.8809  27.8851  28.1164  28.1314  28.5324  28.5402
    34.4601  34.4926  34.9081  34.9767  37.5749  37.6443  41.6099  41.6100
    44.1673  44.2054  44.8066  44.8070  48.8154  48.8669  50.2461  50.2627
    51.5428  51.5430  53.3677  53.3992

          k = 0.0473 0.0946 0.0946 (   447 PWs)   bands (ev):

     8.0980  10.3794  10.3797  10.8959  11.3832  11.5207  11.5215  12.0363
    12.2360  12.2364  12.3575  12.6682  12.8135  13.2539  13.2555  13.2596
    13.6114  14.1577  14.3014  14.3034  14.3223  16.0255  16.0257  18.5341
    20.7306  23.6921  23.6922  27.6466  27.7354  30.7372  30.7374  31.6991
    31.6996  33.5483  34.7730  36.4289  38.8024  38.8028  39.5450  42.5273
    43.2584  44.1827  45.8745  45.8745  48.6462  48.6466  49.7523  50.0167
    50.2869  51.0687  51.7699  52.2309

          k = 0.0473 0.0946-0.1419 (   450 PWs)   bands (ev):

     9.3073   9.3230  10.7400  10.7470  11.6375  11.6408  11.8584  11.8850
    12.2106  12.2228  12.3918  12.4156  12.9361  12.9422  13.1139  13.1182
    13.9158  13.9290  14.2087  14.2192  14.7461  14.7508  17.2375  17.2551
    21.6910  21.7041  25.4223  25.4308  29.0647  29.0751  32.6122  32.6144
    32.8051  32.8147  36.3760  36.4529  39.5578  39.5734  39.8979  39.9125
    44.6419  44.6458  45.1119  45.1526  47.0630  47.0857  49.9939  50.0245
    51.0954  51.1140  53.3728  53.4029

          k = 0.0473-0.1419-0.1419 (   432 PWs)   bands (ev):

    10.0862  10.0961  10.0961  10.1054  12.0207  12.0339  12.0339  12.0469
    12.2371  12.2527  12.2527  12.2682  12.8783  12.8850  12.8850  12.8922
    13.9354  13.9517  13.9517  13.9682  15.6471  15.6569  15.6569  15.6665
    23.2794  23.2889  23.2889  23.2983  30.5930  30.5984  30.5984  30.6043
    37.6872  37.6989  37.6989  37.7309  37.7551  37.7919  37.7919  37.8053
    46.0476  46.0476  46.0487  46.0514  46.2388  46.2702  46.2702  46.2972
    54.1755  54.1950  54.1950  54.2229

          k = 0.0946 0.0946 0.0946 (   456 PWs)   bands (ev):

     8.7653  10.3389  10.3395  10.3395  11.8285  11.8291  11.8291  12.2908
    12.5062  12.5062  12.5080  12.6363  12.6363  12.9018  12.9018  12.9023
    14.0412  14.0412  14.4422  14.4422  14.4426  16.2782  16.2785  16.2785
    21.3254  21.3254  21.3255  24.9381  32.0683  32.0683  32.0687  34.7704
    34.7709  34.7709  36.7565  36.7565  36.7570  37.1617  39.4552  39.4552
    43.9399  43.9399  47.1889  47.4420  47.4420  47.4439  47.5728  47.5733
    47.5733  51.7699  51.7705  51.7705

          k = 0.0946 0.0946-0.1419 (   440 PWs)   bands (ev):

     9.5919   9.5997  10.3021  10.3025  12.0186  12.0190  12.3134  12.3309
    12.5518  12.5738  12.6669  12.6688  12.7057  12.7058  12.7727  12.7728
    14.3452  14.3480  14.3729  14.3740  14.5653  14.5692  16.4700  16.4702
    20.3993  20.3994  22.8266  22.8358  32.9702  32.9703  34.1686  34.1692
    35.7712  35.8059  36.7683  36.7851  38.4637  38.5183  38.8543  38.8545
    44.1542  44.1547  44.4184  44.4493  45.5097  45.5195  47.9761  47.9762
    49.0276  49.0378  52.5031  52.5051

          k = 0.0946-0.1419-0.1419 (   448 PWs)   bands (ev):

     9.9142   9.9169   9.9169   9.9188  12.3545  12.3591  12.3591  12.3634
    12.5819  12.5864  12.5864  12.5914  12.9717  12.9835  12.9835  12.9953
    14.2769  14.2855  14.2855  14.2945  15.1681  15.1790  15.1790  15.1894
    21.0572  21.0650  21.0650  21.0728  34.6572  34.6635  34.6635  34.6701
    37.6310  37.6435  37.6435  37.6570  38.4252  38.4402  38.4403  38.4525
    43.6076  43.6196  43.6196  43.6308  44.6573  44.6618  44.6618  44.6658
    49.8993  49.9055  49.9055  49.9130

          k =-0.1419-0.1419-0.1419 (   432 PWs)   bands (ev):

     9.8360   9.8367   9.8367   9.8368  12.4745  12.4745  12.4745  12.4749
    12.4749  12.4752  12.4752  12.4752  13.8981  13.8982  13.8982  13.8992
    14.4150  14.4150  14.4153  14.4154  14.4154  14.4158  14.4158  14.4158
    20.2746  20.2746  20.2746  20.2746  36.3176  36.3178  36.3178  36.3178
    39.0345  39.0345  39.0346  39.0346  39.0346  39.0356  39.0356  39.0356
    42.4690  42.4690  42.4693  42.4694  42.4694  42.4699  42.4699  42.4699
    48.2701  48.2701  48.2701  48.2705

          k =-0.0473 0.0000 0.0473 (   451 PWs)   bands (ev):

     5.8853  10.1517  10.1518  10.3433  10.8879  10.8981  10.8987  12.3568
    12.7202  12.7241  13.4148  13.4395  13.4543  13.4833  13.6672  14.0556
    14.1782  14.1782  14.4435  14.4436  14.5131  16.3741  16.3742  18.5995
    23.7399  24.7705  25.9906  25.9909  27.9112  27.9113  28.4906  28.4913
    30.1770  35.6292  35.6398  36.6013  36.6018  36.8203  39.6135  39.6143
    40.6410  42.0854  42.9115  44.6093  45.9594  49.2119  49.8083  52.5989
    53.0868  54.7058  54.7071  55.5981

          k =-0.0473 0.0000 0.0946 (   440 PWs)   bands (ev):

     6.9041   9.7369  10.6596  10.7798  11.1628  11.1978  11.2370  12.0522
    12.4146  12.5810  12.7635  12.8175  12.9888  13.3021  13.7147  13.7962
    13.8652  13.9503  13.9806  14.4401  14.4510  14.8289  17.9889  20.4009
    21.8802  24.3865  25.2286  26.2552  27.0276  29.2553  29.5034  29.5552
    30.6027  33.3131  33.9965  37.2678  38.1616  39.8231  40.0219  40.2246
    40.6287  43.4829  44.4998  46.5008  47.1555  48.0384  49.3084  50.6774
    52.3001  52.5407  54.4883  56.3502

          k =-0.0946 0.0000 0.0946 (   439 PWs)   bands (ev):

     7.8456  10.3671  10.3673  11.1306  11.2116  11.4455  11.4470  11.9564
    12.0961  12.0962  12.2648  12.6570  13.1292  13.2010  13.4932  13.6266
    13.6272  13.9839  13.9842  14.1703  14.2429  15.9466  15.9467  19.2242
    21.9273  24.9117  26.5102  26.5104  27.5325  27.5332  30.6576  31.2324
    31.2399  31.3256  33.1440  36.3792  40.9115  41.3652  41.3655  42.6288
    42.7431  43.1730  43.1730  46.6043  46.9091  47.9520  47.9528  51.0968
    51.4425  51.5469  52.9476  54.6284

          k = 0.0473-0.0473 0.0473 (   440 PWs)   bands (ev):

     6.2301  10.3364  10.3365  10.3365  10.9873  10.9883  10.9883  12.3030
    12.7441  12.7441  13.1200  13.1200  13.1201  13.5815  13.5815  13.8674
    13.8679  13.8679  14.5128  14.5128  14.5132  17.0178  17.0180  17.0180
    25.0388  25.0390  25.0390  26.3046  26.3046  26.3049  30.6989  30.6993
    30.6994  33.0574  35.7770  35.7771  35.7775  38.6094  40.6366  40.6366
    42.2966  42.2967  42.2968  45.9049  47.0697  47.0697  51.1567  51.1567
    54.5624  54.5637  54.5637  55.1958

          k = 0.0473-0.0473 0.0946 (   439 PWs)   bands (ev):

     7.2178   9.9340  10.7879  10.7881  11.2210  11.2219  11.2786  12.0616
    12.4164  12.4165  12.5760  12.7768  12.8635  13.4890  13.5197  13.5838
    13.5868  13.8516  14.4031  14.4326  14.4332  15.1054  18.3295  18.3296
    22.5019  22.5019  26.3304  26.9505  26.9506  29.9454  29.9457  30.4019
    30.5668  32.1899  36.2289  37.2177  37.3742  38.3103  38.3104  41.8111
    42.9666  43.8801  46.4462  46.4464  47.3249  48.4537  49.6283  49.6286
    50.1295  52.3462  52.4575  55.0845

          k =-0.0946 0.0473 0.0473 (   439 PWs)   bands (ev):

     7.2178   9.9340  10.7879  10.7881  11.2210  11.2219  11.2786  12.0616
    12.4164  12.4165  12.5760  12.7768  12.8635  13.4890  13.5197  13.5838
    13.5869  13.8516  14.4031  14.4326  14.4332  15.1054  18.3295  18.3296
    22.5019  22.5020  26.3304  26.9505  26.9506  29.9454  29.9458  30.4019
    30.5668  32.1899  36.2289  37.2177  37.3742  38.3103  38.3103  41.8111
    42.9666  43.8801  46.4463  46.4464  47.3249  48.4537  49.6283  49.6286
    50.1295  52.3462  52.4575  55.0845

          k = 0.0473-0.0473-0.1419 (   454 PWs)   bands (ev):

     8.6405   8.6612  11.2086  11.2087  11.2679  11.2692  11.6631  11.6944
    12.0450  12.0453  12.5448  12.5807  13.1157  13.1247  13.3971  13.3976
    13.9859  14.0102  14.1575  14.1601  14.3862  14.3864  19.4041  19.4042
    21.0303  21.0303  27.8809  27.8851  28.1164  28.1314  28.5325  28.5402
    34.4601  34.4926  34.9081  34.9767  37.5749  37.6443  41.6099  41.6101
    44.1673  44.2054  44.8066  44.8070  48.8154  48.8669  50.2461  50.2627
    51.5428  51.5431  53.3676  53.3995

          k = 0.0946-0.0473 0.0946 (   447 PWs)   bands (ev):

     8.0980  10.3794  10.3797  10.8959  11.3832  11.5207  11.5215  12.0363
    12.2360  12.2364  12.3575  12.6682  12.8135  13.2539  13.2555  13.2596
    13.6114  14.1577  14.3014  14.3034  14.3223  16.0255  16.0257  18.5341
    20.7306  23.6921  23.6922  27.6466  27.7354  30.7372  30.7374  31.6991
    31.6996  33.5483  34.7730  36.4289  38.8024  38.8028  39.5450  42.5273
    43.2584  44.1827  45.8745  45.8745  48.6462  48.6466  49.7523  50.0167
    50.2869  51.0687  51.7699  52.2319

          k =-0.0946 0.0473 0.0946 (   447 PWs)   bands (ev):

     8.0980  10.3794  10.3797  10.8959  11.3832  11.5207  11.5215  12.0363
    12.2360  12.2364  12.3575  12.6682  12.8135  13.2539  13.2555  13.2596
    13.6114  14.1577  14.3014  14.3034  14.3223  16.0255  16.0257  18.5341
    20.7306  23.6921  23.6922  27.6466  27.7354  30.7372  30.7375  31.6991
    31.6996  33.5483  34.7730  36.4289  38.8024  38.8028  39.5450  42.5273
    43.2584  44.1827  45.8745  45.8745  48.6461  48.6466  49.7523  50.0167
    50.2869  51.0687  51.7699  52.2310

          k = 0.0946-0.0473-0.1419 (   450 PWs)   bands (ev):

     9.3073   9.3230  10.7400  10.7470  11.6375  11.6408  11.8584  11.8850
    12.2106  12.2228  12.3918  12.4156  12.9361  12.9422  13.1139  13.1182
    13.9158  13.9290  14.2087  14.2192  14.7461  14.7508  17.2375  17.2551
    21.6910  21.7041  25.4223  25.4308  29.0647  29.0751  32.6122  32.6143
    32.8051  32.8147  36.3760  36.4529  39.5578  39.5734  39.8979  39.9125
    44.6419  44.6458  45.1119  45.1526  47.0630  47.0857  49.9939  50.0245
    51.0954  51.1140  53.3732  53.4083

          k = 0.0946-0.0946 0.0946 (   456 PWs)   bands (ev):

     8.7653  10.3388  10.3395  10.3395  11.8285  11.8291  11.8291  12.2908
    12.5061  12.5062  12.5080  12.6363  12.6363  12.9018  12.9018  12.9023
    14.0412  14.0412  14.4422  14.4422  14.4426  16.2782  16.2784  16.2785
    21.3254  21.3254  21.3255  24.9381  32.0683  32.0683  32.0687  34.7705
    34.7709  34.7709  36.7564  36.7565  36.7571  37.1617  39.4552  39.4552
    43.9399  43.9399  47.1889  47.4420  47.4420  47.4439  47.5729  47.5733
    47.5733  51.7699  51.7705  51.7705

          k = 0.0946-0.0946-0.1419 (   440 PWs)   bands (ev):

     9.5919   9.5997  10.3021  10.3025  12.0186  12.0190  12.3134  12.3309
    12.5518  12.5738  12.6669  12.6688  12.7057  12.7058  12.7726  12.7728
    14.3452  14.3480  14.3729  14.3740  14.5653  14.5692  16.4700  16.4701
    20.3994  20.3994  22.8266  22.8358  32.9701  32.9703  34.1686  34.1691
    35.7712  35.8059  36.7683  36.7851  38.4637  38.5183  38.8543  38.8545
    44.1542  44.1546  44.4184  44.4493  45.5097  45.5195  47.9761  47.9763
    49.0276  49.0378  52.5031  52.5051

     the Fermi energy is    14.1896 ev

!    total energy              =    -343.62417398 Ry
     Harris-Foulkes estimate   =    -343.62411860 Ry
     estimated scf accuracy    <          1.1E-10 Ry

     The total energy is the sum of the following terms:

     one-electron contribution =      -8.70318632 Ry
     hartree contribution      =      61.09896822 Ry
     xc contribution           =    -120.48650860 Ry
     ewald contribution        =    -275.48620515 Ry
     Dispersion Correction     =      -0.04675218 Ry
     smearing contrib. (-TS)   =      -0.00048995 Ry

     total magnetization       =     2.87 Bohr mag/cell
     absolute magnetization    =     3.30 Bohr mag/cell

     convergence has been achieved in  16 iterations

     Forces acting on atoms (Ry/au):

     atom    1 type  1   force =    -0.00236026   -0.00236026    0.00236055
     atom    2 type  1   force =     0.00235997    0.00235997    0.00235997
     atom    3 type  1   force =    -0.00236026    0.00236055   -0.00236026
     atom    4 type  1   force =     0.00236055   -0.00236026   -0.00236026

     Total force =     0.008176     Total SCF correction =     0.000009


     entering subroutine stress ...

          total   stress  (Ry/bohr**3)                   (kbar)     P=  -36.84
  -0.00025040   0.00000000   0.00000000        -36.84      0.00      0.00
   0.00000000  -0.00025040   0.00000000          0.00    -36.84      0.00
   0.00000000   0.00000000  -0.00025040          0.00      0.00    -36.84


     BFGS Geometry Optimization

     number of scf cycles    =   1
     number of bfgs steps    =   0

     enthalpy new            =    -343.6241739770 Ry

     new trust radius        =       0.0215038339 bohr
     new conv_thr            =       0.0000000100 Ry

     new unit-cell volume =    289.49545 a.u.^3 (    42.89880 Ang^3 )

CELL_PARAMETERS (alat=  1.88972590)
   3.500647905   0.000000032   0.000000032
   0.000000032   3.500647905   0.000000032
   0.000000032   0.000000032   3.500647905

ATOMIC_POSITIONS (alat)
Ni1      1.756853786   1.756853786   0.001241363
Ni1      0.001241023   0.001241023   0.001241023
Ni1      1.756853786   0.001241363   1.756853786
Ni1      0.001241363   1.756853786   1.756853786



     Writing output data file Ni-ferromag.save
     NEW-OLD atomic charge density approx. for the potential

     Check: negative/imaginary core charge=   -0.000005    0.000000
     extrapolated charge   39.23933, renormalised to   40.00000

     total cpu time spent up to now is      202.3 secs

     Self-consistent Calculation

     iteration #  1     ecut=    20.00 Ry     beta=0.20
     Davidson diagonalization with overlap
     ethr =  1.00E-06,  avg # of iterations =  4.8

     total cpu time spent up to now is      227.9 secs

     total energy              =    -343.51169043 Ry
     Harris-Foulkes estimate   =    -344.46498348 Ry
     estimated scf accuracy    <       0.18530216 Ry

     total magnetization       =     2.50 Bohr mag/cell
     absolute magnetization    =     2.93 Bohr mag/cell

     iteration #  2     ecut=    20.00 Ry     beta=0.20
     Davidson diagonalization with overlap
     ethr =  4.63E-04,  avg # of iterations =  2.9

     total cpu time spent up to now is      238.9 secs

     total energy              =    -343.62875548 Ry
     Harris-Foulkes estimate   =    -343.64216719 Ry
     estimated scf accuracy    <       0.06857776 Ry

     total magnetization       =     2.95 Bohr mag/cell
     absolute magnetization    =     3.36 Bohr mag/cell

     iteration #  3     ecut=    20.00 Ry     beta=0.20
     Davidson diagonalization with overlap
     ethr =  1.71E-04,  avg # of iterations =  1.0

     total cpu time spent up to now is      248.1 secs

     total energy              =    -343.62015144 Ry
     Harris-Foulkes estimate   =    -343.63090926 Ry
     estimated scf accuracy    <       0.02379330 Ry

     total magnetization       =     2.91 Bohr mag/cell
     absolute magnetization    =     3.32 Bohr mag/cell

     iteration #  4     ecut=    20.00 Ry     beta=0.20
     Davidson diagonalization with overlap
     ethr =  5.95E-05,  avg # of iterations =  2.3

     total cpu time spent up to now is      258.3 secs

     total energy              =    -343.62522654 Ry
     Harris-Foulkes estimate   =    -343.62497429 Ry
     estimated scf accuracy    <       0.00013987 Ry

     total magnetization       =     2.84 Bohr mag/cell
     absolute magnetization    =     3.26 Bohr mag/cell

     iteration #  5     ecut=    20.00 Ry     beta=0.20
     Davidson diagonalization with overlap
     ethr =  3.50E-07,  avg # of iterations =  3.4

     total cpu time spent up to now is      271.5 secs

     total energy              =    -343.62541388 Ry
     Harris-Foulkes estimate   =    -343.62540758 Ry
     estimated scf accuracy    <       0.00186362 Ry

     total magnetization       =     2.82 Bohr mag/cell
     absolute magnetization    =     3.24 Bohr mag/cell

     iteration #  6     ecut=    20.00 Ry     beta=0.20
     Davidson diagonalization with overlap
     ethr =  3.50E-07,  avg # of iterations =  1.0

     total cpu time spent up to now is      280.7 secs

     total energy              =    -343.62490717 Ry
     Harris-Foulkes estimate   =    -343.62541404 Ry
     estimated scf accuracy    <       0.00188797 Ry

     total magnetization       =     2.82 Bohr mag/cell
     absolute magnetization    =     3.24 Bohr mag/cell

     iteration #  7     ecut=    20.00 Ry     beta=0.20
     Davidson diagonalization with overlap
     ethr =  3.50E-07,  avg # of iterations =  2.2

     total cpu time spent up to now is      291.2 secs

     total energy              =    -343.62499040 Ry
     Harris-Foulkes estimate   =    -343.62502406 Ry
     estimated scf accuracy    <       0.00030979 Ry

     total magnetization       =     2.83 Bohr mag/cell
     absolute magnetization    =     3.25 Bohr mag/cell

     iteration #  8     ecut=    20.00 Ry     beta=0.20
     Davidson diagonalization with overlap
     ethr =  3.50E-07,  avg # of iterations =  1.0

     total cpu time spent up to now is      300.3 secs

     total energy              =    -343.62496249 Ry
     Harris-Foulkes estimate   =    -343.62499338 Ry
     estimated scf accuracy    <       0.00018417 Ry

     total magnetization       =     2.83 Bohr mag/cell
     absolute magnetization    =     3.25 Bohr mag/cell

     iteration #  9     ecut=    20.00 Ry     beta=0.20
     Davidson diagonalization with overlap
     ethr =  3.50E-07,  avg # of iterations =  1.0

     total cpu time spent up to now is      309.4 secs

     total energy              =    -343.62495458 Ry
     Harris-Foulkes estimate   =    -343.62496679 Ry
     estimated scf accuracy    <       0.00007454 Ry

     total magnetization       =     2.83 Bohr mag/cell
     absolute magnetization    =     3.25 Bohr mag/cell

     iteration # 10     ecut=    20.00 Ry     beta=0.20
     Davidson diagonalization with overlap
     ethr =  1.86E-07,  avg # of iterations =  1.0

     total cpu time spent up to now is      318.6 secs

     total energy              =    -343.62494334 Ry
     Harris-Foulkes estimate   =    -343.62495625 Ry
     estimated scf accuracy    <       0.00003096 Ry

     total magnetization       =     2.83 Bohr mag/cell
     absolute magnetization    =     3.25 Bohr mag/cell

     iteration # 11     ecut=    20.00 Ry     beta=0.20
     Davidson diagonalization with overlap
     ethr =  7.74E-08,  avg # of iterations =  1.0

     Magnetic moment per site:
     atom:    1    charge:    3.0006    magn:    0.3340    constr:    0.0000
     atom:    2    charge:    2.9988    magn:    0.3338    constr:    0.0000
     atom:    3    charge:    3.0006    magn:    0.3340    constr:    0.0000
     atom:    4    charge:    3.0006    magn:    0.3340    constr:    0.0000

     total cpu time spent up to now is      327.7 secs

     End of self-consistent calculation

 ------ SPIN UP ------------


          k = 0.0000 0.0000 0.0000 (   461 PWs)   bands (ev):

     5.4533   9.7505   9.7505   9.7505  10.2038  10.2041  10.2041  11.9906
    11.9906  11.9906  13.1733  13.1733  13.8942  13.8942  13.8942  13.9847
    13.9847  13.9847  13.9849  13.9849  13.9849  17.1098  17.1099  17.1099
    23.8864  23.8864  23.8864  29.6263  29.6263  29.6263  29.6264  29.6264
    29.6264  34.7381  34.7381  34.7383  38.1014  38.1015  38.1015  38.5683
    42.5536  42.5536  42.5536  46.3899  46.3899  46.3899  48.2680  55.2873
    55.2873  55.2873  59.1291  59.8299

          k =-0.0000-0.0000 0.0476 (   449 PWs)   bands (ev):

     5.8200   9.7724   9.9353   9.9353  10.3159  10.3317  10.3319  11.8614
    12.0931  12.0931  13.0546  13.2199  13.3268  13.3268  13.7398  13.7398
    13.8088  13.8088  13.8445  13.9854  13.9854  15.5110  18.0752  18.0753
    23.9852  23.9852  26.1432  27.8892  27.8893  28.5063  28.5063  30.1895
    30.1895  34.9253  36.9619  36.9621  37.9588  38.2349  40.0612  40.0613
    40.3784  40.3784  41.0005  47.8038  48.3780  48.3780  49.2569  51.7375
    56.4381  56.4381  56.8168  56.8170

          k =-0.0000-0.0000 0.0952 (   446 PWs)   bands (ev):

     6.8712   9.5399  10.3735  10.3735  10.6244  10.7160  10.7163  11.5162
    12.2661  12.2664  12.3906  12.3906  12.7656  13.3485  13.3495  13.3546
    13.3546  13.3733  13.3733  13.7101  13.9857  13.9857  20.0462  20.0463
    24.3058  24.3058  25.1166  25.1166  26.7432  26.7432  30.4494  31.7830
    31.7830  35.2675  36.8711  37.1455  37.1455  38.4729  38.7744  41.0040
    41.0042  44.2432  44.2432  44.2836  51.1847  51.1847  51.1989  51.1989
    51.2143  55.2358  56.4290  56.4291

          k = 0.0000 0.0000-0.1428 (   466 PWs)   bands (ev):

     8.3657   8.3809  10.6504  10.6505  11.0493  11.0716  11.3536  11.3537
    11.3756  11.3757  12.5712  12.6024  12.8358  12.8358  12.8524  12.8524
    13.1110  13.1110  13.5220  13.5343  13.9861  13.9861  22.4255  22.4256
    22.4639  22.4640  24.6855  24.6856  25.8002  25.8002  34.1502  34.1502
    34.1771  34.1771  34.9829  35.0392  35.8776  35.8922  40.3164  40.4077
    45.7767  45.7768  45.8615  45.8616  47.7283  47.7283  52.6506  52.6506
    54.2394  54.2394  54.3126  54.3126

          k =-0.0000 0.0476 0.0476 (   451 PWs)   bands (ev):

     6.1782   9.9714   9.9714  10.0990  10.4332  10.4335  10.4478  11.8010
    12.1383  12.1552  12.9784  13.0215  13.0373  13.0459  13.2156  13.6110
    13.7357  13.7357  13.8071  13.8072  13.8690  16.4500  16.4500  18.8490
    23.9864  25.1671  26.3340  26.3341  28.3650  28.3650  29.0023  29.0026
    30.7232  36.1640  36.2316  37.1571  37.1573  37.4328  40.2317  40.2319
    41.3528  42.7393  43.6240  45.3552  46.6636  49.9329  50.6148  53.3598
    53.8774  55.5350  55.5356  56.4370

          k =-0.0000 0.0476 0.0952 (   440 PWs)   bands (ev):

     7.2016   9.7768  10.4548  10.5041  10.7165  10.7695  10.7891  11.5190
    12.0269  12.1667  12.2844  12.4023  12.4262  12.8625  13.2859  13.3596
    13.3762  13.3960  13.5477  13.8034  13.8106  14.4857  18.0715  20.6424
    22.1494  24.6940  25.5862  26.6279  27.4775  29.7032  29.9909  30.0412
    31.1000  33.8260  34.5575  37.8517  38.7734  40.5031  40.7044  40.8510
    41.2864  44.1609  45.1413  47.2178  47.9362  48.8057  50.0808  51.4957
    53.1185  53.3792  55.1773  56.8028

          k = 0.0000 0.0476-0.1428 (   448 PWs)   bands (ev):

     8.6488   8.6630  10.8024  10.8034  11.1014  11.1229  11.2230  11.2411
    11.3685  11.3899  12.2015  12.2245  12.8364  12.8535  13.0702  13.0778
    13.0957  13.0966  13.7124  13.7126  13.7997  13.8031  19.9349  19.9543
    22.9296  22.9640  25.4793  25.5059  28.3835  28.3928  31.6032  31.6138
    32.1125  32.1198  35.9164  35.9838  38.9614  38.9648  42.2885  42.3447
    43.2150  43.2372  46.0554  46.1357  50.2133  50.2824  50.5014  50.5326
    52.7726  52.8009  53.5420  53.5624

          k =-0.0000 0.0952 0.0952 (   439 PWs)   bands (ev):

     8.1301  10.3656  10.3657  10.7361  10.9848  10.9854  10.9975  11.4489
    11.6959  11.6960  11.8505  12.1714  12.5335  12.7759  13.0691  13.2235
    13.2237  13.3662  13.3664  13.5375  13.7523  15.7336  15.7336  19.3565
    22.1778  25.2493  26.8720  26.8720  27.9733  27.9736  31.0979  31.7382
    31.7417  31.8342  33.6977  36.9690  41.6154  42.0441  42.0443  43.3032
    43.4971  43.8634  43.8635  47.3117  47.6365  48.6864  48.6868  51.8657
    52.3085  52.3503  53.6083  55.5047

          k = 0.0000 0.0952-0.1428 (   448 PWs)   bands (ev):

     9.3942   9.4059  10.8319  10.8456  11.2270  11.2402  11.2511  11.2563
    11.3881  11.4081  11.8987  11.9138  12.8728  12.8808  12.8818  12.8898
    12.9492  12.9518  13.3962  13.4065  14.4133  14.4161  17.2606  17.2757
    24.3016  24.3276  26.2995  26.3212  28.7412  28.7532  29.6233  29.6265
    33.0426  33.0489  36.8848  36.9499  40.4658  40.4779  43.1759  43.1880
    43.3244  43.3298  46.8695  46.9352  48.0992  48.1347  50.5940  50.6309
    51.9733  52.0310  53.7005  53.7134

          k = 0.0000-0.1428-0.1428 (   428 PWs)   bands (ev):

    10.2467  10.2568  10.2568  10.2666  11.3406  11.3597  11.3597  11.3786
    11.6645  11.6700  11.6700  11.6754  12.7329  12.7347  12.7347  12.7368
    13.0358  13.0516  13.0516  13.0673  15.4797  15.4868  15.4868  15.4940
    26.2915  26.3095  26.3095  26.3273  27.6729  27.6861  27.6862  27.6998
    38.0121  38.0290  38.0290  38.0467  38.6006  38.6220  38.6221  38.6410
    47.2917  47.2923  47.2924  47.2946  49.4255  49.4640  49.4640  49.5024
    52.0172  52.0182  52.0182  52.0187

          k = 0.0476 0.0476 0.0476 (   440 PWs)   bands (ev):

     6.5245  10.1327  10.1328  10.1328  10.5488  10.5492  10.5492  11.7658
    12.1749  12.1749  12.7317  12.7317  12.7318  13.1283  13.1283  13.3769
    13.3771  13.3771  13.9232  13.9232  13.9233  17.0799  17.0800  17.0800
    25.4119  25.4120  25.4120  26.6783  26.6783  26.6784  31.2433  31.2435
    31.2435  33.5802  36.3177  36.3177  36.3179  39.3287  41.2796  41.2796
    42.9553  42.9553  42.9553  46.6876  47.8291  47.8291  51.9087  51.9087
    55.3990  55.3996  55.3996  55.6444

          k = 0.0476 0.0476 0.0952 (   439 PWs)   bands (ev):

     7.5081   9.9361  10.5172  10.5173  10.8351  10.8629  10.8630  11.5555
    12.0172  12.0172  12.2111  12.2566  12.3151  12.9727  13.0426  13.1295
    13.1305  13.3694  13.8256  13.8256  13.8580  14.8469  18.4270  18.4271
    22.7794  22.7794  26.7153  27.3438  27.3439  30.4428  30.4429  30.8592
    31.0470  32.7335  36.7932  37.8816  37.9620  38.9292  38.9292  42.4917
    43.6369  44.5877  47.1736  47.1736  48.0694  49.2350  50.4019  50.4020
    50.9090  53.1802  53.2797  55.9167

          k = 0.0476 0.0476-0.1428 (   454 PWs)   bands (ev):

     8.8772   8.8899  10.9046  10.9052  10.9629  10.9631  11.1977  11.2178
    11.6225  11.6225  12.1058  12.1283  12.5851  12.5928  12.9609  12.9611
    13.5297  13.5456  13.6449  13.6483  13.7692  13.7692  19.5775  19.5776
    21.2097  21.2098  28.2941  28.2961  28.5289  28.5376  29.0022  29.0054
    35.0211  35.0432  35.5129  35.5588  38.1808  38.2283  42.3008  42.3008
    44.8598  44.8852  45.5315  45.5317  49.6291  49.6650  51.0498  51.0612
    52.3475  52.3476  54.0346  54.0421

          k = 0.0476 0.0952 0.0952 (   447 PWs)   bands (ev):

     8.3492  10.2557  10.2558  10.5445  11.1500  11.1963  11.1965  11.5997
    11.8131  11.8133  11.9461  12.1735  12.2998  12.7793  12.7795  12.7962
    13.1007  13.6577  13.7268  13.7428  13.7439  15.8633  15.8633  18.6769
    20.8706  23.9817  23.9817  28.0445  28.1440  31.2272  31.2272  32.2150
    32.2152  34.1056  35.3460  37.0268  39.4399  39.4401  40.2384  43.1713
    43.9606  44.9252  46.6154  46.6154  49.3864  49.3866  50.5729  50.8018
    51.0940  51.8456  52.5252  53.0732

          k = 0.0476 0.0952-0.1428 (   450 PWs)   bands (ev):

     9.4318   9.4396  10.4773  10.4797  11.3641  11.3649  11.5046  11.5209
    11.8156  11.8225  11.9349  11.9498  12.4465  12.4521  12.6591  12.6626
    13.3956  13.4020  13.6246  13.6311  14.3190  14.3215  17.2374  17.2498
    21.8828  21.8924  25.7501  25.7565  29.5215  29.5279  33.1396  33.1418
    33.3425  33.3484  36.9974  37.0505  40.2253  40.2364  40.5524  40.5621
    45.3679  45.3711  45.8471  45.8746  47.8329  47.8475  50.7655  50.7869
    51.9267  51.9398  54.1479  54.1673

          k = 0.0476-0.1428-0.1428 (   432 PWs)   bands (ev):

    10.0051  10.0086  10.0086  10.0117  11.7523  11.7576  11.7576  11.7625
    11.8320  11.8431  11.8431  11.8544  12.4152  12.4207  12.4207  12.4262
    13.3720  13.3820  13.3820  13.3920  15.3882  15.3960  15.3961  15.4040
    23.5307  23.5380  23.5380  23.5452  31.0813  31.0844  31.0844  31.0877
    38.2937  38.3061  38.3061  38.3239  38.4217  38.4432  38.4432  38.4579
    46.8199  46.8200  46.8200  46.8229  46.9746  46.9956  46.9956  47.0142
    55.0020  55.0161  55.0161  55.0337

          k = 0.0952 0.0952 0.0952 (   456 PWs)   bands (ev):

     8.8958  10.0914  10.0917  10.0917  11.5558  11.5561  11.5561  12.0679
    12.1284  12.1284  12.1331  12.1438  12.1438  12.4241  12.4241  12.4243
    13.5054  13.5054  13.8715  13.8715  13.8716  16.2396  16.2397  16.2397
    21.4780  21.4780  21.4780  25.2373  32.5939  32.5939  32.5941  35.3387
    35.3389  35.3389  37.3716  37.3716  37.3719  37.8666  40.0696  40.0696
    44.6454  44.6454  47.9438  48.2234  48.2234  48.2242  48.3280  48.3282
    48.3282  52.5847  52.5851  52.5851

          k = 0.0952 0.0952-0.1428 (   440 PWs)   bands (ev):

     9.5240   9.5261  10.0233  10.0235  11.6770  11.6771  11.9589  11.9712
    12.1820  12.1838  12.2995  12.3036  12.3094  12.3212  12.4152  12.4155
    13.7911  13.7924  13.7995  13.8003  14.2082  14.2088  16.5226  16.5226
    20.4523  20.4523  23.0441  23.0510  33.5219  33.5219  34.7223  34.7226
    36.4289  36.4518  37.3577  37.3693  39.0833  39.1211  39.5181  39.5181
    44.8567  44.8569  45.1493  45.1708  46.2376  46.2443  48.7580  48.7580
    49.7885  49.7956  53.2486  53.2495

          k = 0.0952-0.1428-0.1428 (   448 PWs)   bands (ev):

     9.7018   9.7022   9.7022   9.7022  11.9213  11.9246  11.9246  11.9277
    12.1117  12.1151  12.1151  12.1186  12.8547  12.8618  12.8618  12.8689
    13.7142  13.7196  13.7196  13.7251  15.0047  15.0137  15.0137  15.0227
    21.1601  21.1661  21.1661  21.1721  35.2583  35.2617  35.2618  35.2654
    38.2875  38.2969  38.2969  38.3068  39.0430  39.0531  39.0531  39.0620
    44.3022  44.3101  44.3102  44.3177  45.3832  45.3863  45.3863  45.3891
    50.6404  50.6446  50.6446  50.6495

          k =-0.1428-0.1428-0.1428 (   432 PWs)   bands (ev):

     9.5861   9.5864   9.5864   9.5864  12.0031  12.0031  12.0031  12.0032
    12.0032  12.0035  12.0035  12.0035  13.8472  13.8472  13.8472  13.8477
    13.8477  13.8478  13.8478  13.8478  14.3259  14.3263  14.3264  14.3264
    20.2844  20.2844  20.2844  20.2845  37.0196  37.0198  37.0198  37.0198
    39.6588  39.6588  39.6589  39.6589  39.6589  39.6593  39.6593  39.6593
    43.1415  43.1415  43.1417  43.1417  43.1417  43.1420  43.1420  43.1420
    48.9814  48.9814  48.9814  48.9816

          k =-0.0476 0.0000 0.0476 (   451 PWs)   bands (ev):

     6.1782   9.9714   9.9714  10.0990  10.4332  10.4335  10.4478  11.8010
    12.1383  12.1552  12.9784  13.0215  13.0373  13.0459  13.2156  13.6110
    13.7357  13.7357  13.8071  13.8072  13.8690  16.4500  16.4500  18.8490
    23.9864  25.1671  26.3339  26.3341  28.3650  28.3651  29.0023  29.0026
    30.7232  36.1640  36.2316  37.1571  37.1573  37.4328  40.2316  40.2320
    41.3528  42.7393  43.6240  45.3552  46.6636  49.9329  50.6148  53.3598
    53.8774  55.5350  55.5356  56.4370

          k =-0.0476-0.0000 0.0952 (   440 PWs)   bands (ev):

     7.2016   9.7768  10.4548  10.5041  10.7165  10.7695  10.7891  11.5190
    12.0269  12.1667  12.2844  12.4023  12.4262  12.8625  13.2859  13.3596
    13.3762  13.3960  13.5477  13.8034  13.8106  14.4857  18.0715  20.6424
    22.1494  24.6940  25.5862  26.6279  27.4775  29.7032  29.9909  30.0412
    31.1000  33.8260  34.5575  37.8517  38.7734  40.5031  40.7044  40.8510
    41.2864  44.1609  45.1413  47.2178  47.9362  48.8057  50.0808  51.4957
    53.1185  53.3792  55.1773  56.8028

          k =-0.0952 0.0000 0.0952 (   439 PWs)   bands (ev):

     8.1301  10.3656  10.3657  10.7361  10.9848  10.9854  10.9975  11.4489
    11.6959  11.6960  11.8505  12.1714  12.5335  12.7759  13.0691  13.2235
    13.2237  13.3662  13.3664  13.5375  13.7523  15.7336  15.7336  19.3565
    22.1778  25.2493  26.8720  26.8720  27.9733  27.9736  31.0979  31.7382
    31.7417  31.8342  33.6977  36.9690  41.6154  42.0441  42.0443  43.3032
    43.4971  43.8634  43.8635  47.3117  47.6365  48.6864  48.6868  51.8657
    52.3085  52.3503  53.6083  55.5005

          k = 0.0476-0.0476 0.0476 (   440 PWs)   bands (ev):

     6.5245  10.1327  10.1328  10.1328  10.5488  10.5492  10.5492  11.7658
    12.1749  12.1749  12.7317  12.7317  12.7318  13.1283  13.1283  13.3769
    13.3771  13.3771  13.9232  13.9232  13.9233  17.0799  17.0800  17.0800
    25.4119  25.4120  25.4120  26.6783  26.6783  26.6785  31.2433  31.2435
    31.2435  33.5802  36.3176  36.3177  36.3179  39.3287  41.2796  41.2796
    42.9552  42.9553  42.9553  46.6876  47.8291  47.8291  51.9087  51.9087
    55.3990  55.3996  55.3996  55.6444

          k = 0.0476-0.0476 0.0952 (   439 PWs)   bands (ev):

     7.5081   9.9361  10.5172  10.5173  10.8351  10.8629  10.8630  11.5555
    12.0172  12.0172  12.2111  12.2566  12.3151  12.9727  13.0426  13.1295
    13.1305  13.3694  13.8256  13.8256  13.8580  14.8469  18.4270  18.4271
    22.7794  22.7794  26.7153  27.3438  27.3439  30.4428  30.4429  30.8592
    31.0470  32.7335  36.7932  37.8816  37.9620  38.9292  38.9293  42.4917
    43.6369  44.5877  47.1736  47.1737  48.0694  49.2350  50.4018  50.4020
    50.9090  53.1802  53.2797  55.9167

          k =-0.0952 0.0476 0.0476 (   439 PWs)   bands (ev):

     7.5081   9.9361  10.5172  10.5173  10.8351  10.8629  10.8630  11.5555
    12.0172  12.0172  12.2111  12.2566  12.3151  12.9727  13.0426  13.1295
    13.1305  13.3694  13.8256  13.8256  13.8580  14.8469  18.4270  18.4271
    22.7794  22.7794  26.7152  27.3438  27.3439  30.4428  30.4429  30.8592
    31.0470  32.7335  36.7932  37.8816  37.9620  38.9292  38.9292  42.4917
    43.6369  44.5877  47.1736  47.1736  48.0694  49.2350  50.4019  50.4020
    50.9090  53.1802  53.2797  55.9167

          k = 0.0476-0.0476-0.1428 (   454 PWs)   bands (ev):

     8.8772   8.8899  10.9045  10.9052  10.9629  10.9631  11.1977  11.2178
    11.6225  11.6225  12.1058  12.1283  12.5851  12.5928  12.9609  12.9611
    13.5297  13.5456  13.6449  13.6483  13.7692  13.7693  19.5775  19.5775
    21.2097  21.2098  28.2941  28.2960  28.5289  28.5376  29.0022  29.0053
    35.0211  35.0432  35.5129  35.5588  38.1808  38.2283  42.3008  42.3008
    44.8598  44.8852  45.5315  45.5317  49.6291  49.6650  51.0498  51.0612
    52.3475  52.3477  54.0347  54.0421

          k = 0.0952-0.0476 0.0952 (   447 PWs)   bands (ev):

     8.3492  10.2557  10.2558  10.5445  11.1500  11.1963  11.1965  11.5997
    11.8131  11.8133  11.9461  12.1735  12.2998  12.7793  12.7795  12.7962
    13.1007  13.6577  13.7268  13.7428  13.7439  15.8633  15.8633  18.6769
    20.8706  23.9817  23.9817  28.0445  28.1440  31.2272  31.2272  32.2150
    32.2152  34.1056  35.3460  37.0268  39.4399  39.4400  40.2384  43.1713
    43.9606  44.9252  46.6154  46.6154  49.3864  49.3866  50.5729  50.8018
    51.0940  51.8456  52.5252  53.0729

          k =-0.0952 0.0476 0.0952 (   447 PWs)   bands (ev):

     8.3492  10.2557  10.2558  10.5445  11.1500  11.1963  11.1965  11.5997
    11.8131  11.8133  11.9461  12.1735  12.2998  12.7793  12.7795  12.7962
    13.1007  13.6577  13.7268  13.7428  13.7439  15.8633  15.8633  18.6769
    20.8706  23.9816  23.9817  28.0445  28.1440  31.2271  31.2273  32.2150
    32.2152  34.1056  35.3460  37.0268  39.4399  39.4401  40.2384  43.1713
    43.9606  44.9252  46.6154  46.6154  49.3864  49.3866  50.5729  50.8018
    51.0940  51.8456  52.5252  53.0731

          k = 0.0952-0.0476-0.1428 (   450 PWs)   bands (ev):

     9.4318   9.4396  10.4773  10.4797  11.3641  11.3648  11.5046  11.5209
    11.8156  11.8225  11.9349  11.9498  12.4465  12.4521  12.6591  12.6626
    13.3956  13.4020  13.6246  13.6311  14.3190  14.3215  17.2374  17.2498
    21.8828  21.8924  25.7501  25.7565  29.5215  29.5279  33.1396  33.1418
    33.3425  33.3484  36.9974  37.0505  40.2253  40.2364  40.5524  40.5621
    45.3679  45.3711  45.8471  45.8746  47.8329  47.8475  50.7655  50.7869
    51.9267  51.9398  54.1478  54.1673

          k = 0.0952-0.0952 0.0952 (   456 PWs)   bands (ev):

     8.8958  10.0914  10.0917  10.0917  11.5558  11.5561  11.5561  12.0679
    12.1284  12.1284  12.1331  12.1438  12.1438  12.4241  12.4241  12.4243
    13.5054  13.5054  13.8715  13.8715  13.8715  16.2396  16.2396  16.2397
    21.4780  21.4780  21.4780  25.2373  32.5939  32.5939  32.5941  35.3387
    35.3389  35.3389  37.3716  37.3716  37.3719  37.8666  40.0696  40.0696
    44.6454  44.6454  47.9438  48.2233  48.2234  48.2243  48.3281  48.3282
    48.3282  52.5847  52.5851  52.5851

          k = 0.0952-0.0952-0.1428 (   440 PWs)   bands (ev):

     9.5240   9.5261  10.0233  10.0235  11.6770  11.6771  11.9589  11.9712
    12.1820  12.1838  12.2995  12.3037  12.3094  12.3212  12.4152  12.4155
    13.7911  13.7924  13.7995  13.8003  14.2082  14.2088  16.5226  16.5226
    20.4523  20.4523  23.0441  23.0510  33.5219  33.5220  34.7223  34.7226
    36.4289  36.4518  37.3577  37.3693  39.0833  39.1211  39.5181  39.5182
    44.8567  44.8569  45.1493  45.1708  46.2376  46.2443  48.7579  48.7580
    49.7885  49.7956  53.2486  53.2495

 ------ SPIN DOWN ----------


          k = 0.0000 0.0000 0.0000 (   461 PWs)   bands (ev):

     5.3988  10.2123  10.2123  10.2123  10.9215  10.9219  10.9219  12.8712
    12.8712  12.8712  13.9533  13.9533  14.7082  14.7082  14.7082  14.9941
    14.9941  14.9941  14.9943  14.9943  14.9943  17.0310  17.0312  17.0312
    24.1912  24.1912  24.1912  29.6130  29.6130  29.6130  29.6132  29.6132
    29.6132  34.8999  34.8999  34.9001  38.2449  38.2451  38.2451  38.3617
    42.5242  42.5242  42.5242  46.4484  46.4484  46.4484  48.1062  55.4774
    55.4774  55.4774  59.7260  59.8433

          k =-0.0000-0.0000 0.0476 (   449 PWs)   bands (ev):

     5.7655  10.1877  10.4072  10.4072  11.0430  11.0473  11.0476  12.7288
    12.9778  12.9778  13.8249  14.0019  14.1455  14.1457  14.5404  14.5404
    14.6561  14.8011  14.8011  14.9947  14.9947  15.5811  18.1830  18.1831
    24.2747  24.2747  26.3438  27.9562  27.9564  28.5339  28.5339  30.1924
    30.1924  35.0699  37.0381  37.0382  37.8154  38.3760  40.1811  40.1812
    40.4168  40.4168  40.9296  47.8133  48.3429  48.3429  49.3253  51.7236
    56.6483  56.6483  56.7414  56.7417

          k =-0.0000-0.0000 0.0952 (   446 PWs)   bands (ev):

     6.8210   9.7475  10.8698  10.8699  11.3769  11.4262  11.4266  12.3494
    12.9947  12.9951  13.2882  13.2882  13.5023  13.7202  14.1264  14.1265
    14.1375  14.3245  14.3245  14.5151  14.9952  14.9952  20.2313  20.2314
    24.5506  24.5506  25.2557  25.2557  26.8418  26.8418  30.5433  31.8192
    31.8192  35.3754  36.8282  37.2146  37.2146  38.3793  38.9211  41.0044
    41.0046  44.3414  44.3415  44.5015  51.0866  51.0866  51.1214  51.1215
    51.1618  55.1194  56.6409  56.6410

          k = 0.0000 0.0000-0.1428 (   466 PWs)   bands (ev):

     8.3589   8.3745  11.1625  11.1626  11.8387  11.8625  12.0624  12.0627
    12.0849  12.0852  13.2177  13.2518  13.7562  13.7562  13.7736  13.7736
    13.8586  13.8586  14.3182  14.3310  14.9956  14.9956  22.6054  22.6055
    22.6446  22.6447  24.8799  24.8799  25.9583  25.9583  34.2147  34.2147
    34.2415  34.2415  34.9594  35.0174  35.9232  35.9404  40.5097  40.6025
    45.7263  45.7264  45.8126  45.8127  47.8018  47.8019  52.8281  52.8281
    54.1284  54.1284  54.2016  54.2016

          k =-0.0000 0.0476 0.0476 (   451 PWs)   bands (ev):

     6.1246  10.3993  10.3993  10.5899  11.1474  11.1571  11.1574  12.6546
    13.0283  13.0326  13.7423  13.7751  13.7839  13.8074  14.0027  14.4015
    14.5278  14.5278  14.7997  14.7998  14.8710  16.7657  16.7657  19.0152
    24.2433  25.2960  26.5212  26.5213  28.4467  28.4468  29.0436  29.0440
    30.7345  36.2183  36.2648  37.2234  37.2237  37.4475  40.3493  40.3495
    41.2722  42.8249  43.5923  45.2972  46.7113  50.0900  50.5364  53.4843
    53.8686  55.4876  55.4882  56.3758

          k =-0.0000 0.0476 0.0952 (   440 PWs)   bands (ev):

     7.1561   9.9988  10.9169  11.0360  11.4316  11.4645  11.5061  12.3410
    12.7177  12.8871  13.0793  13.1261  13.3045  13.6269  14.0506  14.1353
    14.2065  14.2931  14.3230  14.7966  14.8068  15.1958  18.4102  20.8459
    22.3464  24.9211  25.7354  26.7594  27.6040  29.8086  30.0513  30.1100
    31.1972  33.9010  34.5983  37.8867  38.8071  40.4506  40.6480  40.9710
    41.2796  44.2420  45.3464  47.2808  47.8555  48.7807  50.0589  51.4164
    53.0665  53.2877  55.3674  57.0148

          k = 0.0000 0.0476-0.1428 (   448 PWs)   bands (ev):

     8.6540   8.6689  11.3049  11.3068  11.8797  11.9014  11.9041  11.9226
    12.0801  12.1021  12.9406  12.9671  13.7594  13.7769  13.8390  13.8431
    13.8485  13.8510  14.5505  14.5513  14.7935  14.7973  20.2158  20.2356
    23.1211  23.1558  25.6489  25.6775  28.4990  28.5099  31.7144  31.7238
    32.1694  32.1756  35.9384  36.0055  38.9578  38.9600  42.4410  42.4991
    43.2049  43.2292  46.0014  46.0831  50.2739  50.3416  50.4292  50.4607
    52.6838  52.7128  53.6989  53.7190

          k =-0.0000 0.0952 0.0952 (   439 PWs)   bands (ev):

     8.1080  10.6381  10.6382  11.4005  11.4813  11.7206  11.7213  12.2428
    12.3890  12.3890  12.5624  12.9627  13.4488  13.5227  13.8225  13.9608
    13.9610  14.3267  14.3269  14.5181  14.5945  16.3395  16.3395  19.6642
    22.3957  25.4465  27.0357  27.0357  28.0740  28.0743  31.2255  31.8249
    31.8291  31.9003  33.7493  37.0002  41.5514  42.0194  42.0196  43.3335
    43.3786  43.9060  43.9061  47.4287  47.6525  48.7246  48.7250  51.9183
    52.1828  52.2996  53.7906  55.4009

          k = 0.0000 0.0952-0.1428 (   448 PWs)   bands (ev):

     9.4548   9.4676  11.2508  11.2643  11.8863  11.8875  11.9925  12.0137
    12.1085  12.1293  12.6348  12.6515  13.6154  13.6158  13.6877  13.6903
    13.8085  13.8267  14.3642  14.3753  15.2191  15.2225  17.7250  17.7400
    24.5047  24.5301  26.4494  26.4730  28.9018  28.9124  29.7118  29.7160
    33.1122  33.1200  36.9092  36.9744  40.4632  40.4739  43.1170  43.1282
    43.3439  43.3487  46.8014  46.8679  48.1742  48.2115  50.5354  50.5729
    52.0852  52.1425  53.6120  53.6241

          k = 0.0000-0.1428-0.1428 (   428 PWs)   bands (ev):

    10.4642  10.4755  10.4755  10.4866  12.0772  12.0975  12.0975  12.1177
    12.3335  12.3398  12.3398  12.3461  13.4703  13.4724  13.4724  13.4747
    13.9839  14.0005  14.0005  14.0170  16.1628  16.1689  16.1689  16.1749
    26.4841  26.5009  26.5010  26.5176  27.7932  27.8079  27.8079  27.8231
    38.0846  38.1008  38.1008  38.1183  38.5639  38.5843  38.5843  38.6017
    47.1684  47.1699  47.1699  47.1730  49.4025  49.4415  49.4416  49.4806
    52.1115  52.1144  52.1144  52.1167

          k = 0.0476 0.0476 0.0476 (   440 PWs)   bands (ev):

     6.4738  10.5877  10.5877  10.5877  11.2497  11.2501  11.2501  12.5992
    13.0532  13.0532  13.4413  13.4413  13.4414  13.9145  13.9145  14.2077
    14.2080  14.2080  14.8714  14.8714  14.8716  17.4216  17.4217  17.4217
    25.5404  25.5405  25.5405  26.8509  26.8509  26.8510  31.2651  31.2653
    31.2653  33.6439  36.4078  36.4078  36.4079  39.1723  41.3276  41.3276
    43.0367  43.0368  43.0368  46.6002  47.7825  47.7825  52.0669  52.0669
    55.3481  55.3488  55.3488  55.9550

          k = 0.0476 0.0476 0.0952 (   439 PWs)   bands (ev):

     7.4731  10.1981  11.0485  11.0486  11.4912  11.4916  11.5481  12.3512
    12.7191  12.7192  12.8846  13.0856  13.1755  13.8187  13.8519  13.9161
    13.9176  14.1916  14.7589  14.7887  14.7890  15.4780  18.7539  18.7540
    22.9881  22.9882  26.8566  27.4909  27.4910  30.5167  30.5169  30.9698
    31.1325  32.7795  36.8630  37.7837  38.0366  38.9554  38.9554  42.4963
    43.7144  44.6059  47.2139  47.2139  48.1024  49.1761  50.3840  50.3841
    50.9095  53.1033  53.2330  56.0247

          k = 0.0476 0.0476-0.1428 (   454 PWs)   bands (ev):

     8.9111   8.9248  11.4764  11.4765  11.5439  11.5445  11.9476  11.9695
    12.3362  12.3364  12.8541  12.8792  13.4364  13.4427  13.7244  13.7246
    14.3340  14.3510  14.5067  14.5085  14.7408  14.7409  19.8346  19.8347
    21.5131  21.5132  28.4071  28.4090  28.6693  28.6773  29.1169  29.1204
    35.0893  35.1111  35.4810  35.5283  38.2562  38.3041  42.2811  42.2811
    44.9440  44.9716  45.5141  45.5144  49.5457  49.5817  50.9988  51.0103
    52.3769  52.3770  54.1909  54.2075

          k = 0.0476 0.0952 0.0952 (   447 PWs)   bands (ev):

     8.3611  10.6476  10.6477  11.1629  11.6566  11.7981  11.7985  12.3266
    12.5330  12.5332  12.6576  12.9743  13.1241  13.5778  13.5787  13.5820
    13.9440  14.5065  14.6548  14.6558  14.6740  16.4173  16.4174  18.9518
    21.2137  24.1970  24.1970  28.1999  28.2737  31.2889  31.2890  32.3069
    32.3071  34.1597  35.3685  37.0484  39.4518  39.4519  40.1620  43.2849
    43.9420  44.8661  46.6056  46.6056  49.4349  49.4351  50.5005  50.7783
    51.0649  51.9105  52.5800  52.9969

          k = 0.0476 0.0952-0.1428 (   450 PWs)   bands (ev):

     9.5794   9.5897  11.0107  11.0153  11.9170  11.9193  12.1496  12.1681
    12.5087  12.5173  12.6943  12.7109  13.2513  13.2556  13.4337  13.4367
    14.2593  14.2685  14.5599  14.5673  15.1118  15.1152  17.6490  17.6609
    22.1827  22.1913  25.9484  25.9538  29.6198  29.6277  33.1949  33.1955
    33.4095  33.4169  37.0074  37.0599  40.2086  40.2190  40.5737  40.5841
    45.3498  45.3524  45.8318  45.8605  47.8098  47.8262  50.7958  50.8170
    51.8632  51.8756  54.2185  54.2433

          k = 0.0476-0.1428-0.1428 (   432 PWs)   bands (ev):

    10.3584  10.3647  10.3647  10.3708  12.3165  12.3256  12.3256  12.3346
    12.5376  12.5486  12.5486  12.5595  13.1930  13.1977  13.1977  13.2027
    14.2823  14.2938  14.2938  14.3053  16.0356  16.0423  16.0423  16.0489
    23.7876  23.7937  23.7937  23.7997  31.1600  31.1645  31.1646  31.1693
    38.3624  38.3624  38.3644  38.3712  38.3937  38.4050  38.4055  38.4055
    46.7466  46.7467  46.7467  46.7487  46.9899  47.0118  47.0118  47.0320
    55.0601  55.0748  55.0748  55.0939

          k = 0.0952 0.0952 0.0952 (   456 PWs)   bands (ev):

     9.0285  10.6009  10.6012  10.6012  12.1135  12.1138  12.1138  12.5915
    12.8111  12.8111  12.8120  12.9416  12.9416  13.2151  13.2151  13.2153
    14.3862  14.3862  14.7990  14.7990  14.7992  16.6670  16.6672  16.6672
    21.8161  21.8161  21.8161  25.4605  32.6387  32.6387  32.6388  35.3994
    35.3997  35.3997  37.3819  37.3819  37.3821  37.6945  40.1541  40.1541
    44.6472  44.6472  47.9518  48.1680  48.1680  48.1690  48.3230  48.3233
    48.3233  52.6131  52.6134  52.6134

          k = 0.0952 0.0952-0.1428 (   440 PWs)   bands (ev):

     9.8544   9.8593  10.5614  10.5616  12.3074  12.3077  12.6150  12.6272
    12.8616  12.8770  12.9742  12.9755  13.0145  13.0145  13.0822  13.0823
    14.6996  14.7016  14.7278  14.7283  14.9239  14.9266  16.8556  16.8557
    20.8884  20.8884  23.3324  23.3383  33.5264  33.5264  34.8076  34.8080
    36.3148  36.3388  37.4287  37.4394  39.1637  39.2012  39.4928  39.4929
    44.8752  44.8754  45.1182  45.1398  46.2369  46.2445  48.7118  48.7118
    49.8338  49.8408  53.3425  53.3434

          k = 0.0952-0.1428-0.1428 (   448 PWs)   bands (ev):

    10.1712  10.1727  10.1727  10.1739  12.6539  12.6571  12.6571  12.6601
    12.8877  12.8909  12.8909  12.8943  13.2914  13.2997  13.2997  13.3080
    14.6315  14.6376  14.6376  14.6438  15.5406  15.5479  15.5480  15.5551
    21.5530  21.5581  21.5581  21.5631  35.2272  35.2322  35.2323  35.2375
    38.2581  38.2667  38.2667  38.2757  39.1121  39.1217  39.1217  39.1300
    44.3252  44.3342  44.3342  44.3428  45.3674  45.3710  45.3710  45.3743
    50.7216  50.7259  50.7259  50.7308

          k =-0.1428-0.1428-0.1428 (   432 PWs)   bands (ev):

    10.0875  10.0878  10.0878  10.0878  12.7762  12.7762  12.7762  12.7764
    12.7764  12.7765  12.7765  12.7765  14.2262  14.2262  14.2262  14.2267
    14.7709  14.7709  14.7710  14.7711  14.7711  14.7712  14.7712  14.7712
    20.7659  20.7659  20.7659  20.7660  36.8349  36.8352  36.8352  36.8352
    39.7298  39.7298  39.7299  39.7299  39.7299  39.7304  39.7304  39.7304
    43.1580  43.1580  43.1581  43.1581  43.1581  43.1584  43.1584  43.1584
    49.0886  49.0886  49.0886  49.0888

          k =-0.0476 0.0000 0.0476 (   451 PWs)   bands (ev):

     6.1246  10.3993  10.3993  10.5899  11.1474  11.1571  11.1574  12.6546
    13.0283  13.0326  13.7423  13.7751  13.7839  13.8074  14.0027  14.4015
    14.5278  14.5278  14.7997  14.7998  14.8710  16.7657  16.7657  19.0152
    24.2433  25.2960  26.5212  26.5214  28.4467  28.4468  29.0436  29.0440
    30.7345  36.2183  36.2648  37.2234  37.2237  37.4475  40.3492  40.3496
    41.2722  42.8249  43.5923  45.2972  46.7113  50.0900  50.5364  53.4843
    53.8686  55.4876  55.4882  56.3758

          k =-0.0476-0.0000 0.0952 (   440 PWs)   bands (ev):

     7.1561   9.9988  10.9169  11.0360  11.4316  11.4645  11.5061  12.3410
    12.7177  12.8871  13.0793  13.1261  13.3045  13.6269  14.0506  14.1353
    14.2065  14.2931  14.3230  14.7966  14.8068  15.1958  18.4102  20.8459
    22.3464  24.9211  25.7354  26.7594  27.6040  29.8086  30.0513  30.1100
    31.1972  33.9010  34.5983  37.8867  38.8071  40.4506  40.6480  40.9710
    41.2796  44.2420  45.3464  47.2808  47.8555  48.7807  50.0589  51.4164
    53.0665  53.2877  55.3674  57.0147

          k =-0.0952 0.0000 0.0952 (   439 PWs)   bands (ev):

     8.1080  10.6381  10.6382  11.4005  11.4813  11.7205  11.7213  12.2428
    12.3890  12.3890  12.5624  12.9627  13.4488  13.5227  13.8225  13.9608
    13.9611  14.3267  14.3269  14.5181  14.5945  16.3395  16.3395  19.6642
    22.3957  25.4465  27.0356  27.0357  28.0739  28.0743  31.2255  31.8249
    31.8291  31.9003  33.7493  37.0002  41.5514  42.0195  42.0196  43.3335
    43.3786  43.9060  43.9061  47.4287  47.6525  48.7246  48.7250  51.9183
    52.1828  52.2996  53.7906  55.4020

          k = 0.0476-0.0476 0.0476 (   440 PWs)   bands (ev):

     6.4738  10.5877  10.5877  10.5877  11.2497  11.2501  11.2501  12.5992
    13.0532  13.0532  13.4413  13.4413  13.4414  13.9145  13.9145  14.2077
    14.2079  14.2080  14.8714  14.8714  14.8716  17.4216  17.4217  17.4217
    25.5404  25.5405  25.5405  26.8508  26.8509  26.8510  31.2651  31.2653
    31.2653  33.6439  36.4077  36.4078  36.4080  39.1723  41.3276  41.3276
    43.0367  43.0368  43.0368  46.6002  47.7825  47.7825  52.0669  52.0669
    55.3482  55.3488  55.3488  55.9550

          k = 0.0476-0.0476 0.0952 (   439 PWs)   bands (ev):

     7.4731  10.1981  11.0485  11.0486  11.4912  11.4916  11.5481  12.3512
    12.7191  12.7192  12.8846  13.0856  13.1755  13.8187  13.8519  13.9161
    13.9176  14.1916  14.7589  14.7887  14.7890  15.4780  18.7539  18.7540
    22.9881  22.9882  26.8566  27.4909  27.4910  30.5167  30.5169  30.9698
    31.1325  32.7795  36.8630  37.7837  38.0366  38.9554  38.9554  42.4963
    43.7144  44.6059  47.2138  47.2140  48.1024  49.1761  50.3840  50.3841
    50.9095  53.1033  53.2330  56.0247

          k =-0.0952 0.0476 0.0476 (   439 PWs)   bands (ev):

     7.4731  10.1981  11.0485  11.0486  11.4912  11.4916  11.5481  12.3512
    12.7191  12.7192  12.8846  13.0856  13.1755  13.8187  13.8519  13.9161
    13.9176  14.1916  14.7589  14.7887  14.7890  15.4780  18.7539  18.7540
    22.9881  22.9882  26.8566  27.4909  27.4910  30.5167  30.5169  30.9698
    31.1325  32.7795  36.8630  37.7837  38.0366  38.9554  38.9554  42.4963
    43.7144  44.6059  47.2139  47.2139  48.1024  49.1761  50.3840  50.3841
    50.9095  53.1033  53.2330  56.0247

          k = 0.0476-0.0476-0.1428 (   454 PWs)   bands (ev):

     8.9111   8.9248  11.4764  11.4764  11.5439  11.5445  11.9476  11.9695
    12.3362  12.3364  12.8541  12.8792  13.4364  13.4427  13.7244  13.7246
    14.3340  14.3510  14.5067  14.5085  14.7408  14.7409  19.8346  19.8346
    21.5132  21.5132  28.4072  28.4089  28.6693  28.6773  29.1169  29.1203
    35.0893  35.1111  35.4810  35.5283  38.2562  38.3041  42.2810  42.2811
    44.9440  44.9716  45.5141  45.5143  49.5457  49.5817  50.9988  51.0103
    52.3769  52.3771  54.1910  54.2075

          k = 0.0952-0.0476 0.0952 (   447 PWs)   bands (ev):

     8.3611  10.6476  10.6477  11.1629  11.6566  11.7981  11.7985  12.3266
    12.5330  12.5332  12.6576  12.9743  13.1241  13.5778  13.5787  13.5821
    13.9440  14.5065  14.6548  14.6558  14.6740  16.4173  16.4174  18.9518
    21.2137  24.1970  24.1970  28.1999  28.2737  31.2889  31.2890  32.3069
    32.3071  34.1597  35.3685  37.0484  39.4518  39.4519  40.1620  43.2849
    43.9420  44.8661  46.6056  46.6056  49.4349  49.4351  50.5005  50.7783
    51.0649  51.9105  52.5800  52.9974

          k =-0.0952 0.0476 0.0952 (   447 PWs)   bands (ev):

     8.3611  10.6476  10.6477  11.1629  11.6566  11.7981  11.7985  12.3266
    12.5330  12.5332  12.6576  12.9743  13.1241  13.5778  13.5787  13.5821
    13.9440  14.5065  14.6548  14.6558  14.6740  16.4173  16.4174  18.9518
    21.2137  24.1970  24.1971  28.1999  28.2737  31.2889  31.2890  32.3069
    32.3071  34.1597  35.3685  37.0484  39.4518  39.4519  40.1620  43.2849
    43.9420  44.8661  46.6056  46.6056  49.4349  49.4351  50.5005  50.7783
    51.0649  51.9105  52.5800  52.9969

          k = 0.0952-0.0476-0.1428 (   450 PWs)   bands (ev):

     9.5794   9.5897  11.0107  11.0153  11.9170  11.9193  12.1496  12.1681
    12.5087  12.5173  12.6943  12.7109  13.2513  13.2556  13.4337  13.4367
    14.2593  14.2685  14.5599  14.5673  15.1118  15.1152  17.6490  17.6609
    22.1827  22.1913  25.9484  25.9538  29.6198  29.6277  33.1950  33.1955
    33.4095  33.4169  37.0074  37.0599  40.2086  40.2190  40.5737  40.5841
    45.3498  45.3524  45.8318  45.8605  47.8098  47.8262  50.7958  50.8170
    51.8632  51.8756  54.2192  54.2458

          k = 0.0952-0.0952 0.0952 (   456 PWs)   bands (ev):

     9.0285  10.6009  10.6012  10.6012  12.1135  12.1138  12.1138  12.5915
    12.8111  12.8111  12.8121  12.9416  12.9416  13.2151  13.2151  13.2153
    14.3862  14.3862  14.7989  14.7990  14.7992  16.6670  16.6672  16.6672
    21.8161  21.8161  21.8161  25.4605  32.6387  32.6387  32.6389  35.3994
    35.3996  35.3997  37.3818  37.3819  37.3822  37.6945  40.1541  40.1541
    44.6472  44.6472  47.9518  48.1679  48.1680  48.1690  48.3231  48.3233
    48.3233  52.6131  52.6134  52.6134

          k = 0.0952-0.0952-0.1428 (   440 PWs)   bands (ev):

     9.8544   9.8593  10.5614  10.5616  12.3075  12.3076  12.6150  12.6272
    12.8616  12.8770  12.9742  12.9755  13.0145  13.0145  13.0822  13.0823
    14.6996  14.7016  14.7277  14.7283  14.9239  14.9266  16.8557  16.8557
    20.8884  20.8884  23.3324  23.3383  33.5264  33.5265  34.8077  34.8079
    36.3148  36.3388  37.4287  37.4394  39.1637  39.2012  39.4928  39.4929
    44.8752  44.8754  45.1182  45.1398  46.2369  46.2445  48.7117  48.7118
    49.8338  49.8408  53.3425  53.3434

     the Fermi energy is    14.5428 ev

!    total energy              =    -343.62494896 Ry
     Harris-Foulkes estimate   =    -343.62494880 Ry
     estimated scf accuracy    <          1.3E-09 Ry

     The total energy is the sum of the following terms:

     one-electron contribution =      -6.09966825 Ry
     hartree contribution      =      60.27981430 Ry
     xc contribution           =    -120.53082813 Ry
     ewald contribution        =    -277.22570194 Ry
     Dispersion Correction     =      -0.04798451 Ry
     smearing contrib. (-TS)   =      -0.00058042 Ry

     total magnetization       =     2.84 Bohr mag/cell
     absolute magnetization    =     3.25 Bohr mag/cell

     convergence has been achieved in  11 iterations

     Forces acting on atoms (Ry/au):

     atom    1 type  1   force =    -0.00175342   -0.00175342    0.00175358
     atom    2 type  1   force =     0.00175326    0.00175326    0.00175326
     atom    3 type  1   force =    -0.00175342    0.00175358   -0.00175342
     atom    4 type  1   force =     0.00175358   -0.00175342   -0.00175342

     Total force =     0.006074     Total SCF correction =     0.000008


     entering subroutine stress ...

          total   stress  (Ry/bohr**3)                   (kbar)     P=   -0.74
  -0.00000504  -0.00000000  -0.00000000         -0.74     -0.00     -0.00
  -0.00000000  -0.00000504  -0.00000000         -0.00     -0.74     -0.00
  -0.00000000  -0.00000000  -0.00000504         -0.00     -0.00     -0.74


     number of scf cycles    =   2
     number of bfgs steps    =   1

     enthalpy old            =    -343.6241739770 Ry
     enthalpy new            =    -343.6249489565 Ry

     CASE: enthalpy_new < enthalpy_old

     new trust radius        =       0.0032692253 bohr
     new conv_thr            =       0.0000000002 Ry

     new unit-cell volume =    289.24267 a.u.^3 (    42.86134 Ang^3 )

CELL_PARAMETERS (alat=  1.88972590)
   3.499628725  -0.000000233  -0.000000233
  -0.000000233   3.499628725  -0.000000233
  -0.000000233  -0.000000233   3.499628725

ATOMIC_POSITIONS (alat)
Ni1      1.755343668   1.755343668   0.002239322
Ni1      0.002239063   0.002239063   0.002239063
Ni1      1.755343668   0.002239322   1.755343668
Ni1      0.002239322   1.755343668   1.755343668



     Writing output data file Ni-ferromag.save
     NEW-OLD atomic charge density approx. for the potential

     Check: negative/imaginary core charge=   -0.000005    0.000000
     extrapolated charge   39.96504, renormalised to   40.00000

     total cpu time spent up to now is      349.9 secs

     Self-consistent Calculation

     iteration #  1     ecut=    20.00 Ry     beta=0.20
     Davidson diagonalization with overlap
     ethr =  1.00E-06,  avg # of iterations =  2.9

     total cpu time spent up to now is      365.7 secs

     total energy              =    -343.62472669 Ry
     Harris-Foulkes estimate   =    -343.66161226 Ry
     estimated scf accuracy    <       0.00039018 Ry

     total magnetization       =     2.82 Bohr mag/cell
     absolute magnetization    =     3.24 Bohr mag/cell

     iteration #  2     ecut=    20.00 Ry     beta=0.20
     Davidson diagonalization with overlap
     ethr =  9.75E-07,  avg # of iterations =  2.1

     total cpu time spent up to now is      375.8 secs

     total energy              =    -343.62497508 Ry
     Harris-Foulkes estimate   =    -343.62500442 Ry
     estimated scf accuracy    <       0.00015274 Ry

     total magnetization       =     2.84 Bohr mag/cell
     absolute magnetization    =     3.25 Bohr mag/cell

     iteration #  3     ecut=    20.00 Ry     beta=0.20
     Davidson diagonalization with overlap
     ethr =  3.82E-07,  avg # of iterations =  1.0

     total cpu time spent up to now is      384.9 secs

     total energy              =    -343.62494096 Ry
     Harris-Foulkes estimate   =    -343.62497994 Ry
     estimated scf accuracy    <       0.00005319 Ry

     total magnetization       =     2.84 Bohr mag/cell
     absolute magnetization    =     3.25 Bohr mag/cell

     iteration #  4     ecut=    20.00 Ry     beta=0.20
     Davidson diagonalization with overlap
     ethr =  1.33E-07,  avg # of iterations =  2.0

     total cpu time spent up to now is      395.1 secs

     total energy              =    -343.62497953 Ry
     Harris-Foulkes estimate   =    -343.62498691 Ry
     estimated scf accuracy    <       0.00008091 Ry

     total magnetization       =     2.83 Bohr mag/cell
     absolute magnetization    =     3.25 Bohr mag/cell

     iteration #  5     ecut=    20.00 Ry     beta=0.20
     Davidson diagonalization with overlap
     ethr =  1.33E-07,  avg # of iterations =  1.0

     total cpu time spent up to now is      404.4 secs

     total energy              =    -343.62496981 Ry
     Harris-Foulkes estimate   =    -343.62498009 Ry
     estimated scf accuracy    <       0.00005324 Ry

     total magnetization       =     2.83 Bohr mag/cell
     absolute magnetization    =     3.25 Bohr mag/cell

     iteration #  6     ecut=    20.00 Ry     beta=0.20
     Davidson diagonalization with overlap
     ethr =  1.33E-07,  avg # of iterations =  1.0

     total cpu time spent up to now is      413.7 secs

     total energy              =    -343.62496386 Ry
     Harris-Foulkes estimate   =    -343.62497141 Ry
     estimated scf accuracy    <       0.00001819 Ry

     total magnetization       =     2.83 Bohr mag/cell
     absolute magnetization    =     3.25 Bohr mag/cell

     iteration #  7     ecut=    20.00 Ry     beta=0.20
     Davidson diagonalization with overlap
     ethr =  4.55E-08,  avg # of iterations =  1.0

     total cpu time spent up to now is      422.8 secs

     total energy              =    -343.62496702 Ry
     Harris-Foulkes estimate   =    -343.62496693 Ry
     estimated scf accuracy    <          8.7E-09 Ry

     total magnetization       =     2.83 Bohr mag/cell
     absolute magnetization    =     3.25 Bohr mag/cell

     iteration #  8     ecut=    20.00 Ry     beta=0.20
     Davidson diagonalization with overlap
     ethr =  2.17E-11,  avg # of iterations =  2.0

     total cpu time spent up to now is      434.4 secs

     total energy              =    -343.62496712 Ry
     Harris-Foulkes estimate   =    -343.62496711 Ry
     estimated scf accuracy    <       0.00000065 Ry

     total magnetization       =     2.83 Bohr mag/cell
     absolute magnetization    =     3.25 Bohr mag/cell

     iteration #  9     ecut=    20.00 Ry     beta=0.20
     Davidson diagonalization with overlap
     ethr =  2.17E-11,  avg # of iterations =  1.0

     total cpu time spent up to now is      443.5 secs

     total energy              =    -343.62496719 Ry
     Harris-Foulkes estimate   =    -343.62496712 Ry
     estimated scf accuracy    <       0.00000063 Ry

     total magnetization       =     2.83 Bohr mag/cell
     absolute magnetization    =     3.25 Bohr mag/cell

     iteration # 10     ecut=    20.00 Ry     beta=0.20
     Davidson diagonalization with overlap
     ethr =  2.17E-11,  avg # of iterations =  1.0

     total cpu time spent up to now is      452.6 secs

     total energy              =    -343.62496684 Ry
     Harris-Foulkes estimate   =    -343.62496719 Ry
     estimated scf accuracy    <       0.00000087 Ry

     total magnetization       =     2.83 Bohr mag/cell
     absolute magnetization    =     3.25 Bohr mag/cell

     iteration # 11     ecut=    20.00 Ry     beta=0.20
     Davidson diagonalization with overlap
     ethr =  2.17E-11,  avg # of iterations =  2.7

     Magnetic moment per site:
     atom:    1    charge:    2.9979    magn:    0.3335    constr:    0.0000
     atom:    2    charge:    2.9961    magn:    0.3333    constr:    0.0000
     atom:    3    charge:    2.9979    magn:    0.3335    constr:    0.0000
     atom:    4    charge:    2.9979    magn:    0.3335    constr:    0.0000

     total cpu time spent up to now is      465.2 secs

     End of self-consistent calculation

 ------ SPIN UP ------------


          k = 0.0000 0.0000 0.0000 (   461 PWs)   bands (ev):

     5.4640   9.7621   9.7621   9.7621  10.2163  10.2164  10.2164  12.0053
    12.0053  12.0053  13.1896  13.1896  13.9113  13.9113  13.9113  14.0022
    14.0022  14.0022  14.0023  14.0023  14.0023  17.1271  17.1272  17.1272
    23.9112  23.9112  23.9112  29.6513  29.6513  29.6513  29.6513  29.6513
    29.6514  34.7668  34.7668  34.7669  38.1354  38.1356  38.1356  38.5925
    42.5848  42.5848  42.5848  46.4253  46.4253  46.4253  48.3000  55.3308
    55.3308  55.3308  59.1444  59.8079

          k = 0.0000 0.0000 0.0476 (   449 PWs)   bands (ev):

     5.8310   9.7841   9.9471   9.9472  10.3284  10.3443  10.3444  11.8759
    12.1080  12.1080  13.0709  13.2364  13.3429  13.3429  13.7569  13.7569
    13.8258  13.8258  13.8616  14.0028  14.0028  15.5280  18.0937  18.0937
    24.0098  24.0098  26.1683  27.9137  27.9137  28.5316  28.5316  30.2149
    30.2149  34.9536  36.9910  36.9910  37.9838  38.2690  40.0964  40.0964
    40.4091  40.4091  41.0297  47.8389  48.4118  48.4119  49.2958  51.7735
    56.4834  56.4834  56.8530  56.8531

          k = 0.0000 0.0000 0.0952 (   446 PWs)   bands (ev):

     6.8828   9.5520  10.3858  10.3858  10.6374  10.7292  10.7293  11.5301
    12.2812  12.2813  12.4059  12.4059  12.7812  13.3642  13.3659  13.3737
    13.3737  13.3870  13.3870  13.7269  14.0031  14.0031  20.0664  20.0664
    24.3298  24.3298  25.1399  25.1399  26.7688  26.7688  30.4754  31.8096
    31.8096  35.2955  36.8974  37.1756  37.1756  38.5000  38.8090  41.0344
    41.0345  44.2792  44.2792  44.3227  51.2180  51.2180  51.2330  51.2330
    51.2499  55.2725  56.4648  56.4649

          k =-0.0000-0.0000-0.1429 (   466 PWs)   bands (ev):

     8.3808   8.3902  10.6631  10.6631  11.0672  11.0811  11.3715  11.3716
    11.3852  11.3853  12.5923  12.6118  12.8550  12.8550  12.8654  12.8654
    13.1265  13.1265  13.5410  13.5487  14.0035  14.0035  22.4546  22.4546
    22.4785  22.4785  24.7083  24.7083  25.8269  25.8270  34.1837  34.1837
    34.2004  34.2004  35.0196  35.0547  35.9077  35.9168  40.3705  40.4274
    45.8248  45.8248  45.8776  45.8776  47.7660  47.7660  52.6884  52.6884
    54.2874  54.2874  54.3330  54.3330

          k = 0.0000 0.0476 0.0476 (   451 PWs)   bands (ev):

     6.1893   9.9834   9.9834  10.1110  10.4460  10.4461  10.4605  11.8154
    12.1532  12.1702  12.9944  13.0416  13.0532  13.0578  13.2318  13.6277
    13.7527  13.7527  13.8242  13.8242  13.8861  16.4683  16.4683  18.8682
    24.0101  25.1917  26.3588  26.3588  28.3902  28.3902  29.0279  29.0281
    30.7491  36.1937  36.2586  37.1861  37.1862  37.4621  40.2662  40.2662
    41.3821  42.7739  43.6557  45.3871  46.6989  49.9738  50.6487  53.4021
    53.9124  55.5712  55.5715  56.4729

          k = 0.0000 0.0476 0.0952 (   440 PWs)   bands (ev):

     7.2134   9.7891  10.4673  10.5167  10.7296  10.7826  10.8023  11.5329
    12.0416  12.1818  12.2994  12.4176  12.4412  12.8781  13.3021  13.3789
    13.3903  13.4121  13.5642  13.8208  13.8274  14.5032  18.0913  20.6631
    22.1711  24.7192  25.6098  26.6513  27.5046  29.7287  30.0191  30.0643
    31.1278  33.8533  34.5856  37.8805  38.8035  40.5322  40.7335  40.8858
    41.3167  44.1964  45.1807  47.2544  47.9688  48.8404  50.1154  51.5299
    53.1541  53.4140  55.2175  56.8384

          k =-0.0000 0.0476-0.1429 (   448 PWs)   bands (ev):

     8.6638   8.6727  10.8154  10.8160  11.1195  11.1329  11.2398  11.2510
    11.3863  11.3996  12.2207  12.2350  12.8558  12.8664  13.0880  13.0928
    13.1112  13.1118  13.7293  13.7294  13.8174  13.8195  19.9594  19.9715
    22.9583  22.9797  25.5089  25.5255  28.4114  28.4173  31.6319  31.6384
    32.1406  32.1452  35.9574  35.9993  38.9910  38.9931  42.3356  42.3707
    43.2512  43.2650  46.1027  46.1527  50.2647  50.3078  50.5413  50.5608
    52.8129  52.8305  53.5831  53.5958

          k = 0.0000 0.0952 0.0952 (   439 PWs)   bands (ev):

     8.1424  10.3785  10.3785  10.7493  10.9986  10.9988  11.0106  11.4625
    11.7101  11.7102  11.8650  12.1860  12.5491  12.7914  13.0849  13.2400
    13.2401  13.3826  13.3826  13.5540  13.7692  15.7523  15.7523  19.3771
    22.1997  25.2745  26.8968  26.8968  27.9983  27.9984  31.1243  31.7678
    31.7692  31.8590  33.7258  36.9979  41.6450  42.0746  42.0747  43.3363
    43.5265  43.8976  43.8976  47.3501  47.6713  48.7225  48.7227  51.9037
    52.3433  52.3850  53.6466  55.5405

          k =-0.0000 0.0952-0.1429 (   448 PWs)   bands (ev):

     9.4092   9.4165  10.8479  10.8564  11.2459  11.2553  11.2630  11.2652
    11.4056  11.4180  11.9159  11.9253  12.8929  12.8968  12.8974  12.9037
    12.9644  12.9662  13.4146  13.4210  14.4316  14.4333  17.2830  17.2925
    24.3297  24.3458  26.3289  26.3424  28.7688  28.7762  29.6500  29.6520
    33.0717  33.0757  36.9262  36.9667  40.4987  40.5062  43.2087  43.2163
    43.3584  43.3618  46.9142  46.9551  48.1430  48.1651  50.6358  50.6587
    52.0238  52.0597  53.7381  53.7462

          k =-0.0000-0.1429-0.1429 (   428 PWs)   bands (ev):

    10.2636  10.2699  10.2699  10.2760  11.3617  11.3736  11.3736  11.3854
    11.6805  11.6839  11.6839  11.6873  12.7493  12.7505  12.7505  12.7518
    13.0576  13.0675  13.0675  13.0773  15.5010  15.5054  15.5054  15.5099
    26.3229  26.3341  26.3341  26.3452  27.7030  27.7113  27.7113  27.7198
    38.0499  38.0605  38.0605  38.0714  38.6369  38.6499  38.6499  38.6620
    47.3236  47.3242  47.3243  47.3255  49.4744  49.4983  49.4984  49.5223
    52.0584  52.0590  52.0590  52.0594

          k = 0.0476 0.0476 0.0476 (   440 PWs)   bands (ev):

     6.5359  10.1449  10.1450  10.1450  10.5618  10.5620  10.5620  11.7801
    12.1900  12.1900  12.7473  12.7473  12.7473  13.1444  13.1444  13.3933
    13.3934  13.3934  13.9405  13.9405  13.9405  17.0988  17.0989  17.0989
    25.4354  25.4354  25.4354  26.7039  26.7039  26.7039  31.2696  31.2697
    31.2697  33.6075  36.3472  36.3472  36.3472  39.3547  41.3119  41.3119
    42.9898  42.9899  42.9899  46.7199  47.8622  47.8622  51.9514  51.9514
    55.4357  55.4359  55.4359  55.6783

          k = 0.0476 0.0476 0.0952 (   439 PWs)   bands (ev):

     7.5200   9.9486  10.5299  10.5300  10.8485  10.8761  10.8761  11.5694
    12.0319  12.0319  12.2273  12.2702  12.3301  12.9887  13.0591  13.1456
    13.1460  13.3857  13.8428  13.8428  13.8751  14.8646  18.4469  18.4469
    22.8021  22.8021  26.7399  27.3691  27.3691  30.4695  30.4695  30.8858
    31.0731  32.7609  36.8228  37.9078  37.9929  38.9593  38.9593  42.5237
    43.6717  44.6213  47.2096  47.2096  48.1058  49.2686  50.4369  50.4369
    50.9451  53.2153  53.3157  55.9613

          k = 0.0476 0.0476-0.1429 (   454 PWs)   bands (ev):

     8.8921   8.8999  10.9184  10.9186  10.9760  10.9761  11.2150  11.2276
    11.6365  11.6365  12.1247  12.1388  12.6020  12.6068  12.9769  12.9770
    13.5493  13.5592  13.6623  13.6644  13.7862  13.7862  19.5976  19.5976
    21.2324  21.2324  28.3196  28.3204  28.5567  28.5616  29.0295  29.0307
    35.0543  35.0680  35.5477  35.5763  38.2210  38.2507  42.3320  42.3320
    44.9005  44.9163  45.5646  45.5647  49.6695  49.6918  51.0869  51.0940
    52.3865  52.3865  54.0757  54.0787

          k = 0.0476 0.0952 0.0952 (   447 PWs)   bands (ev):

     8.3615  10.2685  10.2686  10.5575  11.1634  11.2099  11.2100  11.6138
    11.8275  11.8276  11.9607  12.1882  12.3148  12.7951  12.7952  12.8118
    13.1166  13.6745  13.7443  13.7598  13.7602  15.8819  15.8819  18.6964
    20.8933  24.0053  24.0053  28.0737  28.1658  31.2528  31.2528  32.2434
    32.2435  34.1340  35.3738  37.0557  39.4702  39.4702  40.2668  43.2067
    43.9925  44.9570  46.6495  46.6496  49.4233  49.4234  50.6078  50.8371
    51.1304  51.8849  52.5626  53.1087

          k = 0.0476 0.0952-0.1429 (   450 PWs)   bands (ev):

     9.4459   9.4507  10.4908  10.4923  11.3780  11.3784  11.5216  11.5318
    11.8313  11.8356  11.9520  11.9613  12.4629  12.4664  12.6752  12.6774
    13.4133  13.4173  13.6426  13.6466  14.3370  14.3385  17.2589  17.2666
    21.9075  21.9135  25.7759  25.7798  29.5484  29.5524  33.1673  33.1686
    33.3715  33.3753  37.0363  37.0693  40.2575  40.2644  40.5855  40.5915
    45.4016  45.4036  45.8856  45.9027  47.8703  47.8794  50.8069  50.8202
    51.9647  51.9728  54.1950  54.2061

          k = 0.0476-0.1429-0.1429 (   432 PWs)   bands (ev):

    10.0192  10.0213  10.0213  10.0232  11.7688  11.7721  11.7721  11.7752
    11.8501  11.8571  11.8571  11.8642  12.4325  12.4359  12.4359  12.4393
    13.3922  13.3984  13.3984  13.4046  15.4095  15.4144  15.4144  15.4193
    23.5571  23.5616  23.5616  23.5661  31.1088  31.1107  31.1107  31.1128
    38.3308  38.3391  38.3391  38.3496  38.4568  38.4694  38.4694  38.4793
    46.8530  46.8534  46.8534  46.8548  47.0167  47.0296  47.0296  47.0414
    55.0488  55.0580  55.0580  55.0686

          k = 0.0952 0.0952 0.0952 (   456 PWs)   bands (ev):

     8.9081  10.1042  10.1043  10.1043  11.5698  11.5699  11.5699  12.0828
    12.1451  12.1451  12.1472  12.1566  12.1566  12.4393  12.4393  12.4394
    13.5220  13.5220  13.8887  13.8887  13.8887  16.2579  16.2579  16.2579
    21.5010  21.5010  21.5010  25.2618  32.6205  32.6205  32.6205  35.3680
    35.3681  35.3681  37.4007  37.4007  37.4008  37.8910  40.1021  40.1021
    44.6784  44.6784  47.9799  48.2573  48.2573  48.2576  48.3632  48.3632
    48.3632  52.6244  52.6245  52.6245

          k = 0.0952 0.0952-0.1429 (   440 PWs)   bands (ev):

     9.5367   9.5380  10.0359  10.0360  11.6911  11.6912  11.9757  11.9834
    12.1972  12.1983  12.3169  12.3186  12.3251  12.3328  12.4301  12.4302
    13.8086  13.8093  13.8167  13.8170  14.2254  14.2258  16.5405  16.5406
    20.4754  20.4754  23.0690  23.0733  33.5478  33.5478  34.7522  34.7523
    36.4581  36.4723  37.3905  37.3977  39.1227  39.1462  39.5477  39.5477
    44.8905  44.8906  45.1858  45.1992  46.2728  46.2770  48.7923  48.7923
    49.8274  49.8319  53.2880  53.2883

          k = 0.0952-0.1429-0.1429 (   448 PWs)   bands (ev):

     9.7143   9.7144   9.7144   9.7144  11.9371  11.9391  11.9391  11.9410
    12.1277  12.1299  12.1299  12.1321  12.8726  12.8770  12.8770  12.8815
    13.7332  13.7365  13.7365  13.7399  15.0254  15.0310  15.0310  15.0366
    21.1856  21.1893  21.1893  21.1930  35.2861  35.2882  35.2883  35.2905
    38.3198  38.3258  38.3258  38.3319  39.0785  39.0846  39.0846  39.0903
    44.3386  44.3435  44.3435  44.3483  45.4175  45.4194  45.4194  45.4212
    50.6803  50.6830  50.6830  50.6860

          k =-0.1429-0.1429-0.1429 (   432 PWs)   bands (ev):

     9.5983   9.5984   9.5984   9.5984  12.0178  12.0178  12.0178  12.0179
    12.0179  12.0180  12.0180  12.0180  13.8647  13.8647  13.8647  13.8649
    13.8649  13.8649  13.8649  13.8649  14.3411  14.3413  14.3413  14.3413
    20.3076  20.3076  20.3077  20.3077  37.0433  37.0435  37.0435  37.0435
    39.6913  39.6913  39.6913  39.6913  39.6913  39.6915  39.6915  39.6915
    43.1740  43.1740  43.1740  43.1740  43.1740  43.1741  43.1741  43.1741
    49.0197  49.0197  49.0197  49.0198

          k =-0.0476-0.0000 0.0476 (   451 PWs)   bands (ev):

     6.1893   9.9834   9.9834  10.1110  10.4460  10.4461  10.4605  11.8154
    12.1532  12.1702  12.9944  13.0416  13.0532  13.0578  13.2318  13.6277
    13.7527  13.7527  13.8242  13.8242  13.8861  16.4683  16.4683  18.8682
    24.0101  25.1917  26.3588  26.3589  28.3902  28.3902  29.0279  29.0281
    30.7491  36.1937  36.2586  37.1861  37.1862  37.4621  40.2661  40.2663
    41.3821  42.7738  43.6557  45.3871  46.6989  49.9738  50.6487  53.4021
    53.9124  55.5712  55.5715  56.4729

          k =-0.0476 0.0000 0.0952 (   440 PWs)   bands (ev):

     7.2134   9.7891  10.4673  10.5167  10.7296  10.7826  10.8023  11.5329
    12.0416  12.1818  12.2994  12.4176  12.4412  12.8781  13.3021  13.3789
    13.3903  13.4121  13.5642  13.8208  13.8274  14.5032  18.0913  20.6631
    22.1711  24.7192  25.6098  26.6513  27.5046  29.7287  30.0191  30.0643
    31.1278  33.8533  34.5856  37.8805  38.8035  40.5322  40.7335  40.8858
    41.3167  44.1964  45.1807  47.2544  47.9688  48.8404  50.1154  51.5299
    53.1541  53.4140  55.2175  56.8384

          k =-0.0952-0.0000 0.0952 (   439 PWs)   bands (ev):

     8.1424  10.3785  10.3785  10.7493  10.9986  10.9988  11.0106  11.4625
    11.7101  11.7102  11.8650  12.1860  12.5491  12.7914  13.0849  13.2400
    13.2401  13.3826  13.3826  13.5540  13.7692  15.7523  15.7523  19.3771
    22.1997  25.2745  26.8968  26.8968  27.9982  27.9984  31.1243  31.7678
    31.7692  31.8590  33.7258  36.9979  41.6450  42.0747  42.0747  43.3363
    43.5265  43.8976  43.8976  47.3501  47.6713  48.7225  48.7226  51.9037
    52.3433  52.3850  53.6466  55.5390

          k = 0.0476-0.0476 0.0476 (   440 PWs)   bands (ev):

     6.5359  10.1449  10.1450  10.1450  10.5618  10.5620  10.5620  11.7801
    12.1900  12.1900  12.7473  12.7473  12.7473  13.1444  13.1444  13.3933
    13.3934  13.3934  13.9405  13.9405  13.9405  17.0988  17.0989  17.0989
    25.4354  25.4354  25.4354  26.7039  26.7039  26.7039  31.2696  31.2697
    31.2697  33.6075  36.3471  36.3472  36.3473  39.3547  41.3119  41.3119
    42.9898  42.9899  42.9899  46.7199  47.8622  47.8622  51.9514  51.9514
    55.4357  55.4359  55.4359  55.6783

          k = 0.0476-0.0476 0.0952 (   439 PWs)   bands (ev):

     7.5200   9.9486  10.5299  10.5300  10.8485  10.8761  10.8761  11.5694
    12.0319  12.0319  12.2273  12.2702  12.3301  12.9887  13.0591  13.1456
    13.1460  13.3857  13.8428  13.8428  13.8750  14.8646  18.4469  18.4469
    22.8021  22.8021  26.7399  27.3691  27.3691  30.4695  30.4695  30.8858
    31.0731  32.7609  36.8228  37.9078  37.9930  38.9593  38.9593  42.5237
    43.6717  44.6213  47.2096  47.2096  48.1058  49.2686  50.4369  50.4369
    50.9451  53.2153  53.3157  55.9613

          k =-0.0952 0.0476 0.0476 (   439 PWs)   bands (ev):

     7.5200   9.9486  10.5299  10.5300  10.8485  10.8761  10.8761  11.5694
    12.0319  12.0319  12.2273  12.2702  12.3301  12.9887  13.0591  13.1456
    13.1460  13.3857  13.8428  13.8428  13.8750  14.8646  18.4469  18.4469
    22.8021  22.8021  26.7399  27.3691  27.3691  30.4695  30.4695  30.8858
    31.0731  32.7609  36.8228  37.9078  37.9930  38.9593  38.9593  42.5237
    43.6717  44.6213  47.2096  47.2096  48.1058  49.2686  50.4369  50.4369
    50.9451  53.2153  53.3157  55.9613

          k = 0.0476-0.0476-0.1429 (   454 PWs)   bands (ev):

     8.8921   8.8999  10.9184  10.9186  10.9760  10.9760  11.2150  11.2276
    11.6365  11.6365  12.1247  12.1388  12.6020  12.6068  12.9769  12.9770
    13.5493  13.5592  13.6623  13.6644  13.7862  13.7862  19.5976  19.5976
    21.2324  21.2324  28.3197  28.3204  28.5567  28.5616  29.0295  29.0307
    35.0543  35.0680  35.5477  35.5763  38.2210  38.2507  42.3320  42.3321
    44.9005  44.9163  45.5646  45.5647  49.6695  49.6918  51.0869  51.0940
    52.3864  52.3865  54.0758  54.0787

          k = 0.0952-0.0476 0.0952 (   447 PWs)   bands (ev):

     8.3615  10.2685  10.2686  10.5575  11.1634  11.2099  11.2100  11.6138
    11.8275  11.8276  11.9607  12.1882  12.3148  12.7951  12.7952  12.8118
    13.1166  13.6745  13.7443  13.7598  13.7602  15.8819  15.8819  18.6964
    20.8933  24.0053  24.0053  28.0737  28.1658  31.2528  31.2528  32.2434
    32.2435  34.1340  35.3738  37.0556  39.4702  39.4702  40.2668  43.2067
    43.9925  44.9570  46.6495  46.6495  49.4233  49.4234  50.6078  50.8371
    51.1304  51.8848  52.5626  53.1085

          k =-0.0952 0.0476 0.0952 (   447 PWs)   bands (ev):

     8.3615  10.2685  10.2686  10.5575  11.1634  11.2099  11.2100  11.6138
    11.8275  11.8276  11.9607  12.1882  12.3148  12.7951  12.7952  12.8118
    13.1166  13.6745  13.7443  13.7598  13.7602  15.8819  15.8819  18.6964
    20.8933  24.0053  24.0053  28.0737  28.1658  31.2528  31.2529  32.2434
    32.2435  34.1340  35.3738  37.0557  39.4702  39.4702  40.2668  43.2067
    43.9925  44.9571  46.6495  46.6495  49.4233  49.4234  50.6078  50.8371
    51.1304  51.8849  52.5626  53.1086

          k = 0.0952-0.0476-0.1429 (   450 PWs)   bands (ev):

     9.4459   9.4507  10.4908  10.4923  11.3780  11.3784  11.5216  11.5318
    11.8313  11.8356  11.9520  11.9613  12.4629  12.4664  12.6752  12.6774
    13.4133  13.4173  13.6426  13.6466  14.3370  14.3385  17.2589  17.2666
    21.9075  21.9135  25.7759  25.7798  29.5484  29.5524  33.1673  33.1686
    33.3715  33.3753  37.0363  37.0693  40.2575  40.2644  40.5855  40.5915
    45.4016  45.4036  45.8856  45.9027  47.8703  47.8794  50.8069  50.8202
    51.9647  51.9728  54.1950  54.2061

          k = 0.0952-0.0952 0.0952 (   456 PWs)   bands (ev):

     8.9081  10.1042  10.1043  10.1043  11.5698  11.5699  11.5699  12.0828
    12.1451  12.1451  12.1472  12.1566  12.1566  12.4393  12.4393  12.4394
    13.5220  13.5220  13.8887  13.8887  13.8887  16.2579  16.2579  16.2579
    21.5010  21.5010  21.5010  25.2618  32.6205  32.6205  32.6206  35.3681
    35.3681  35.3681  37.4007  37.4007  37.4008  37.8910  40.1021  40.1022
    44.6784  44.6784  47.9799  48.2573  48.2573  48.2577  48.3632  48.3632
    48.3632  52.6244  52.6245  52.6245

          k = 0.0952-0.0952-0.1429 (   440 PWs)   bands (ev):

     9.5367   9.5380  10.0359  10.0360  11.6911  11.6912  11.9757  11.9834
    12.1972  12.1983  12.3169  12.3186  12.3251  12.3328  12.4301  12.4302
    13.8086  13.8093  13.8167  13.8170  14.2254  14.2258  16.5405  16.5405
    20.4754  20.4754  23.0690  23.0733  33.5477  33.5478  34.7522  34.7523
    36.4581  36.4723  37.3905  37.3977  39.1227  39.1462  39.5477  39.5477
    44.8905  44.8906  45.1858  45.1992  46.2728  46.2770  48.7923  48.7923
    49.8274  49.8319  53.2880  53.2883

 ------ SPIN DOWN ----------


          k = 0.0000 0.0000 0.0000 (   461 PWs)   bands (ev):

     5.4096  10.2235  10.2235  10.2235  10.9335  10.9337  10.9337  12.8854
    12.8854  12.8854  13.9691  13.9691  14.7248  14.7248  14.7248  15.0111
    15.0111  15.0111  15.0111  15.0111  15.0111  17.0485  17.0486  17.0486
    24.2160  24.2160  24.2160  29.6381  29.6381  29.6381  29.6382  29.6382
    29.6383  34.9288  34.9288  34.9289  38.2791  38.2793  38.2793  38.3862
    42.5552  42.5552  42.5553  46.4840  46.4840  46.4840  48.1384  55.5211
    55.5211  55.5211  59.7411  59.7703

          k = 0.0000 0.0000 0.0476 (   449 PWs)   bands (ev):

     5.7765  10.1991  10.4186  10.4186  11.0550  11.0594  11.0595  12.7427
    12.9921  12.9921  13.8407  14.0180  14.1611  14.1611  14.5568  14.5569
    14.6727  14.8178  14.8178  15.0116  15.0116  15.5981  18.2017  18.2018
    24.2993  24.2993  26.3690  27.9809  27.9809  28.5592  28.5593  30.2178
    30.2178  35.0985  37.0674  37.0674  37.8407  38.4103  40.2167  40.2168
    40.4472  40.4472  40.9589  47.8487  48.3769  48.3770  49.3639  51.7604
    56.6938  56.6938  56.7779  56.7780

          k = 0.0000 0.0000 0.0952 (   446 PWs)   bands (ev):

     6.8327   9.7596  10.8817  10.8817  11.3893  11.4389  11.4391  12.3627
    13.0093  13.0095  13.3030  13.3030  13.5179  13.7350  14.1425  14.1425
    14.1535  14.3402  14.3402  14.5314  15.0121  15.0121  20.2517  20.2518
    24.5746  24.5746  25.2791  25.2791  26.8675  26.8675  30.5694  31.8459
    31.8459  35.4036  36.8546  37.2448  37.2448  38.4065  38.9559  41.0350
    41.0351  44.3776  44.3777  44.5406  51.1202  51.1202  51.1558  51.1558
    51.1978  55.1565  56.6779  56.6780

          k =-0.0000-0.0000-0.1429 (   466 PWs)   bands (ev):

     8.3742   8.3839  11.1747  11.1748  11.8565  11.8713  12.0799  12.0800
    12.0940  12.0941  13.2388  13.2601  13.7755  13.7755  13.7864  13.7864
    13.8725  13.8725  14.3368  14.3448  15.0124  15.0124  22.6348  22.6348
    22.6592  22.6592  24.9028  24.9028  25.9849  25.9850  34.2483  34.2483
    34.2650  34.2650  34.9966  35.0327  35.9540  35.9647  40.5641  40.6219
    45.7748  45.7749  45.8286  45.8287  47.8396  47.8397  52.8665  52.8665
    54.1766  54.1767  54.2222  54.2223

          k = 0.0000 0.0476 0.0476 (   451 PWs)   bands (ev):

     6.1359  10.4110  10.4110  10.6015  11.1596  11.1694  11.1695  12.6684
    13.0427  13.0470  13.7577  13.7951  13.7993  13.8184  14.0184  14.4176
    14.5442  14.5442  14.8164  14.8164  14.8876  16.7840  16.7840  19.0347
    24.2669  25.3208  26.5461  26.5462  28.4720  28.4721  29.0693  29.0694
    30.7604  36.2455  36.2944  37.2526  37.2528  37.4769  40.3839  40.3839
    41.3016  42.8596  43.6239  45.3294  46.7468  50.1311  50.5705  53.5254
    53.9056  55.5241  55.5244  56.4119

          k = 0.0000 0.0476 0.0952 (   440 PWs)   bands (ev):

     7.1680  10.0112  10.9291  11.0481  11.4443  11.4771  11.5188  12.3544
    12.7319  12.9016  13.0952  13.1392  13.3193  13.6420  14.0663  14.1516
    14.2225  14.3089  14.3387  14.8134  14.8231  15.2129  18.4300  20.8668
    22.3683  24.9463  25.7591  26.7830  27.6312  29.8343  30.0791  30.1337
    31.2250  33.9284  34.6264  37.9157  38.8373  40.4799  40.6773  41.0060
    41.3101  44.2775  45.3858  47.3176  47.8883  48.8156  50.0938  51.4508
    53.1023  53.3228  55.4083  57.0516

          k =-0.0000 0.0476-0.1429 (   448 PWs)   bands (ev):

     8.6693   8.6786  11.3177  11.3188  11.8998  11.9136  11.9181  11.9293
    12.0974  12.1111  12.9599  12.9764  13.7789  13.7899  13.8565  13.8590
    13.8622  13.8641  14.5670  14.5675  14.8108  14.8132  20.2405  20.2528
    23.1500  23.1716  25.6790  25.6968  28.5274  28.5342  31.7430  31.7488
    32.1974  32.2013  35.9794  36.0212  38.9874  38.9887  42.4886  42.5248
    43.2416  43.2568  46.0491  46.1000  50.3252  50.3674  50.4693  50.4889
    52.7245  52.7426  53.7406  53.7532

          k = 0.0000 0.0952 0.0952 (   439 PWs)   bands (ev):

     8.1204  10.6509  10.6510  11.4132  11.4940  11.7339  11.7342  12.2559
    12.4027  12.4027  12.5763  12.9768  13.4640  13.5378  13.8378  13.9767
    13.9768  14.3427  14.3427  14.5340  14.6108  16.3579  16.3579  19.6847
    22.4177  25.4717  27.0606  27.0606  28.0990  28.0991  31.2520  31.8550
    31.8567  31.9248  33.7775  37.0293  41.5812  42.0501  42.0503  43.3665
    43.4081  43.9402  43.9403  47.4675  47.6875  48.7610  48.7612  51.9566
    52.2178  52.3346  53.8297  55.4386

          k =-0.0000 0.0952-0.1429 (   448 PWs)   bands (ev):

     9.4701   9.4780  11.2664  11.2748  11.9001  11.9009  12.0096  12.0228
    12.1254  12.1384  12.6518  12.6622  13.6308  13.6310  13.7041  13.7057
    13.8267  13.8381  14.3821  14.3891  15.2370  15.2391  17.7473  17.7566
    24.5328  24.5486  26.4793  26.4940  28.9292  28.9358  29.7387  29.7414
    33.1416  33.1465  36.9507  36.9913  40.4959  40.5025  43.1498  43.1568
    43.3779  43.3809  46.8465  46.8879  48.2187  48.2419  50.5775  50.6009
    52.1359  52.1715  53.6497  53.6573

          k =-0.0000-0.1429-0.1429 (   428 PWs)   bands (ev):

    10.4816  10.4886  10.4886  10.4955  12.0984  12.1110  12.1110  12.1236
    12.3492  12.3531  12.3531  12.3571  13.4862  13.4876  13.4876  13.4890
    14.0055  14.0159  14.0159  14.0262  16.1833  16.1871  16.1871  16.1909
    26.5153  26.5257  26.5258  26.5361  27.8238  27.8330  27.8331  27.8425
    38.1223  38.1325  38.1325  38.1432  38.5999  38.6121  38.6122  38.6234
    47.2009  47.2020  47.2020  47.2037  49.4518  49.4761  49.4762  49.5005
    52.1535  52.1553  52.1553  52.1568

          k = 0.0476 0.0476 0.0476 (   440 PWs)   bands (ev):

     6.4852  10.5995  10.5995  10.5995  11.2622  11.2624  11.2624  12.6130
    13.0678  13.0678  13.4563  13.4563  13.4564  13.9302  13.9302  14.2236
    14.2237  14.2237  14.8882  14.8882  14.8882  17.4406  17.4406  17.4406
    25.5640  25.5641  25.5641  26.8765  26.8765  26.8765  31.2915  31.2917
    31.2917  33.6713  36.4374  36.4374  36.4374  39.1985  41.3600  41.3600
    43.0715  43.0716  43.0716  46.6327  47.8158  47.8158  52.1096  52.1096
    55.3850  55.3852  55.3852  55.9897

          k = 0.0476 0.0476 0.0952 (   439 PWs)   bands (ev):

     7.4852  10.2105  11.0608  11.0608  11.5041  11.5043  11.5608  12.3646
    12.7333  12.7333  12.8993  13.0997  13.1900  13.8343  13.8682  13.9317
    13.9324  14.2073  14.7756  14.8054  14.8055  15.4953  18.7738  18.7738
    23.0109  23.0110  26.8814  27.5163  27.5163  30.5434  30.5435  30.9965
    31.1588  32.8069  36.8927  37.8101  38.0677  38.9855  38.9856  42.5283
    43.7495  44.6398  47.2500  47.2500  48.1389  49.2098  50.4193  50.4193
    50.9460  53.1387  53.2692  56.0697

          k = 0.0476 0.0476-0.1429 (   454 PWs)   bands (ev):

     8.9263   8.9348  11.4891  11.4891  11.5571  11.5573  11.9648  11.9785
    12.3497  12.3498  12.8730  12.8887  13.4525  13.4565  13.7399  13.7399
    14.3532  14.3638  14.5233  14.5244  14.7573  14.7573  19.8548  19.8548
    21.5358  21.5358  28.4328  28.4335  28.6973  28.7016  29.1442  29.1456
    35.1225  35.1361  35.5162  35.5457  38.2966  38.3264  42.3124  42.3125
    44.9853  45.0025  45.5474  45.5475  49.5864  49.6088  51.0361  51.0433
    52.4160  52.4160  54.2379  54.2450

          k = 0.0476 0.0952 0.0952 (   447 PWs)   bands (ev):

     8.3735  10.6602  10.6603  11.1755  11.6694  11.8114  11.8116  12.3401
    12.5469  12.5470  12.6716  12.9885  13.1386  13.5935  13.5940  13.5967
    13.9593  14.5228  14.6719  14.6723  14.6897  16.4357  16.4357  18.9714
    21.2363  24.2207  24.2208  28.2309  28.2939  31.3147  31.3147  32.3354
    32.3355  34.1882  35.3962  37.0773  39.4822  39.4822  40.1907  43.3202
    43.9742  44.8981  46.6399  46.6399  49.4722  49.4723  50.5356  50.8137
    51.1014  51.9500  52.6180  53.0327

          k = 0.0476 0.0952-0.1429 (   450 PWs)   bands (ev):

     9.5941   9.6005  11.0243  11.0272  11.9306  11.9320  12.1666  12.1782
    12.5241  12.5295  12.7113  12.7217  13.2669  13.2695  13.4493  13.4511
    14.2770  14.2827  14.5775  14.5821  15.1295  15.1316  17.6704  17.6778
    22.2073  22.2126  25.9742  25.9775  29.6471  29.6520  33.2224  33.2227
    33.4389  33.4435  37.0462  37.0789  40.2408  40.2472  40.6070  40.6135
    45.3835  45.3851  45.8707  45.8885  47.8477  47.8579  50.8373  50.8506
    51.9012  51.9089  54.2683  54.2835

          k = 0.0476-0.1429-0.1429 (   432 PWs)   bands (ev):

    10.3734  10.3773  10.3773  10.3811  12.3338  12.3395  12.3395  12.3451
    12.5554  12.5622  12.5622  12.5690  13.2095  13.2124  13.2125  13.2155
    14.3025  14.3097  14.3097  14.3168  16.0562  16.0603  16.0603  16.0644
    23.8137  23.8174  23.8174  23.8212  31.1881  31.1910  31.1910  31.1940
    38.4001  38.4002  38.4014  38.4060  38.4196  38.4270  38.4271  38.4271
    46.7797  46.7799  46.7800  46.7810  47.0326  47.0461  47.0461  47.0590
    55.1075  55.1172  55.1172  55.1286

          k = 0.0952 0.0952 0.0952 (   456 PWs)   bands (ev):

     9.0409  10.6134  10.6135  10.6135  12.1271  12.1272  12.1272  12.6058
    12.8256  12.8256  12.8260  12.9556  12.9556  13.2298  13.2298  13.2299
    14.4022  14.4022  14.8157  14.8157  14.8157  16.6853  16.6853  16.6853
    21.8391  21.8391  21.8391  25.4851  32.6654  32.6654  32.6654  35.4288
    35.4290  35.4290  37.4112  37.4112  37.4112  37.7193  40.1867  40.1867
    44.6804  44.6804  47.9881  48.2022  48.2022  48.2025  48.3583  48.3584
    48.3584  52.6529  52.6530  52.6530

          k = 0.0952 0.0952-0.1429 (   440 PWs)   bands (ev):

     9.8676   9.8706  10.5737  10.5737  12.3211  12.3212  12.6314  12.6390
    12.8788  12.8885  12.9890  12.9897  13.0287  13.0288  13.0968  13.0968
    14.7165  14.7178  14.7444  14.7446  14.9410  14.9428  16.8737  16.8738
    20.9113  20.9114  23.3572  23.3609  33.5524  33.5524  34.8376  34.8377
    36.3444  36.3594  37.4614  37.4680  39.2030  39.2263  39.5226  39.5226
    44.9092  44.9093  45.1549  45.1684  46.2724  46.2772  48.7463  48.7464
    49.8729  49.8773  53.3824  53.3827

          k = 0.0952-0.1429-0.1429 (   448 PWs)   bands (ev):

    10.1838  10.1847  10.1847  10.1855  12.6691  12.6710  12.6711  12.6730
    12.9031  12.9052  12.9052  12.9073  13.3093  13.3145  13.3145  13.3196
    14.6502  14.6540  14.6540  14.6578  15.5606  15.5652  15.5652  15.5697
    21.5781  21.5812  21.5813  21.5844  35.2555  35.2587  35.2588  35.2620
    38.2905  38.2958  38.2958  38.3014  39.1474  39.1532  39.1532  39.1585
    44.3621  44.3677  44.3677  44.3731  45.4021  45.4043  45.4043  45.4064
    50.7618  50.7645  50.7645  50.7676

          k =-0.1429-0.1429-0.1429 (   432 PWs)   bands (ev):

    10.0994  10.0996  10.0996  10.0996  12.7904  12.7904  12.7904  12.7905
    12.7905  12.7905  12.7905  12.7905  14.2418  14.2419  14.2419  14.2420
    14.7875  14.7875  14.7876  14.7876  14.7876  14.7877  14.7877  14.7877
    20.7890  20.7890  20.7890  20.7890  36.8589  36.8592  36.8592  36.8592
    39.7623  39.7623  39.7623  39.7624  39.7624  39.7625  39.7625  39.7625
    43.1906  43.1906  43.1906  43.1907  43.1907  43.1908  43.1908  43.1908
    49.1272  49.1272  49.1272  49.1273

          k =-0.0476-0.0000 0.0476 (   451 PWs)   bands (ev):

     6.1359  10.4110  10.4110  10.6015  11.1596  11.1694  11.1695  12.6684
    13.0427  13.0470  13.7577  13.7951  13.7993  13.8184  14.0184  14.4176
    14.5442  14.5442  14.8164  14.8164  14.8876  16.7840  16.7840  19.0347
    24.2669  25.3208  26.5461  26.5462  28.4720  28.4721  29.0693  29.0694
    30.7604  36.2455  36.2944  37.2527  37.2527  37.4769  40.3838  40.3841
    41.3016  42.8596  43.6239  45.3294  46.7468  50.1311  50.5705  53.5254
    53.9056  55.5241  55.5244  56.4119

          k =-0.0476 0.0000 0.0952 (   440 PWs)   bands (ev):

     7.1680  10.0112  10.9291  11.0481  11.4443  11.4771  11.5188  12.3544
    12.7319  12.9016  13.0952  13.1392  13.3193  13.6420  14.0663  14.1516
    14.2225  14.3089  14.3387  14.8134  14.8231  15.2129  18.4300  20.8668
    22.3682  24.9462  25.7591  26.7830  27.6312  29.8343  30.0791  30.1337
    31.2250  33.9284  34.6264  37.9157  38.8373  40.4799  40.6773  41.0060
    41.3101  44.2775  45.3858  47.3176  47.8883  48.8156  50.0938  51.4508
    53.1023  53.3228  55.4083  57.0516

          k =-0.0952-0.0000 0.0952 (   439 PWs)   bands (ev):

     8.1204  10.6509  10.6510  11.4132  11.4940  11.7339  11.7342  12.2559
    12.4027  12.4027  12.5763  12.9768  13.4640  13.5378  13.8378  13.9767
    13.9768  14.3427  14.3427  14.5340  14.6108  16.3579  16.3579  19.6847
    22.4176  25.4717  27.0606  27.0607  28.0990  28.0992  31.2520  31.8551
    31.8567  31.9248  33.7775  37.0293  41.5812  42.0502  42.0502  43.3665
    43.4082  43.9402  43.9403  47.4675  47.6875  48.7610  48.7612  51.9566
    52.2178  52.3346  53.8297  55.4390

          k = 0.0476-0.0476 0.0476 (   440 PWs)   bands (ev):

     6.4852  10.5995  10.5995  10.5995  11.2622  11.2624  11.2624  12.6130
    13.0677  13.0678  13.4563  13.4563  13.4564  13.9302  13.9302  14.2236
    14.2237  14.2237  14.8882  14.8882  14.8882  17.4406  17.4406  17.4406
    25.5640  25.5641  25.5641  26.8765  26.8765  26.8765  31.2916  31.2916
    31.2917  33.6713  36.4373  36.4374  36.4375  39.1985  41.3600  41.3600
    43.0714  43.0715  43.0716  46.6327  47.8158  47.8158  52.1096  52.1096
    55.3850  55.3852  55.3852  55.9897

          k = 0.0476-0.0476 0.0952 (   439 PWs)   bands (ev):

     7.4852  10.2105  11.0608  11.0608  11.5041  11.5042  11.5608  12.3646
    12.7333  12.7333  12.8993  13.0997  13.1900  13.8343  13.8682  13.9318
    13.9323  14.2073  14.7756  14.8053  14.8055  15.4953  18.7738  18.7738
    23.0109  23.0109  26.8814  27.5163  27.5163  30.5435  30.5435  30.9965
    31.1588  32.8069  36.8927  37.8101  38.0677  38.9855  38.9856  42.5283
    43.7495  44.6398  47.2500  47.2501  48.1389  49.2099  50.4193  50.4193
    50.9460  53.1387  53.2692  56.0697

          k =-0.0952 0.0476 0.0476 (   439 PWs)   bands (ev):

     7.4852  10.2105  11.0608  11.0608  11.5041  11.5043  11.5608  12.3646
    12.7333  12.7333  12.8993  13.0997  13.1900  13.8343  13.8682  13.9317
    13.9324  14.2073  14.7756  14.8054  14.8055  15.4953  18.7738  18.7738
    23.0109  23.0110  26.8814  27.5163  27.5163  30.5434  30.5435  30.9965
    31.1588  32.8069  36.8927  37.8101  38.0677  38.9855  38.9856  42.5283
    43.7495  44.6398  47.2500  47.2500  48.1389  49.2098  50.4193  50.4193
    50.9460  53.1386  53.2692  56.0697

          k = 0.0476-0.0476-0.1429 (   454 PWs)   bands (ev):

     8.9263   8.9348  11.4891  11.4891  11.5571  11.5573  11.9648  11.9785
    12.3497  12.3498  12.8730  12.8887  13.4525  13.4565  13.7399  13.7400
    14.3532  14.3638  14.5233  14.5244  14.7573  14.7573  19.8548  19.8548
    21.5358  21.5358  28.4328  28.4335  28.6972  28.7016  29.1443  29.1456
    35.1226  35.1361  35.5162  35.5457  38.2966  38.3264  42.3124  42.3125
    44.9853  45.0025  45.5474  45.5475  49.5864  49.6088  51.0361  51.0433
    52.4159  52.4161  54.2379  54.2450

          k = 0.0952-0.0476 0.0952 (   447 PWs)   bands (ev):

     8.3735  10.6602  10.6603  11.1755  11.6694  11.8114  11.8116  12.3401
    12.5469  12.5470  12.6716  12.9885  13.1386  13.5935  13.5940  13.5967
    13.9593  14.5228  14.6719  14.6723  14.6897  16.4357  16.4357  18.9714
    21.2363  24.2207  24.2208  28.2309  28.2938  31.3147  31.3147  32.3354
    32.3355  34.1882  35.3962  37.0773  39.4822  39.4822  40.1907  43.3202
    43.9742  44.8981  46.6399  46.6399  49.4722  49.4723  50.5356  50.8137
    51.1014  51.9500  52.6180  53.0329

          k =-0.0952 0.0476 0.0952 (   447 PWs)   bands (ev):

     8.3735  10.6602  10.6603  11.1755  11.6694  11.8114  11.8116  12.3401
    12.5469  12.5470  12.6716  12.9885  13.1386  13.5935  13.5940  13.5967
    13.9593  14.5228  14.6719  14.6723  14.6897  16.4357  16.4357  18.9714
    21.2363  24.2207  24.2208  28.2309  28.2938  31.3147  31.3147  32.3354
    32.3355  34.1882  35.3962  37.0773  39.4822  39.4822  40.1907  43.3202
    43.9742  44.8981  46.6399  46.6399  49.4722  49.4723  50.5356  50.8137
    51.1014  51.9500  52.6180  53.0327

          k = 0.0952-0.0476-0.1429 (   450 PWs)   bands (ev):

     9.5941   9.6005  11.0243  11.0272  11.9306  11.9320  12.1666  12.1782
    12.5241  12.5295  12.7113  12.7217  13.2669  13.2695  13.4493  13.4511
    14.2770  14.2827  14.5775  14.5821  15.1295  15.1316  17.6704  17.6778
    22.2073  22.2126  25.9742  25.9775  29.6471  29.6520  33.2224  33.2227
    33.4389  33.4435  37.0462  37.0789  40.2408  40.2472  40.6070  40.6135
    45.3835  45.3851  45.8707  45.8885  47.8477  47.8579  50.8373  50.8506
    51.9012  51.9089  54.2686  54.2850

          k = 0.0952-0.0952 0.0952 (   456 PWs)   bands (ev):

     9.0409  10.6134  10.6135  10.6135  12.1271  12.1272  12.1272  12.6058
    12.8256  12.8256  12.8260  12.9556  12.9556  13.2298  13.2298  13.2299
    14.4022  14.4022  14.8156  14.8157  14.8157  16.6853  16.6853  16.6853
    21.8391  21.8391  21.8391  25.4851  32.6653  32.6654  32.6654  35.4289
    35.4289  35.4290  37.4111  37.4112  37.4113  37.7193  40.1867  40.1867
    44.6804  44.6804  47.9881  48.2021  48.2022  48.2026  48.3583  48.3584
    48.3584  52.6529  52.6530  52.6530

          k = 0.0952-0.0952-0.1429 (   440 PWs)   bands (ev):

     9.8676   9.8706  10.5737  10.5737  12.3211  12.3212  12.6314  12.6390
    12.8788  12.8885  12.9890  12.9897  13.0287  13.0288  13.0967  13.0968
    14.7165  14.7178  14.7444  14.7447  14.9410  14.9428  16.8737  16.8737
    20.9113  20.9114  23.3572  23.3609  33.5523  33.5524  34.8376  34.8377
    36.3444  36.3594  37.4614  37.4680  39.2030  39.2263  39.5225  39.5226
    44.9092  44.9093  45.1549  45.1684  46.2724  46.2772  48.7463  48.7464
    49.8729  49.8773  53.3824  53.3828

     the Fermi energy is    14.5593 ev

!    total energy              =    -343.62496700 Ry
     Harris-Foulkes estimate   =    -343.62496699 Ry
     estimated scf accuracy    <          4.7E-11 Ry

     The total energy is the sum of the following terms:

     one-electron contribution =      -5.97517753 Ry
     hartree contribution      =      60.24036492 Ry
     xc contribution           =    -120.53292815 Ry
     ewald contribution        =    -277.30859985 Ry
     Dispersion Correction     =      -0.04804196 Ry
     smearing contrib. (-TS)   =      -0.00058443 Ry

     total magnetization       =     2.83 Bohr mag/cell
     absolute magnetization    =     3.25 Bohr mag/cell

     convergence has been achieved in  11 iterations

     Forces acting on atoms (Ry/au):

     atom    1 type  1   force =    -0.00108512   -0.00108512    0.00108523
     atom    2 type  1   force =     0.00108500    0.00108500    0.00108500
     atom    3 type  1   force =    -0.00108512    0.00108523   -0.00108512
     atom    4 type  1   force =     0.00108523   -0.00108512   -0.00108512

     Total force =     0.003759     Total SCF correction =     0.000020


     entering subroutine stress ...

          total   stress  (Ry/bohr**3)                   (kbar)     P=    1.18
   0.00000802   0.00000002   0.00000002          1.18      0.00      0.00
   0.00000002   0.00000802   0.00000002          0.00      1.18      0.00
   0.00000002   0.00000002   0.00000802          0.00      0.00      1.18


     number of scf cycles    =   3
     number of bfgs steps    =   2

     enthalpy old            =    -343.6249489565 Ry
     enthalpy new            =    -343.6249669983 Ry

     CASE: enthalpy_new < enthalpy_old

     new trust radius        =       0.0049024105 bohr
     new conv_thr            =            1.0E-10 Ry

     new unit-cell volume =    289.35161 a.u.^3 (    42.87748 Ang^3 )

CELL_PARAMETERS (alat=  1.88972590)
   3.500068020   0.000003344   0.000003344
   0.000003344   3.500068020   0.000003344
   0.000003344   0.000003344   3.500068020

ATOMIC_POSITIONS (alat)
Ni1      1.754067882   1.754067882   0.003741268
Ni1      0.003737119   0.003737119   0.003737119
Ni1      1.754067882   0.003741268   1.754067882
Ni1      0.003741268   1.754067882   1.754067882



     Writing output data file Ni-ferromag.save
     NEW-OLD atomic charge density approx. for the potential

     Check: negative/imaginary core charge=   -0.000005    0.000000
     extrapolated charge   40.01506, renormalised to   40.00000

     total cpu time spent up to now is      487.5 secs

     Self-consistent Calculation

     iteration #  1     ecut=    20.00 Ry     beta=0.20
     Davidson diagonalization with overlap
     ethr =  1.00E-06,  avg # of iterations =  3.8

     total cpu time spent up to now is      505.5 secs

     total energy              =    -343.62494990 Ry
     Harris-Foulkes estimate   =    -343.60925100 Ry
     estimated scf accuracy    <       0.00007764 Ry

     total magnetization       =     2.84 Bohr mag/cell
     absolute magnetization    =     3.25 Bohr mag/cell

     iteration #  2     ecut=    20.00 Ry     beta=0.20
     Davidson diagonalization with overlap
     ethr =  1.94E-07,  avg # of iterations =  1.3

     total cpu time spent up to now is      515.2 secs

     total energy              =    -343.62499589 Ry
     Harris-Foulkes estimate   =    -343.62500137 Ry
     estimated scf accuracy    <       0.00003156 Ry

     total magnetization       =     2.83 Bohr mag/cell
     absolute magnetization    =     3.25 Bohr mag/cell

     iteration #  3     ecut=    20.00 Ry     beta=0.20
     Davidson diagonalization with overlap
     ethr =  7.89E-08,  avg # of iterations =  1.0

     total cpu time spent up to now is      524.9 secs

     total energy              =    -343.62498926 Ry
     Harris-Foulkes estimate   =    -343.62499681 Ry
     estimated scf accuracy    <       0.00001216 Ry

     total magnetization       =     2.83 Bohr mag/cell
     absolute magnetization    =     3.25 Bohr mag/cell

     iteration #  4     ecut=    20.00 Ry     beta=0.20
     Davidson diagonalization with overlap
     ethr =  3.04E-08,  avg # of iterations =  1.9

     total cpu time spent up to now is      535.3 secs

     total energy              =    -343.62499222 Ry
     Harris-Foulkes estimate   =    -343.62499860 Ry
     estimated scf accuracy    <       0.00001766 Ry

     total magnetization       =     2.84 Bohr mag/cell
     absolute magnetization    =     3.25 Bohr mag/cell

     iteration #  5     ecut=    20.00 Ry     beta=0.20
     Davidson diagonalization with overlap
     ethr =  3.04E-08,  avg # of iterations =  1.0

     total cpu time spent up to now is      544.8 secs

     total energy              =    -343.62499425 Ry
     Harris-Foulkes estimate   =    -343.62499440 Ry
     estimated scf accuracy    <       0.00000055 Ry

     total magnetization       =     2.84 Bohr mag/cell
     absolute magnetization    =     3.25 Bohr mag/cell

     iteration #  6     ecut=    20.00 Ry     beta=0.20
     Davidson diagonalization with overlap
     ethr =  1.37E-09,  avg # of iterations =  1.0

     total cpu time spent up to now is      554.3 secs

     total energy              =    -343.62499446 Ry
     Harris-Foulkes estimate   =    -343.62499438 Ry
     estimated scf accuracy    <       0.00000004 Ry

     total magnetization       =     2.83 Bohr mag/cell
     absolute magnetization    =     3.25 Bohr mag/cell

     iteration #  7     ecut=    20.00 Ry     beta=0.20
     Davidson diagonalization with overlap
     ethr =  9.06E-11,  avg # of iterations =  1.8

     total cpu time spent up to now is      564.5 secs

     total energy              =    -343.62499436 Ry
     Harris-Foulkes estimate   =    -343.62499448 Ry
     estimated scf accuracy    <       0.00000021 Ry

     total magnetization       =     2.83 Bohr mag/cell
     absolute magnetization    =     3.25 Bohr mag/cell

     iteration #  8     ecut=    20.00 Ry     beta=0.20
     Davidson diagonalization with overlap
     ethr =  9.06E-11,  avg # of iterations =  2.3

     total cpu time spent up to now is      576.8 secs

     total energy              =    -343.62499452 Ry
     Harris-Foulkes estimate   =    -343.62499459 Ry
     estimated scf accuracy    <       0.00000050 Ry

     total magnetization       =     2.84 Bohr mag/cell
     absolute magnetization    =     3.25 Bohr mag/cell

     iteration #  9     ecut=    20.00 Ry     beta=0.20
     Davidson diagonalization with overlap
     ethr =  9.06E-11,  avg # of iterations =  1.1

     total cpu time spent up to now is      586.4 secs

     total energy              =    -343.62499456 Ry
     Harris-Foulkes estimate   =    -343.62499454 Ry
     estimated scf accuracy    <       0.00000016 Ry

     total magnetization       =     2.84 Bohr mag/cell
     absolute magnetization    =     3.25 Bohr mag/cell

     iteration # 10     ecut=    20.00 Ry     beta=0.20
     Davidson diagonalization with overlap
     ethr =  9.06E-11,  avg # of iterations =  1.0

     total cpu time spent up to now is      595.9 secs

     total energy              =    -343.62499450 Ry
     Harris-Foulkes estimate   =    -343.62499456 Ry
     estimated scf accuracy    <       0.00000018 Ry

     total magnetization       =     2.84 Bohr mag/cell
     absolute magnetization    =     3.25 Bohr mag/cell

     iteration # 11     ecut=    20.00 Ry     beta=0.20
     Davidson diagonalization with overlap
     ethr =  9.06E-11,  avg # of iterations =  2.0

     Magnetic moment per site:
     atom:    1    charge:    2.9986    magn:    0.3336    constr:    0.0000
     atom:    2    charge:    2.9968    magn:    0.3335    constr:    0.0000
     atom:    3    charge:    2.9986    magn:    0.3336    constr:    0.0000
     atom:    4    charge:    2.9986    magn:    0.3336    constr:    0.0000

     total cpu time spent up to now is      606.6 secs

     End of self-consistent calculation

 ------ SPIN UP ------------


          k = 0.0000 0.0000 0.0000 (   461 PWs)   bands (ev):

     5.4594   9.7571   9.7572   9.7572  10.2111  10.2111  10.2111  11.9990
    11.9990  11.9990  13.1827  13.1827  13.9039  13.9039  13.9039  13.9948
    13.9948  13.9948  13.9948  13.9948  13.9948  17.1196  17.1196  17.1196
    23.9006  23.9006  23.9006  29.6403  29.6403  29.6403  29.6404  29.6404
    29.6404  34.7546  34.7546  34.7546  38.1210  38.1212  38.1212  38.5818
    42.5710  42.5711  42.5711  46.4102  46.4103  46.4103  48.2865  55.3118
    55.3118  55.3118  59.1377  59.7926

          k =-0.0000-0.0000 0.0476 (   449 PWs)   bands (ev):

     5.8263   9.7791   9.9421   9.9421  10.3231  10.3391  10.3391  11.8697
    12.1016  12.1017  13.0642  13.2296  13.3358  13.3358  13.7497  13.7497
    13.8184  13.8184  13.8542  13.9953  13.9953  15.5206  18.0857  18.0857
    23.9993  23.9993  26.1576  27.9030  27.9030  28.5206  28.5207  30.2036
    30.2037  34.9415  36.9785  36.9785  37.9728  38.2546  40.0822  40.0823
    40.3949  40.3950  41.0169  47.8240  48.3973  48.3974  49.2789  51.7582
    56.4637  56.4637  56.8372  56.8372

          k =-0.0000-0.0000 0.0952 (   446 PWs)   bands (ev):

     6.8778   9.5468  10.3805  10.3806  10.6320  10.7238  10.7238  11.5241
    12.2749  12.2749  12.3994  12.3994  12.7746  13.3571  13.3589  13.3692
    13.3692  13.3773  13.3773  13.7196  13.9957  13.9957  20.0577  20.0577
    24.3195  24.3196  25.1298  25.1298  26.7577  26.7577  30.4642  31.7979
    31.7980  35.2835  36.8859  37.1625  37.1626  38.4885  38.7941  41.0214
    41.0214  44.2638  44.2638  44.3055  51.2036  51.2037  51.2181  51.2181
    51.2347  55.2568  56.4496  56.4497

          k = 0.0000 0.0000-0.1429 (   466 PWs)   bands (ev):

     8.3798   8.3806  10.6577  10.6577  11.0680  11.0692  11.3719  11.3719
    11.3731  11.3731  12.5946  12.5963  12.8531  12.8531  12.8540  12.8540
    13.1193  13.1193  13.5374  13.5380  13.9960  13.9960  22.4560  22.4560
    22.4582  22.4582  24.6986  24.6986  25.8154  25.8154  34.1788  34.1789
    34.1803  34.1804  35.0243  35.0275  35.9000  35.9009  40.3804  40.3855
    45.8349  45.8349  45.8397  45.8397  47.7499  47.7500  52.6722  52.6723
    54.2932  54.2933  54.2973  54.2973

          k =-0.0000 0.0476 0.0476 (   451 PWs)   bands (ev):

     6.1845   9.9783   9.9783  10.1059  10.4407  10.4407  10.4552  11.8092
    12.1469  12.1639  12.9877  13.0393  13.0464  13.0465  13.2248  13.6205
    13.7455  13.7455  13.8168  13.8168  13.8786  16.4603  16.4603  18.8599
    24.0000  25.1812  26.3481  26.3481  28.3795  28.3795  29.0166  29.0166
    30.7377  36.1811  36.2467  37.1737  37.1737  37.4494  40.2514  40.2515
    41.3694  42.7590  43.6419  45.3733  46.6839  49.9561  50.6341  53.3839
    53.8975  55.5556  55.5556  56.4571

          k =-0.0000 0.0476 0.0952 (   440 PWs)   bands (ev):

     7.2083   9.7838  10.4620  10.5114  10.7242  10.7771  10.7968  11.5268
    12.0353  12.1757  12.2930  12.4112  12.4346  12.8713  13.2950  13.3748
    13.3807  13.4048  13.5570  13.8136  13.8198  14.4956  18.0828  20.6542
    22.1617  24.7085  25.5996  26.6412  27.4930  29.7175  30.0104  30.0508
    31.1157  33.8414  34.5734  37.8680  38.7906  40.5196  40.7210  40.8708
    41.3036  44.1812  45.1635  47.2389  47.9548  48.8255  50.1002  51.5149
    53.1387  53.3991  55.2004  56.8231

          k = 0.0000 0.0476-0.1429 (   448 PWs)   bands (ev):

     8.6625   8.6633  10.8103  10.8103  11.1202  11.1214  11.2388  11.2398
    11.3864  11.3876  12.2208  12.2221  12.8540  12.8549  13.0836  13.0841
    13.1042  13.1043  13.7220  13.7220  13.8110  13.8112  19.9559  19.9570
    22.9585  22.9604  25.5059  25.5074  28.4028  28.4034  31.6232  31.6238
    32.1310  32.1314  35.9643  35.9680  38.9794  38.9796  42.3358  42.3389
    43.2437  43.2449  46.1115  46.1160  50.2679  50.2718  50.5354  50.5372
    52.8060  52.8076  53.5730  53.5741

          k =-0.0000 0.0952 0.0952 (   439 PWs)   bands (ev):

     8.1371  10.3730  10.3730  10.7438  10.9932  10.9932  11.0051  11.4564
    11.7040  11.7041  11.8589  12.1795  12.5426  12.7848  13.0780  13.2334
    13.2334  13.3753  13.3753  13.5466  13.7619  15.7442  15.7443  19.3682
    22.1903  25.2638  26.8864  26.8865  27.9871  27.9872  31.1128  31.7573
    31.7573  31.8459  33.7136  36.9854  41.6321  42.0615  42.0615  43.3221
    43.5137  43.8827  43.8828  47.3337  47.6565  48.7072  48.7072  51.8871
    52.3287  52.3697  53.6300  55.5250

          k = 0.0000 0.0952-0.1429 (   448 PWs)   bands (ev):

     9.4070   9.4077  10.8461  10.8469  11.2475  11.2486  11.2553  11.2553
    11.4052  11.4063  11.9140  11.9148  12.8904  12.8905  12.8917  12.8926
    12.9578  12.9579  13.4103  13.4108  14.4247  14.4249  17.2789  17.2797
    24.3271  24.3286  26.3244  26.3256  28.7610  28.7617  29.6395  29.6397
    33.0614  33.0617  36.9320  36.9357  40.4888  40.4895  43.1989  43.1996
    43.3456  43.3459  46.9188  46.9225  48.1371  48.1391  50.6315  50.6335
    52.0230  52.0262  53.7265  53.7272

          k = 0.0000-0.1429-0.1429 (   428 PWs)   bands (ev):

    10.2637  10.2642  10.2643  10.2648  11.3667  11.3678  11.3678  11.3688
    11.6775  11.6778  11.6778  11.6781  12.7439  12.7440  12.7440  12.7441
    13.0595  13.0604  13.0604  13.0613  15.4970  15.4974  15.4974  15.4978
    26.3229  26.3239  26.3239  26.3249  27.6993  27.7000  27.7001  27.7008
    38.0463  38.0472  38.0473  38.0482  38.6360  38.6371  38.6371  38.6382
    47.3108  47.3108  47.3109  47.3110  49.4812  49.4834  49.4834  49.4855
    52.0412  52.0412  52.0413  52.0414

          k = 0.0476 0.0476 0.0476 (   440 PWs)   bands (ev):

     6.5310  10.1398  10.1398  10.1398  10.5565  10.5565  10.5565  11.7739
    12.1836  12.1836  12.7406  12.7407  12.7407  13.1376  13.1376  13.3863
    13.3863  13.3863  13.9331  13.9331  13.9331  17.0907  17.0907  17.0907
    25.4253  25.4253  25.4253  26.6928  26.6928  26.6928  31.2582  31.2582
    31.2582  33.5955  36.3346  36.3346  36.3346  39.3434  41.2980  41.2980
    42.9749  42.9750  42.9750  46.7059  47.8479  47.8479  51.9331  51.9331
    55.4199  55.4199  55.4199  55.6638

          k = 0.0476 0.0476 0.0952 (   439 PWs)   bands (ev):

     7.5149   9.9433  10.5246  10.5246  10.8430  10.8706  10.8706  11.5633
    12.0257  12.0257  12.2217  12.2629  12.3235  12.9820  13.0526  13.1388
    13.1388  13.3785  13.8354  13.8354  13.8677  14.8569  18.4384  18.4384
    22.7923  22.7923  26.7295  27.3582  27.3582  30.4580  30.4580  30.8743
    31.0615  32.7489  36.8101  37.8964  37.9796  38.9463  38.9463  42.5099
    43.6566  44.6067  47.1942  47.1943  48.0902  49.2540  50.4216  50.4217
    50.9295  53.2001  53.3001  55.9428

          k = 0.0476 0.0476-0.1429 (   454 PWs)   bands (ev):

     8.8903   8.8910  10.9130  10.9130  10.9705  10.9705  11.2149  11.2160
    11.6304  11.6304  12.1248  12.1260  12.5977  12.5981  12.9702  12.9702
    13.5466  13.5475  13.6560  13.6562  13.7788  13.7788  19.5890  19.5890
    21.2226  21.2226  28.3098  28.3099  28.5481  28.5485  29.0177  29.0177
    35.0480  35.0492  35.5494  35.5520  38.2210  38.2236  42.3185  42.3185
    44.8921  44.8935  45.5505  45.5505  49.6652  49.6672  51.0751  51.0757
    52.3696  52.3697  54.0629  54.0629

          k = 0.0476 0.0952 0.0952 (   447 PWs)   bands (ev):

     8.3562  10.2631  10.2631  10.5521  11.1579  11.2043  11.2043  11.6077
    11.8214  11.8214  11.9546  12.1817  12.3084  12.7886  12.7886  12.8051
    13.1095  13.6673  13.7374  13.7525  13.7525  15.8739  15.8739  18.6880
    20.8835  23.9951  23.9951  28.0652  28.1522  31.2417  31.2417  32.2312
    32.2312  34.1216  35.3618  37.0432  39.4571  39.4572  40.2543  43.1914
    43.9789  44.9434  46.6348  46.6348  49.4077  49.4077  50.5928  50.8216
    51.1148  51.8679  52.5465  53.0931

          k = 0.0476 0.0952-0.1429 (   450 PWs)   bands (ev):

     9.4427   9.4431  10.4861  10.4862  11.3725  11.3725  11.5202  11.5211
    11.8272  11.8276  11.9499  11.9507  12.4580  12.4583  12.6697  12.6698
    13.4080  13.4084  13.6371  13.6375  14.3301  14.3303  17.2541  17.2548
    21.9004  21.9010  25.7672  25.7676  29.5389  29.5393  33.1562  33.1564
    33.3609  33.3612  37.0388  37.0418  40.2476  40.2482  40.5746  40.5752
    45.3883  45.3885  45.8791  45.8806  47.8594  47.8603  50.7971  50.7983
    51.9529  51.9536  54.1869  54.1878

          k = 0.0476-0.1429-0.1429 (   432 PWs)   bands (ev):

    10.0157  10.0158  10.0159  10.0160  11.7659  11.7662  11.7662  11.7665
    11.8502  11.8508  11.8508  11.8515  12.4291  12.4294  12.4294  12.4297
    13.3907  13.3913  13.3913  13.3918  15.4061  15.4065  15.4065  15.4069
    23.5511  23.5515  23.5515  23.5519  31.0991  31.0993  31.0993  31.0995
    38.3259  38.3267  38.3267  38.3275  38.4548  38.4558  38.4558  38.4568
    46.8398  46.8399  46.8399  46.8400  47.0130  47.0141  47.0142  47.0153
    55.0401  55.0409  55.0410  55.0419

          k = 0.0952 0.0952 0.0952 (   456 PWs)   bands (ev):

     8.9028  10.0989  10.0989  10.0989  11.5641  11.5641  11.5641  12.0769
    12.1405  12.1405  12.1405  12.1486  12.1486  12.4329  12.4329  12.4329
    13.5148  13.5148  13.8813  13.8813  13.8813  16.2500  16.2500  16.2500
    21.4911  21.4911  21.4911  25.2513  32.6089  32.6090  32.6090  35.3553
    35.3554  35.3554  37.3881  37.3882  37.3882  37.8803  40.0880  40.0880
    44.6643  44.6643  47.9650  48.2428  48.2428  48.2428  48.3481  48.3481
    48.3481  52.6075  52.6076  52.6076

          k = 0.0952 0.0952-0.1429 (   440 PWs)   bands (ev):

     9.5321   9.5322  10.0306  10.0306  11.6852  11.6852  11.9731  11.9738
    12.1914  12.1915  12.3122  12.3122  12.3214  12.3221  12.4237  12.4237
    13.8017  13.8018  13.8094  13.8094  14.2182  14.2182  16.5328  16.5328
    20.4655  20.4655  23.0608  23.0612  33.5365  33.5365  34.7392  34.7392
    36.4537  36.4550  37.3805  37.3811  39.1194  39.1215  39.5347  39.5347
    44.8761  44.8762  45.1780  45.1792  46.2601  46.2605  48.7776  48.7776
    49.8134  49.8138  53.2719  53.2719

          k = 0.0952-0.1429-0.1429 (   448 PWs)   bands (ev):

     9.7092   9.7092   9.7092   9.7092  11.9327  11.9329  11.9329  11.9331
    12.1234  12.1236  12.1236  12.1238  12.8701  12.8705  12.8705  12.8709
    13.7289  13.7292  13.7293  13.7296  15.0230  15.0235  15.0235  15.0240
    21.1790  21.1794  21.1794  21.1797  35.2765  35.2767  35.2768  35.2769
    38.3127  38.3133  38.3133  38.3138  39.0701  39.0706  39.0706  39.0711
    44.3287  44.3291  44.3292  44.3296  45.4050  45.4052  45.4052  45.4054
    50.6666  50.6669  50.6669  50.6672

          k =-0.1429-0.1429-0.1429 (   432 PWs)   bands (ev):

     9.5933   9.5933   9.5933   9.5933  12.0116  12.0116  12.0116  12.0117
    12.0117  12.0117  12.0117  12.0117  13.8575  13.8575  13.8575  13.8575
    13.8575  13.8575  13.8575  13.8575  14.3345  14.3345  14.3346  14.3346
    20.2977  20.2977  20.2977  20.2978  37.0329  37.0331  37.0331  37.0331
    39.6771  39.6771  39.6771  39.6772  39.6772  39.6772  39.6773  39.6773
    43.1603  43.1603  43.1603  43.1603  43.1603  43.1603  43.1604  43.1604
    49.0036  49.0036  49.0036  49.0036

          k =-0.0476 0.0000 0.0476 (   451 PWs)   bands (ev):

     6.1845   9.9783   9.9783  10.1059  10.4407  10.4407  10.4552  11.8092
    12.1469  12.1639  12.9877  13.0393  13.0464  13.0464  13.2248  13.6205
    13.7455  13.7455  13.8168  13.8168  13.8786  16.4603  16.4603  18.8599
    24.0000  25.1812  26.3481  26.3482  28.3795  28.3795  29.0166  29.0166
    30.7376  36.1811  36.2468  37.1737  37.1737  37.4495  40.2514  40.2515
    41.3693  42.7591  43.6418  45.3733  46.6838  49.9560  50.6341  53.3839
    53.8976  55.5557  55.5557  56.4570

          k =-0.0476-0.0000 0.0952 (   440 PWs)   bands (ev):

     7.2083   9.7838  10.4620  10.5114  10.7242  10.7771  10.7968  11.5268
    12.0353  12.1756  12.2930  12.4112  12.4346  12.8713  13.2950  13.3748
    13.3807  13.4048  13.5570  13.8136  13.8198  14.4956  18.0827  20.6542
    22.1617  24.7085  25.5996  26.6412  27.4930  29.7175  30.0104  30.0507
    31.1157  33.8415  34.5734  37.8680  38.7905  40.5195  40.7209  40.8708
    41.3037  44.1812  45.1634  47.2390  47.9547  48.8255  50.1003  51.5149
    53.1388  53.3991  55.2003  56.8231

          k =-0.0952 0.0000 0.0952 (   439 PWs)   bands (ev):

     8.1371  10.3730  10.3730  10.7438  10.9932  10.9932  11.0051  11.4564
    11.7040  11.7040  11.8589  12.1795  12.5426  12.7848  13.0780  13.2334
    13.2334  13.3753  13.3754  13.5466  13.7619  15.7442  15.7442  19.3682
    22.1903  25.2638  26.8864  26.8864  27.9871  27.9872  31.1128  31.7574
    31.7574  31.8460  33.7135  36.9854  41.6320  42.0616  42.0616  43.3220
    43.5137  43.8828  43.8829  47.3336  47.6564  48.7072  48.7072  51.8873
    52.3287  52.3697  53.6299  55.5250

          k = 0.0476-0.0476 0.0476 (   440 PWs)   bands (ev):

     6.5310  10.1398  10.1398  10.1398  10.5565  10.5565  10.5565  11.7739
    12.1836  12.1837  12.7406  12.7406  12.7406  13.1376  13.1376  13.3863
    13.3863  13.3863  13.9331  13.9331  13.9331  17.0907  17.0907  17.0907
    25.4253  25.4254  25.4254  26.6928  26.6929  26.6929  31.2581  31.2581
    31.2582  33.5957  36.3345  36.3345  36.3346  39.3433  41.2979  41.2980
    42.9750  42.9751  42.9751  46.7059  47.8478  47.8479  51.9330  51.9331
    55.4199  55.4199  55.4200  55.6638

          k = 0.0476-0.0476 0.0952 (   439 PWs)   bands (ev):

     7.5149   9.9433  10.5246  10.5246  10.8430  10.8706  10.8706  11.5633
    12.0257  12.0257  12.2217  12.2630  12.3235  12.9820  13.0526  13.1388
    13.1388  13.3785  13.8354  13.8354  13.8677  14.8569  18.4383  18.4384
    22.7923  22.7923  26.7295  27.3582  27.3582  30.4579  30.4580  30.8745
    31.0615  32.7488  36.8100  37.8964  37.9795  38.9462  38.9463  42.5099
    43.6567  44.6067  47.1943  47.1944  48.0902  49.2540  50.4216  50.4217
    50.9295  53.2001  53.3001  55.9427

          k =-0.0952 0.0476 0.0476 (   439 PWs)   bands (ev):

     7.5149   9.9433  10.5246  10.5246  10.8430  10.8706  10.8706  11.5633
    12.0257  12.0257  12.2217  12.2629  12.3236  12.9820  13.0526  13.1388
    13.1388  13.3785  13.8354  13.8354  13.8676  14.8569  18.4383  18.4383
    22.7923  22.7923  26.7294  27.3582  27.3582  30.4579  30.4579  30.8744
    31.0615  32.7489  36.8101  37.8964  37.9796  38.9462  38.9463  42.5098
    43.6567  44.6065  47.1944  47.1944  48.0901  49.2540  50.4217  50.4217
    50.9295  53.2002  53.3001  55.9428

          k = 0.0476-0.0476-0.1429 (   454 PWs)   bands (ev):

     8.8903   8.8910  10.9130  10.9130  10.9705  10.9705  11.2149  11.2160
    11.6304  11.6304  12.1248  12.1260  12.5977  12.5981  12.9702  12.9702
    13.5466  13.5475  13.6560  13.6562  13.7788  13.7788  19.5890  19.5890
    21.2226  21.2226  28.3099  28.3099  28.5482  28.5486  29.0177  29.0177
    35.0479  35.0491  35.5494  35.5520  38.2210  38.2236  42.3184  42.3186
    44.8922  44.8936  45.5505  45.5505  49.6652  49.6672  51.0751  51.0757
    52.3696  52.3697  54.0629  54.0630

          k = 0.0952-0.0476 0.0952 (   447 PWs)   bands (ev):

     8.3562  10.2631  10.2632  10.5521  11.1579  11.2043  11.2043  11.6077
    11.8214  11.8214  11.9546  12.1817  12.3084  12.7886  12.7886  12.8051
    13.1095  13.6673  13.7374  13.7525  13.7525  15.8739  15.8739  18.6879
    20.8835  23.9952  23.9952  28.0653  28.1522  31.2417  31.2417  32.2312
    32.2312  34.1216  35.3617  37.0432  39.4570  39.4571  40.2543  43.1913
    43.9788  44.9434  46.6348  46.6349  49.4078  49.4078  50.5929  50.8216
    51.1147  51.8680  52.5465  53.0932

          k =-0.0952 0.0476 0.0952 (   447 PWs)   bands (ev):

     8.3562  10.2631  10.2631  10.5521  11.1579  11.2043  11.2043  11.6077
    11.8214  11.8214  11.9546  12.1817  12.3083  12.7886  12.7886  12.8051
    13.1095  13.6673  13.7374  13.7525  13.7525  15.8739  15.8739  18.6880
    20.8835  23.9951  23.9952  28.0653  28.1522  31.2416  31.2417  32.2312
    32.2312  34.1215  35.3618  37.0432  39.4571  39.4572  40.2543  43.1913
    43.9788  44.9433  46.6349  46.6349  49.4078  49.4078  50.5928  50.8215
    51.1148  51.8678  52.5466  53.0931

          k = 0.0952-0.0476-0.1429 (   450 PWs)   bands (ev):

     9.4427   9.4431  10.4861  10.4862  11.3725  11.3725  11.5202  11.5211
    11.8272  11.8276  11.9499  11.9507  12.4580  12.4583  12.6696  12.6698
    13.4080  13.4084  13.6371  13.6375  14.3301  14.3303  17.2541  17.2548
    21.9004  21.9009  25.7673  25.7676  29.5390  29.5393  33.1562  33.1563
    33.3609  33.3613  37.0388  37.0418  40.2475  40.2482  40.5746  40.5751
    45.3883  45.3885  45.8791  45.8806  47.8595  47.8603  50.7971  50.7983
    51.9530  51.9537  54.1869  54.1878

          k = 0.0952-0.0952 0.0952 (   456 PWs)   bands (ev):

     8.9028  10.0989  10.0989  10.0989  11.5641  11.5641  11.5641  12.0769
    12.1405  12.1405  12.1405  12.1486  12.1486  12.4329  12.4329  12.4329
    13.5148  13.5148  13.8813  13.8813  13.8813  16.2500  16.2500  16.2500
    21.4911  21.4911  21.4911  25.2514  32.6090  32.6090  32.6090  35.3553
    35.3553  35.3554  37.3881  37.3881  37.3882  37.8802  40.0879  40.0880
    44.6642  44.6642  47.9650  48.2428  48.2429  48.2429  48.3481  48.3481
    48.3482  52.6076  52.6077  52.6077

          k = 0.0952-0.0952-0.1429 (   440 PWs)   bands (ev):

     9.5321   9.5322  10.0306  10.0306  11.6852  11.6852  11.9731  11.9738
    12.1914  12.1915  12.3122  12.3122  12.3214  12.3221  12.4237  12.4237
    13.8017  13.8018  13.8094  13.8094  14.2182  14.2182  16.5328  16.5328
    20.4655  20.4655  23.0609  23.0612  33.5365  33.5366  34.7393  34.7393
    36.4537  36.4550  37.3804  37.3810  39.1193  39.1214  39.5347  39.5348
    44.8761  44.8762  45.1780  45.1792  46.2601  46.2605  48.7776  48.7777
    49.8134  49.8138  53.2719  53.2720

 ------ SPIN DOWN ----------


          k = 0.0000 0.0000 0.0000 (   461 PWs)   bands (ev):

     5.4050  10.2187  10.2187  10.2187  10.9286  10.9286  10.9286  12.8793
    12.8793  12.8793  13.9624  13.9624  14.7176  14.7176  14.7176  15.0038
    15.0038  15.0038  15.0038  15.0038  15.0038  17.0409  17.0409  17.0409
    24.2054  24.2055  24.2055  29.6271  29.6271  29.6272  29.6272  29.6273
    29.6273  34.9165  34.9165  34.9165  38.2646  38.2648  38.2648  38.3754
    42.5415  42.5416  42.5416  46.4689  46.4690  46.4690  48.1248  55.5019
    55.5020  55.5020  59.7345  59.7546

          k =-0.0000-0.0000 0.0476 (   449 PWs)   bands (ev):

     5.7718  10.1943  10.4138  10.4138  11.0499  11.0544  11.0544  12.7367
    12.9859  12.9860  13.8343  14.0115  14.1541  14.1541  14.5498  14.5498
    14.6655  14.8106  14.8106  15.0043  15.0043  15.5906  18.1936  18.1936
    24.2888  24.2888  26.3583  27.9702  27.9702  28.5483  28.5483  30.2065
    30.2066  35.0863  37.0549  37.0549  37.8295  38.3958  40.2027  40.2028
    40.4328  40.4329  40.9461  47.8337  48.3623  48.3624  49.3472  51.7447
    56.6740  56.6741  56.7620  56.7620

          k =-0.0000-0.0000 0.0952 (   446 PWs)   bands (ev):

     6.8276   9.7544  10.8767  10.8767  11.3841  11.4337  11.4337  12.3568
    13.0032  13.0032  13.2967  13.2967  13.5118  13.7278  14.1358  14.1358
    14.1467  14.3332  14.3332  14.5243  15.0048  15.0048  20.2430  20.2430
    24.5644  24.5644  25.2689  25.2689  26.8564  26.8564  30.5582  31.8341
    31.8342  35.3916  36.8431  37.2316  37.2317  38.3949  38.9410  41.0219
    41.0219  44.3622  44.3622  44.5235  51.1057  51.1058  51.1408  51.1408
    51.1825  55.1407  56.6623  56.6623

          k = 0.0000 0.0000-0.1429 (   466 PWs)   bands (ev):

     8.3733   8.3742  11.1696  11.1696  11.8580  11.8593  12.0806  12.0806
    12.0818  12.0818  13.2421  13.2440  13.7744  13.7744  13.7754  13.7754
    13.8648  13.8649  14.3335  14.3342  15.0051  15.0051  22.6364  22.6364
    22.6386  22.6386  24.8931  24.8931  25.9734  25.9734  34.2434  34.2435
    34.2449  34.2450  35.0018  35.0050  35.9470  35.9480  40.5745  40.5796
    45.7854  45.7854  45.7902  45.7902  47.8235  47.8236  52.8502  52.8502
    54.1824  54.1825  54.1865  54.1865

          k =-0.0000 0.0476 0.0476 (   451 PWs)   bands (ev):

     6.1310  10.4060  10.4060  10.5966  11.1545  11.1643  11.1643  12.6624
    13.0366  13.0409  13.7512  13.7926  13.7927  13.8076  14.0116  14.4107
    14.5371  14.5371  14.8092  14.8093  14.8803  16.7760  16.7761  19.0262
    24.2568  25.3102  26.5354  26.5355  28.4613  28.4614  29.0580  29.0580
    30.7491  36.2338  36.2816  37.2401  37.2402  37.4642  40.3691  40.3692
    41.2889  42.8447  43.6101  45.3156  46.7318  50.1132  50.5558  53.5078
    53.8899  55.5084  55.5084  56.3961

          k =-0.0000 0.0476 0.0952 (   440 PWs)   bands (ev):

     7.1629  10.0059  10.9239  11.0430  11.4390  11.4719  11.5136  12.3485
    12.7258  12.8955  13.0898  13.1320  13.3130  13.6354  14.0595  14.1451
    14.2158  14.3018  14.3317  14.8064  14.8157  15.2055  18.4215  20.8578
    22.3588  24.9355  25.7488  26.7728  27.6196  29.8230  30.0700  30.1206
    31.2129  33.9165  34.6142  37.9032  38.8244  40.4672  40.6647  40.9910
    41.2970  44.2623  45.3686  47.3020  47.8743  48.8008  50.0785  51.4357
    53.0868  53.3078  55.3909  57.0358

          k = 0.0000 0.0476-0.1429 (   448 PWs)   bands (ev):

     8.6682   8.6690  11.3129  11.3130  11.9031  11.9044  11.9151  11.9161
    12.0978  12.0991  12.9612  12.9627  13.7779  13.7789  13.8532  13.8534
    13.8537  13.8539  14.5601  14.5601  14.8047  14.8049  20.2371  20.2381
    23.1502  23.1521  25.6765  25.6781  28.5192  28.5198  31.7340  31.7345
    32.1875  32.1878  35.9862  35.9900  38.9754  38.9755  42.4892  42.4925
    43.2346  43.2360  46.0583  46.0629  50.3280  50.3318  50.4634  50.4652
    52.7177  52.7193  53.7302  53.7313

          k =-0.0000 0.0952 0.0952 (   439 PWs)   bands (ev):

     8.1151  10.6455  10.6455  11.4079  11.4886  11.7287  11.7287  12.2500
    12.3968  12.3968  12.5704  12.9705  13.4577  13.5313  13.8310  13.9701
    13.9701  14.3357  14.3357  14.5269  14.6037  16.3499  16.3500  19.6758
    22.4082  25.4610  27.0503  27.0503  28.0878  28.0879  31.2404  31.8448
    31.8449  31.9114  33.7653  37.0168  41.5682  42.0370  42.0370  43.3524
    43.3953  43.9254  43.9254  47.4509  47.6726  48.7455  48.7456  51.9399
    52.2031  52.3192  53.8128  55.4242

          k = 0.0000 0.0952-0.1429 (   448 PWs)   bands (ev):

     9.4682   9.4689  11.2647  11.2654  11.8953  11.8953  12.0099  12.0111
    12.1254  12.1265  12.6505  12.6514  13.6244  13.6244  13.6986  13.6988
    13.8249  13.8259  14.3783  14.3789  15.2305  15.2307  17.7432  17.7440
    24.5300  24.5314  26.4753  26.4766  28.9210  28.9216  29.7286  29.7289
    33.1317  33.1321  36.9566  36.9602  40.4856  40.4862  43.1397  43.1403
    43.3649  43.3652  46.8513  46.8550  48.2132  48.2153  50.5733  50.5754
    52.1349  52.1381  53.6378  53.6385

          k = 0.0000-0.1429-0.1429 (   428 PWs)   bands (ev):

    10.4823  10.4829  10.4830  10.4836  12.1043  12.1055  12.1055  12.1066
    12.3469  12.3472  12.3472  12.3476  13.4811  13.4812  13.4812  13.4814
    14.0081  14.0090  14.0090  14.0100  16.1789  16.1792  16.1792  16.1796
    26.5146  26.5155  26.5155  26.5164  27.8209  27.8218  27.8218  27.8227
    38.1184  38.1193  38.1194  38.1203  38.5982  38.5992  38.5992  38.6003
    47.1884  47.1885  47.1886  47.1887  49.4589  49.4611  49.4611  49.4633
    52.1374  52.1375  52.1376  52.1377

          k = 0.0476 0.0476 0.0476 (   440 PWs)   bands (ev):

     6.4803  10.5945  10.5945  10.5945  11.2571  11.2571  11.2571  12.6070
    13.0616  13.0616  13.4499  13.4499  13.4499  13.9235  13.9235  14.2167
    14.2168  14.2168  14.8810  14.8810  14.8810  17.4324  17.4324  17.4324
    25.5539  25.5539  25.5539  26.8654  26.8654  26.8654  31.2801  31.2801
    31.2801  33.6593  36.4247  36.4248  36.4248  39.1871  41.3461  41.3461
    43.0565  43.0566  43.0566  46.6187  47.8015  47.8015  52.0913  52.0913
    55.3691  55.3692  55.3692  55.9751

          k = 0.0476 0.0476 0.0952 (   439 PWs)   bands (ev):

     7.4800  10.2052  11.0556  11.0556  11.4988  11.4988  11.5555  12.3587
    12.7273  12.7273  12.8933  13.0932  13.1836  13.8277  13.8621  13.9251
    13.9251  14.2004  14.7684  14.7982  14.7982  15.4878  18.7653  18.7653
    23.0011  23.0011  26.8709  27.5054  27.5054  30.5319  30.5319  30.9850
    31.1471  32.7950  36.8800  37.7986  38.0543  38.9725  38.9726  42.5145
    43.7344  44.6251  47.2346  47.2347  48.1233  49.1953  50.4040  50.4040
    50.9303  53.1233  53.2535  56.0514

          k = 0.0476 0.0476-0.1429 (   454 PWs)   bands (ev):

     8.9248   8.9256  11.4838  11.4838  11.5518  11.5518  11.9654  11.9667
    12.3438  12.3438  12.8740  12.8754  13.4480  13.4483  13.7334  13.7334
    14.3510  14.3520  14.5168  14.5169  14.7501  14.7501  19.8461  19.8461
    21.5261  21.5261  28.4229  28.4229  28.6884  28.6888  29.1324  29.1324
    35.1161  35.1173  35.5183  35.5210  38.2966  38.2993  42.2989  42.2989
    44.9774  44.9790  45.5332  45.5333  49.5821  49.5841  51.0243  51.0249
    52.3991  52.3992  54.2289  54.2291

          k = 0.0476 0.0952 0.0952 (   447 PWs)   bands (ev):

     8.3682  10.6549  10.6549  11.1703  11.6640  11.8061  11.8061  12.3342
    12.5410  12.5410  12.6656  12.9822  13.1323  13.5875  13.5875  13.5899
    13.9525  14.5157  14.6652  14.6652  14.6821  16.4278  16.4278  18.9629
    21.2266  24.2106  24.2106  28.2239  28.2788  31.3035  31.3036  32.3231
    32.3231  34.1758  35.3843  37.0649  39.4691  39.4691  40.1782  43.3049
    43.9605  44.8844  46.6251  46.6251  49.4565  49.4565  50.5206  50.7981
    51.0858  51.9329  52.6018  53.0171

          k = 0.0476 0.0952-0.1429 (   450 PWs)   bands (ev):

     9.5916   9.5921  11.0203  11.0205  11.9257  11.9259  12.1662  12.1672
    12.5206  12.5211  12.7099  12.7108  13.2618  13.2620  13.4437  13.4439
    14.2727  14.2732  14.5725  14.5729  15.1231  15.1233  17.6655  17.6661
    22.1999  22.2003  25.9652  25.9655  29.6380  29.6385  33.2108  33.2109
    33.4287  33.4291  37.0486  37.0515  40.2306  40.2312  40.5964  40.5969
    45.3701  45.3702  45.8644  45.8661  47.8373  47.8382  50.8274  50.8286
    51.8892  51.8899  54.2678  54.2686

          k = 0.0476-0.1429-0.1429 (   432 PWs)   bands (ev):

    10.3716  10.3719  10.3719  10.3723  12.3332  12.3337  12.3337  12.3342
    12.5555  12.5561  12.5561  12.5568  13.2059  13.2062  13.2062  13.2065
    14.3021  14.3027  14.3027  14.3034  16.0522  16.0525  16.0525  16.0529
    23.8070  23.8073  23.8073  23.8076  31.1792  31.1795  31.1795  31.1798
    38.3962  38.3968  38.3968  38.3978  38.4033  38.4044  38.4044  38.4052
    46.7663  46.7663  46.7664  46.7664  47.0296  47.0308  47.0309  47.0320
    55.0993  55.1002  55.1003  55.1012

          k = 0.0952 0.0952 0.0952 (   456 PWs)   bands (ev):

     9.0356  10.6082  10.6082  10.6082  12.1215  12.1215  12.1215  12.5998
    12.8196  12.8196  12.8196  12.9493  12.9493  13.2236  13.2236  13.2236
    14.3952  14.3952  14.8085  14.8085  14.8085  16.6774  16.6775  16.6775
    21.8292  21.8292  21.8293  25.4745  32.6538  32.6538  32.6538  35.4161
    35.4162  35.4162  37.3985  37.3986  37.3986  37.7085  40.1726  40.1726
    44.6662  44.6662  47.9732  48.1876  48.1876  48.1876  48.3432  48.3433
    48.3433  52.6360  52.6360  52.6360

          k = 0.0952 0.0952-0.1429 (   440 PWs)   bands (ev):

     9.8638   9.8640  10.5685  10.5685  12.3154  12.3154  12.6289  12.6296
    12.8770  12.8779  12.9832  12.9833  13.0224  13.0224  13.0905  13.0906
    14.7100  14.7101  14.7374  14.7374  14.9345  14.9347  16.8659  16.8659
    20.9015  20.9016  23.3488  23.3491  33.5411  33.5411  34.8246  34.8247
    36.3403  36.3417  37.4511  37.4517  39.1996  39.2017  39.5096  39.5096
    44.8948  44.8948  45.1471  45.1483  46.2600  46.2604  48.7315  48.7315
    49.8588  49.8592  53.3661  53.3661

          k = 0.0952-0.1429-0.1429 (   448 PWs)   bands (ev):

    10.1795  10.1796  10.1796  10.1796  12.6649  12.6651  12.6651  12.6653
    12.8989  12.8991  12.8991  12.8993  13.3076  13.3081  13.3081  13.3086
    14.6465  14.6469  14.6469  14.6472  15.5573  15.5577  15.5577  15.5581
    21.5711  21.5713  21.5713  21.5716  35.2469  35.2472  35.2473  35.2476
    38.2827  38.2832  38.2832  38.2837  39.1387  39.1392  39.1392  39.1397
    44.3528  44.3533  44.3533  44.3538  45.3899  45.3900  45.3901  45.3903
    50.7481  50.7483  50.7483  50.7486

          k =-0.1429-0.1429-0.1429 (   432 PWs)   bands (ev):

    10.0945  10.0945  10.0945  10.0945  12.7844  12.7844  12.7844  12.7844
    12.7844  12.7844  12.7844  12.7844  14.2353  14.2354  14.2354  14.2354
    14.7803  14.7803  14.7804  14.7804  14.7804  14.7804  14.7804  14.7804
    20.7791  20.7791  20.7791  20.7792  36.8484  36.8486  36.8486  36.8487
    39.7481  39.7481  39.7482  39.7482  39.7483  39.7483  39.7483  39.7483
    43.1768  43.1768  43.1769  43.1769  43.1769  43.1769  43.1770  43.1770
    49.1110  49.1110  49.1110  49.1111

          k =-0.0476 0.0000 0.0476 (   451 PWs)   bands (ev):

     6.1310  10.4060  10.4060  10.5966  11.1545  11.1643  11.1643  12.6624
    13.0365  13.0409  13.7512  13.7926  13.7926  13.8076  14.0116  14.4106
    14.5371  14.5371  14.8093  14.8093  14.8803  16.7760  16.7760  19.0263
    24.2569  25.3102  26.5355  26.5355  28.4613  28.4614  29.0579  29.0580
    30.7490  36.2339  36.2816  37.2402  37.2402  37.4643  40.3691  40.3693
    41.2888  42.8448  43.6100  45.3155  46.7317  50.1132  50.5559  53.5079
    53.8899  55.5085  55.5085  56.3961

          k =-0.0476-0.0000 0.0952 (   440 PWs)   bands (ev):

     7.1629  10.0059  10.9239  11.0430  11.4390  11.4719  11.5136  12.3485
    12.7258  12.8955  13.0897  13.1320  13.3130  13.6354  14.0595  14.1451
    14.2158  14.3018  14.3317  14.8064  14.8157  15.2055  18.4214  20.8578
    22.3588  24.9356  25.7488  26.7728  27.6196  29.8230  30.0700  30.1205
    31.2129  33.9165  34.6142  37.9033  38.8243  40.4671  40.6647  40.9910
    41.2970  44.2623  45.3685  47.3021  47.8742  48.8007  50.0785  51.4357
    53.0869  53.3079  55.3909  57.0358

          k =-0.0952 0.0000 0.0952 (   439 PWs)   bands (ev):

     8.1151  10.6455  10.6455  11.4079  11.4886  11.7287  11.7287  12.2500
    12.3968  12.3968  12.5704  12.9705  13.4577  13.5313  13.8310  13.9701
    13.9701  14.3357  14.3357  14.5269  14.6037  16.3499  16.3499  19.6759
    22.4082  25.4610  27.0502  27.0503  28.0878  28.0879  31.2405  31.8449
    31.8449  31.9114  33.7652  37.0167  41.5682  42.0370  42.0371  43.3523
    43.3952  43.9254  43.9255  47.4508  47.6725  48.7456  48.7456  51.9401
    52.2031  52.3192  53.8128  55.4243

          k = 0.0476-0.0476 0.0476 (   440 PWs)   bands (ev):

     6.4803  10.5945  10.5945  10.5945  11.2571  11.2571  11.2571  12.6070
    13.0616  13.0616  13.4499  13.4499  13.4499  13.9235  13.9235  14.2167
    14.2168  14.2168  14.8810  14.8810  14.8810  17.4324  17.4324  17.4324
    25.5539  25.5540  25.5540  26.8655  26.8655  26.8655  31.2800  31.2801
    31.2801  33.6595  36.4247  36.4247  36.4248  39.1870  41.3460  41.3461
    43.0566  43.0567  43.0567  46.6187  47.8014  47.8015  52.0912  52.0913
    55.3692  55.3692  55.3692  55.9751

          k = 0.0476-0.0476 0.0952 (   439 PWs)   bands (ev):

     7.4800  10.2052  11.0556  11.0556  11.4988  11.4989  11.5555  12.3587
    12.7273  12.7273  12.8933  13.0932  13.1836  13.8277  13.8621  13.9251
    13.9251  14.2004  14.7684  14.7982  14.7982  15.4878  18.7652  18.7653
    23.0011  23.0012  26.8710  27.5054  27.5054  30.5319  30.5319  30.9851
    31.1471  32.7949  36.8800  37.7986  38.0542  38.9725  38.9726  42.5145
    43.7345  44.6251  47.2347  47.2348  48.1233  49.1952  50.4040  50.4040
    50.9303  53.1234  53.2535  56.0513

          k =-0.0952 0.0476 0.0476 (   439 PWs)   bands (ev):

     7.4800  10.2052  11.0556  11.0556  11.4988  11.4989  11.5555  12.3587
    12.7273  12.7273  12.8933  13.0932  13.1837  13.8277  13.8621  13.9251
    13.9251  14.2004  14.7684  14.7982  14.7982  15.4878  18.7652  18.7653
    23.0012  23.0012  26.8709  27.5054  27.5054  30.5318  30.5319  30.9851
    31.1472  32.7950  36.8800  37.7986  38.0543  38.9725  38.9725  42.5145
    43.7344  44.6250  47.2347  47.2348  48.1233  49.1953  50.4040  50.4040
    50.9303  53.1234  53.2536  56.0514

          k = 0.0476-0.0476-0.1429 (   454 PWs)   bands (ev):

     8.9248   8.9256  11.4838  11.4838  11.5518  11.5518  11.9654  11.9667
    12.3438  12.3438  12.8740  12.8754  13.4480  13.4483  13.7334  13.7334
    14.3510  14.3520  14.5168  14.5169  14.7501  14.7501  19.8461  19.8462
    21.5260  21.5261  28.4229  28.4229  28.6885  28.6888  29.1324  29.1325
    35.1160  35.1172  35.5183  35.5210  38.2966  38.2992  42.2988  42.2990
    44.9775  44.9791  45.5332  45.5333  49.5821  49.5841  51.0242  51.0248
    52.3991  52.3992  54.2289  54.2290

          k = 0.0952-0.0476 0.0952 (   447 PWs)   bands (ev):

     8.3682  10.6549  10.6549  11.1703  11.6640  11.8061  11.8061  12.3342
    12.5410  12.5410  12.6656  12.9822  13.1323  13.5875  13.5875  13.5899
    13.9525  14.5157  14.6652  14.6652  14.6821  16.4278  16.4278  18.9629
    21.2266  24.2106  24.2106  28.2240  28.2789  31.3035  31.3035  32.3231
    32.3231  34.1758  35.3841  37.0649  39.4690  39.4690  40.1782  43.3048
    43.9604  44.8844  46.6251  46.6252  49.4566  49.4566  50.5206  50.7982
    51.0857  51.9330  52.6018  53.0172

          k =-0.0952 0.0476 0.0952 (   447 PWs)   bands (ev):

     8.3682  10.6549  10.6549  11.1703  11.6640  11.8061  11.8061  12.3342
    12.5410  12.5410  12.6656  12.9822  13.1323  13.5875  13.5875  13.5899
    13.9525  14.5157  14.6652  14.6652  14.6821  16.4277  16.4278  18.9629
    21.2266  24.2106  24.2106  28.2239  28.2788  31.3035  31.3036  32.3231
    32.3231  34.1757  35.3842  37.0648  39.4691  39.4691  40.1781  43.3048
    43.9604  44.8843  46.6252  46.6252  49.4565  49.4566  50.5206  50.7981
    51.0858  51.9329  52.6019  53.0172

          k = 0.0952-0.0476-0.1429 (   450 PWs)   bands (ev):

     9.5916   9.5921  11.0203  11.0205  11.9257  11.9259  12.1662  12.1672
    12.5206  12.5211  12.7099  12.7108  13.2618  13.2620  13.4437  13.4439
    14.2727  14.2732  14.5725  14.5729  15.1231  15.1233  17.6655  17.6661
    22.1998  22.2003  25.9652  25.9655  29.6381  29.6385  33.2107  33.2108
    33.4287  33.4291  37.0486  37.0515  40.2306  40.2312  40.5963  40.5969
    45.3700  45.3702  45.8644  45.8660  47.8373  47.8383  50.8275  50.8287
    51.8893  51.8900  54.2671  54.2691

          k = 0.0952-0.0952 0.0952 (   456 PWs)   bands (ev):

     9.0356  10.6082  10.6082  10.6082  12.1215  12.1215  12.1215  12.5998
    12.8196  12.8196  12.8196  12.9493  12.9493  13.2236  13.2236  13.2236
    14.3952  14.3952  14.8085  14.8085  14.8085  16.6774  16.6775  16.6775
    21.8292  21.8292  21.8293  25.4746  32.6538  32.6539  32.6539  35.4161
    35.4161  35.4162  37.3985  37.3985  37.3986  37.7084  40.1725  40.1725
    44.6661  44.6661  47.9732  48.1876  48.1876  48.1877  48.3432  48.3433
    48.3433  52.6361  52.6362  52.6362

          k = 0.0952-0.0952-0.1429 (   440 PWs)   bands (ev):

     9.8638   9.8640  10.5685  10.5685  12.3154  12.3154  12.6289  12.6296
    12.8770  12.8779  12.9832  12.9833  13.0224  13.0224  13.0905  13.0906
    14.7100  14.7101  14.7374  14.7374  14.9346  14.9347  16.8659  16.8659
    20.9015  20.9015  23.3488  23.3491  33.5411  33.5412  34.8247  34.8247
    36.3403  36.3416  37.4510  37.4516  39.1996  39.2017  39.5095  39.5097
    44.8947  44.8949  45.1471  45.1483  46.2599  46.2604  48.7316  48.7316
    49.8588  49.8592  53.3662  53.3662

     the Fermi energy is    14.5521 ev

!    total energy              =    -343.62499455 Ry
     Harris-Foulkes estimate   =    -343.62499453 Ry
     estimated scf accuracy    <          5.2E-11 Ry

     The total energy is the sum of the following terms:

     one-electron contribution =      -6.02458901 Ry
     hartree contribution      =      60.25530860 Ry
     xc contribution           =    -120.53196608 Ry
     ewald contribution        =    -277.27515051 Ry
     Dispersion Correction     =      -0.04801664 Ry
     smearing contrib. (-TS)   =      -0.00058091 Ry

     total magnetization       =     2.84 Bohr mag/cell
     absolute magnetization    =     3.25 Bohr mag/cell

     convergence has been achieved in  11 iterations

     Forces acting on atoms (Ry/au):

     atom    1 type  1   force =    -0.00008357   -0.00008357    0.00008335
     atom    2 type  1   force =     0.00008378    0.00008378    0.00008378
     atom    3 type  1   force =    -0.00008357    0.00008335   -0.00008357
     atom    4 type  1   force =     0.00008335   -0.00008357   -0.00008357

     Total force =     0.000289     Total SCF correction =     0.000030
     SCF correction compared to forces is large: reduce conv_thr to get better values


     entering subroutine stress ...

          total   stress  (Ry/bohr**3)                   (kbar)     P=    0.32
   0.00000218  -0.00000002  -0.00000002          0.32     -0.00     -0.00
  -0.00000002   0.00000218  -0.00000002         -0.00      0.32     -0.00
  -0.00000002  -0.00000002   0.00000218         -0.00     -0.00      0.32


     bfgs converged in   4 scf cycles and   3 bfgs steps
     (criteria: energy <  1.0E-04, force <  1.0E-03, cell <  5.0E-01)

     End of BFGS Geometry Optimization

     Final enthalpy =    -343.6249945529 Ry
Begin final coordinates
     new unit-cell volume =    289.35161 a.u.^3 (    42.87748 Ang^3 )

CELL_PARAMETERS (alat=  1.88972590)
   3.500068020   0.000003344   0.000003344
   0.000003344   3.500068020   0.000003344
   0.000003344   0.000003344   3.500068020

ATOMIC_POSITIONS (alat)
Ni1      1.754067882   1.754067882   0.003741268
Ni1      0.003737119   0.003737119   0.003737119
Ni1      1.754067882   0.003741268   1.754067882
Ni1      0.003741268   1.754067882   1.754067882
End final coordinates



     A final scf calculation at the relaxed structure.
     The G-vectors are recalculated for the final unit cell
     Results may differ from those at the preceding step.

     G-vector sticks info
     --------------------
     sticks:   dense  smooth     PW     G-vecs:    dense   smooth      PW
     Sum        1389     277     97                39127     3431     739

     Generating pointlists ...

     Title: 
     Ni-ferro-mag                                                               


     bravais-lattice index     =            0
     lattice parameter (alat)  =       1.8897  a.u.
     unit-cell volume          =     289.3516 (a.u.)^3
     number of atoms/cell      =            4
     number of atomic types    =            1
     number of electrons       =        40.00
     number of Kohn-Sham states=           52
     kinetic-energy cutoff     =      20.0000  Ry
     charge density cutoff     =     400.0000  Ry
     convergence threshold     =      1.0E-10
     mixing beta               =       0.2000
     number of iterations used =            8  plain     mixing
     Exchange-correlation      =  SLA  PW   PBE  PBE ( 1  4  3  4 0 0)

     celldm(1)=   1.889726  celldm(2)=   0.000000  celldm(3)=   0.000000
     celldm(4)=   0.000000  celldm(5)=   0.000000  celldm(6)=   0.000000

     crystal axes: (cart. coord. in units of alat)
               a(1) = (   3.500068   0.000003   0.000003 )  
               a(2) = (   0.000003   3.500068   0.000003 )  
               a(3) = (   0.000003   0.000003   3.500068 )  

     reciprocal axes: (cart. coord. in units 2 pi/alat)
               b(1) = (  0.285709 -0.000000 -0.000000 )  
               b(2) = ( -0.000000  0.285709 -0.000000 )  
               b(3) = ( -0.000000 -0.000000  0.285709 )  


     PseudoPot. # 1 for Ni read from file:
     /home/eliot/pseudo/Ni.pbe-nd-rrkjus.UPF
     MD5 check sum: 8081f0a005c9a5470caab1a58e82ecb2
     Pseudo is Ultrasoft + core correction, Zval = 10.0
     Generated by new atomic code, or converted to UPF format
     Using radial grid of 1203 points,  6 beta functions with: 
                l(1) =   0
                l(2) =   0
                l(3) =   1
                l(4) =   1
                l(5) =   2
                l(6) =   2
     Q(r) pseudized with 0 coefficients 


     atomic species   valence    mass     pseudopotential
        Ni1           10.00    58.69340     Ni( 1.00)

     Starting magnetic structure 
     atomic species   magnetization
        Ni1          0.500

      6 Sym. Ops. (no inversion) found



   Cartesian axes

     site n.     atom                  positions (alat units)
         1           Ni1 tau(   1) = (   1.7540679   1.7540679   0.0037413  )
         2           Ni1 tau(   2) = (   0.0037371   0.0037371   0.0037371  )
         3           Ni1 tau(   3) = (   1.7540679   0.0037413   1.7540679  )
         4           Ni1 tau(   4) = (   0.0037413   1.7540679   1.7540679  )

     number of k points=    32  Methfessel-Paxton smearing, width (Ry)=  0.0500
                       cart. coord. in units 2pi/alat
        k(    1) = (   0.0000000   0.0000000   0.0000000), wk =   0.0046296
        k(    2) = (  -0.0000000  -0.0000000   0.0476181), wk =   0.0277778
        k(    3) = (  -0.0000001  -0.0000001   0.0952362), wk =   0.0277778
        k(    4) = (   0.0000001   0.0000001  -0.1428544), wk =   0.0138889
        k(    5) = (  -0.0000001   0.0476181   0.0476181), wk =   0.0277778
        k(    6) = (  -0.0000001   0.0476180   0.0952362), wk =   0.0555556
        k(    7) = (   0.0000001   0.0476183  -0.1428544), wk =   0.0555556
        k(    8) = (  -0.0000002   0.0952362   0.0952362), wk =   0.0277778
        k(    9) = (   0.0000000   0.0952364  -0.1428545), wk =   0.0555556
        k(   10) = (   0.0000003  -0.1428542  -0.1428542), wk =   0.0138889
        k(   11) = (   0.0476180   0.0476180   0.0476180), wk =   0.0092593
        k(   12) = (   0.0476180   0.0476180   0.0952362), wk =   0.0277778
        k(   13) = (   0.0476182   0.0476182  -0.1428545), wk =   0.0277778
        k(   14) = (   0.0476179   0.0952361   0.0952361), wk =   0.0277778
        k(   15) = (   0.0476182   0.0952363  -0.1428545), wk =   0.0555556
        k(   16) = (   0.0476184  -0.1428543  -0.1428543), wk =   0.0277778
        k(   17) = (   0.0952361   0.0952361   0.0952361), wk =   0.0092593
        k(   18) = (   0.0952363   0.0952363  -0.1428545), wk =   0.0277778
        k(   19) = (   0.0952365  -0.1428543  -0.1428543), wk =   0.0277778
        k(   20) = (  -0.1428541  -0.1428541  -0.1428541), wk =   0.0046296
        k(   21) = (  -0.0476182   0.0000000   0.0476182), wk =   0.0277778
        k(   22) = (  -0.0476182  -0.0000000   0.0952363), wk =   0.0555556
        k(   23) = (  -0.0952363   0.0000000   0.0952363), wk =   0.0277778
        k(   24) = (   0.0476181  -0.0476182   0.0476181), wk =   0.0277778
        k(   25) = (   0.0476181  -0.0476183   0.0952362), wk =   0.0555556
        k(   26) = (  -0.0952363   0.0476182   0.0476182), wk =   0.0277778
        k(   27) = (   0.0476183  -0.0476180  -0.1428544), wk =   0.0277778
        k(   28) = (   0.0952362  -0.0476183   0.0952362), wk =   0.0277778
        k(   29) = (  -0.0952364   0.0476181   0.0952363), wk =   0.0555556
        k(   30) = (   0.0952364  -0.0476181  -0.1428544), wk =   0.0555556
        k(   31) = (   0.0952362  -0.0952364   0.0952362), wk =   0.0277778
        k(   32) = (   0.0952365  -0.0952362  -0.1428544), wk =   0.0277778

     Dense  grid:    39127 G-vectors     FFT dimensions: (  45,  45,  45)

     Smooth grid:     3431 G-vectors     FFT dimensions: (  20,  20,  20)

     Largest allocated arrays     est. size (Mb)     dimensions
        Kohn-Sham Wavefunctions         0.37 Mb     (     461,   52)
        NL pseudopotentials             0.51 Mb     (     461,   72)
        Each V/rho on FFT grid          2.78 Mb     (   91125,   2)
        Each G-vector array             0.30 Mb     (   39127)
        G-vector shells                 0.02 Mb     (    2639)
     Largest temporary arrays     est. size (Mb)     dimensions
        Auxiliary wavefunctions         1.46 Mb     (     461,  208)
        Each subspace H/S matrix        0.66 Mb     (     208,  208)
        Each <psi_i|beta_j> matrix      0.06 Mb     (      72,   52)
        Arrays for rho mixing          11.12 Mb     (   91125,    8)

     Check: negative/imaginary core charge=   -0.000005    0.000000

     Initial potential from superposition of free atoms

     starting charge   39.99816, renormalised to   40.00000
     Starting wfc are   24 randomized atomic wfcs +   28 random wfc

     Writing output data file Ni-ferromag.save

     total cpu time spent up to now is      627.8 secs

     Self-consistent Calculation

     iteration #  1     ecut=    20.00 Ry     beta=0.20
     Davidson diagonalization with overlap
     ethr =  1.00E-06,  avg # of iterations = 12.5

     total cpu time spent up to now is      676.6 secs

     total energy              =    -342.90329910 Ry
     Harris-Foulkes estimate   =    -343.16492176 Ry
     estimated scf accuracy    <       2.38595043 Ry

     total magnetization       =     6.86 Bohr mag/cell
     absolute magnetization    =     6.87 Bohr mag/cell

     iteration #  2     ecut=    20.00 Ry     beta=0.20
     Davidson diagonalization with overlap
     ethr =  5.96E-03,  avg # of iterations =  1.0

     total cpu time spent up to now is      685.7 secs

     total energy              =    -343.20265175 Ry
     Harris-Foulkes estimate   =    -343.03454179 Ry
     estimated scf accuracy    <       0.77978499 Ry

     total magnetization       =     5.74 Bohr mag/cell
     absolute magnetization    =     5.83 Bohr mag/cell

     iteration #  3     ecut=    20.00 Ry     beta=0.20
     Davidson diagonalization with overlap
     ethr =  1.95E-03,  avg # of iterations =  1.2

     negative rho (up, down):  0.000E+00 3.478E-03

     total cpu time spent up to now is      695.1 secs

     total energy              =    -343.52146119 Ry
     Harris-Foulkes estimate   =    -343.27661913 Ry
     estimated scf accuracy    <       0.35629946 Ry

     total magnetization       =     4.50 Bohr mag/cell
     absolute magnetization    =     4.82 Bohr mag/cell

     iteration #  4     ecut=    20.00 Ry     beta=0.20
     Davidson diagonalization with overlap
     ethr =  8.91E-04,  avg # of iterations =  1.2

     negative rho (up, down):  0.000E+00 2.207E-03

     total cpu time spent up to now is      704.4 secs

     total energy              =    -343.61141542 Ry
     Harris-Foulkes estimate   =    -343.63162162 Ry
     estimated scf accuracy    <       0.10801851 Ry

     total magnetization       =     2.60 Bohr mag/cell
     absolute magnetization    =     3.21 Bohr mag/cell

     iteration #  5     ecut=    20.00 Ry     beta=0.20
     Davidson diagonalization with overlap
     ethr =  2.70E-04,  avg # of iterations =  1.0

     negative rho (up, down):  0.000E+00 1.318E-03

     total cpu time spent up to now is      713.5 secs

     total energy              =    -343.61307937 Ry
     Harris-Foulkes estimate   =    -343.61717115 Ry
     estimated scf accuracy    <       0.02349994 Ry

     total magnetization       =     2.64 Bohr mag/cell
     absolute magnetization    =     3.23 Bohr mag/cell

     iteration #  6     ecut=    20.00 Ry     beta=0.20
     Davidson diagonalization with overlap
     ethr =  5.87E-05,  avg # of iterations =  1.4

     negative rho (up, down):  0.000E+00 5.899E-04

     total cpu time spent up to now is      723.0 secs

     total energy              =    -343.61934386 Ry
     Harris-Foulkes estimate   =    -343.61702344 Ry
     estimated scf accuracy    <       0.00082462 Ry

     total magnetization       =     2.70 Bohr mag/cell
     absolute magnetization    =     3.28 Bohr mag/cell

     iteration #  7     ecut=    20.00 Ry     beta=0.20
     Davidson diagonalization with overlap
     ethr =  2.06E-06,  avg # of iterations =  3.4

     negative rho (up, down):  0.000E+00 4.660E-04

     total cpu time spent up to now is      734.5 secs

     total energy              =    -343.62252596 Ry
     Harris-Foulkes estimate   =    -343.62105682 Ry
     estimated scf accuracy    <       0.00176348 Ry

     total magnetization       =     3.00 Bohr mag/cell
     absolute magnetization    =     3.47 Bohr mag/cell

     iteration #  8     ecut=    20.00 Ry     beta=0.20
     Davidson diagonalization with overlap
     ethr =  2.06E-06,  avg # of iterations =  1.0

     negative rho (up, down):  0.000E+00 2.426E-04

     total cpu time spent up to now is      743.6 secs

     total energy              =    -343.62350100 Ry
     Harris-Foulkes estimate   =    -343.62281726 Ry
     estimated scf accuracy    <       0.00011883 Ry

     total magnetization       =     2.89 Bohr mag/cell
     absolute magnetization    =     3.34 Bohr mag/cell

     iteration #  9     ecut=    20.00 Ry     beta=0.20
     Davidson diagonalization with overlap
     ethr =  2.97E-07,  avg # of iterations =  1.0

     negative rho (up, down):  0.000E+00 1.176E-04

     total cpu time spent up to now is      752.7 secs

     total energy              =    -343.62382963 Ry
     Harris-Foulkes estimate   =    -343.62350267 Ry
     estimated scf accuracy    <       0.00008266 Ry

     total magnetization       =     2.89 Bohr mag/cell
     absolute magnetization    =     3.33 Bohr mag/cell

     iteration # 10     ecut=    20.00 Ry     beta=0.20
     Davidson diagonalization with overlap
     ethr =  2.07E-07,  avg # of iterations =  1.1

     negative rho (up, down):  0.000E+00 1.496E-05

     total cpu time spent up to now is      762.0 secs

     total energy              =    -343.62421987 Ry
     Harris-Foulkes estimate   =    -343.62389840 Ry
     estimated scf accuracy    <       0.00000030 Ry

     total magnetization       =     2.84 Bohr mag/cell
     absolute magnetization    =     3.25 Bohr mag/cell

     iteration # 11     ecut=    20.00 Ry     beta=0.20
     Davidson diagonalization with overlap
     ethr =  7.40E-10,  avg # of iterations =  2.1

     negative rho (up, down):  0.000E+00 1.774E-06

     total cpu time spent up to now is      772.5 secs

     total energy              =    -343.62442204 Ry
     Harris-Foulkes estimate   =    -343.62422007 Ry
     estimated scf accuracy    <       0.00000037 Ry

     total magnetization       =     2.84 Bohr mag/cell
     absolute magnetization    =     3.26 Bohr mag/cell

     iteration # 12     ecut=    20.00 Ry     beta=0.20
     Davidson diagonalization with overlap
     ethr =  7.40E-10,  avg # of iterations =  1.9

     total cpu time spent up to now is      782.3 secs

     total energy              =    -343.62454622 Ry
     Harris-Foulkes estimate   =    -343.62442207 Ry
     estimated scf accuracy    <       0.00000047 Ry

     total magnetization       =     2.84 Bohr mag/cell
     absolute magnetization    =     3.26 Bohr mag/cell

     iteration # 13     ecut=    20.00 Ry     beta=0.20
     Davidson diagonalization with overlap
     ethr =  7.40E-10,  avg # of iterations =  2.0

     total cpu time spent up to now is      792.6 secs

     total energy              =    -343.62463005 Ry
     Harris-Foulkes estimate   =    -343.62454685 Ry
     estimated scf accuracy    <       0.00000017 Ry

     total magnetization       =     2.83 Bohr mag/cell
     absolute magnetization    =     3.25 Bohr mag/cell

     iteration # 14     ecut=    20.00 Ry     beta=0.20
     Davidson diagonalization with overlap
     ethr =  4.37E-10,  avg # of iterations =  1.2

     total cpu time spent up to now is      801.9 secs

     total energy              =    -343.62468332 Ry
     Harris-Foulkes estimate   =    -343.62463007 Ry
     estimated scf accuracy    <       0.00000002 Ry

     total magnetization       =     2.83 Bohr mag/cell
     absolute magnetization    =     3.25 Bohr mag/cell

     iteration # 15     ecut=    20.00 Ry     beta=0.20
     Davidson diagonalization with overlap
     ethr =  5.02E-11,  avg # of iterations =  2.0

     total cpu time spent up to now is      812.8 secs

     total energy              =    -343.62471676 Ry
     Harris-Foulkes estimate   =    -343.62468335 Ry
     estimated scf accuracy    <       0.00000002 Ry

     total magnetization       =     2.84 Bohr mag/cell
     absolute magnetization    =     3.25 Bohr mag/cell

     iteration # 16     ecut=    20.00 Ry     beta=0.20
     Davidson diagonalization with overlap
     ethr =  4.92E-11,  avg # of iterations =  2.0

     total cpu time spent up to now is      822.9 secs

     total energy              =    -343.62473817 Ry
     Harris-Foulkes estimate   =    -343.62471676 Ry
     estimated scf accuracy    <          4.0E-09 Ry

     total magnetization       =     2.84 Bohr mag/cell
     absolute magnetization    =     3.25 Bohr mag/cell

     iteration # 17     ecut=    20.00 Ry     beta=0.20
     Davidson diagonalization with overlap
     ethr =  9.90E-12,  avg # of iterations =  2.1

     Magnetic moment per site:
     atom:    1    charge:    3.0548    magn:    0.3397    constr:    0.0000
     atom:    2    charge:    3.0524    magn:    0.3394    constr:    0.0000
     atom:    3    charge:    3.0548    magn:    0.3397    constr:    0.0000
     atom:    4    charge:    3.0548    magn:    0.3397    constr:    0.0000

     total cpu time spent up to now is      833.8 secs

     End of self-consistent calculation

 ------ SPIN UP ------------


          k = 0.0000 0.0000 0.0000 (   461 PWs)   bands (ev):

     5.4593   9.7575   9.7575   9.7575  10.2118  10.2118  10.2118  11.9997
    11.9997  11.9997  13.1832  13.1832  13.9045  13.9045  13.9045  13.9957
    13.9957  13.9957  13.9957  13.9957  13.9957  17.1196  17.1196  17.1196
    23.9009  23.9009  23.9009  29.6402  29.6402  29.6402  29.6403  29.6403
    29.6403  34.7551  34.7551  34.7551  38.1210  38.1211  38.1211  38.5819
    42.5709  42.5710  42.5710  46.4108  46.4109  46.4109  48.2864  55.3113
    55.3114  55.3114  59.7926  59.7926

          k =-0.0000-0.0000 0.0476 (   441 PWs)   bands (ev):

     5.8262   9.7795   9.9429   9.9429  10.3238  10.3405  10.3405  11.8704
    12.1024  12.1024  13.0647  13.2302  13.3366  13.3366  13.7506  13.7506
    13.8192  13.8192  13.8548  13.9962  13.9962  15.5206  18.0864  18.0864
    24.0067  24.0068  26.1578  27.9175  27.9175  28.5206  28.5206  30.2036
    30.2036  34.9421  37.0214  37.0214  37.9730  38.2545  40.0852  40.0853
    40.3949  40.3950  41.0169  47.8245  48.3976  48.3977  49.2786  51.7583
    56.4633  56.4634  56.8498  56.8498

          k =-0.0000-0.0000 0.0952 (   434 PWs)   bands (ev):

     6.8778   9.5470  10.3815  10.3815  10.6327  10.7251  10.7251  11.5248
    12.2756  12.2756  12.4002  12.4002  12.7751  13.3574  13.3595  13.3699
    13.3699  13.3781  13.3781  13.7202  13.9967  13.9967  20.0620  20.0620
    24.3297  24.3297  25.1440  25.1440  26.7645  26.7645  30.4645  31.7978
    31.7979  35.2840  36.8863  37.1625  37.1626  38.4887  38.7939  41.0754
    41.0754  44.2639  44.2639  44.3053  51.2038  51.2038  51.2284  51.2284
    51.2351  55.2569  56.5445  56.5445

          k = 0.0000 0.0000-0.1429 (   418 PWs)   bands (ev):

     8.3811   8.3819  10.6581  10.6581  11.0694  11.0706  11.3725  11.3725
    11.3737  11.3737  12.5951  12.5968  12.8544  12.8544  12.8553  12.8553
    13.1198  13.1198  13.5389  13.5396  13.9969  13.9969  22.4563  22.4563
    22.4584  22.4584  24.6989  24.6990  25.8153  25.8153  34.2289  34.2290
    34.2303  34.2304  35.0997  35.1032  36.0126  36.0136  40.3863  40.3914
    45.8351  45.8351  45.8399  45.8399  47.7496  47.7497  52.6728  52.6728
    54.3146  54.3147  54.3187  54.3188

          k =-0.0000 0.0476 0.0476 (   447 PWs)   bands (ev):

     6.1845   9.9787   9.9787  10.1063  10.4420  10.4420  10.4558  11.8100
    12.1476  12.1646  12.9883  13.0399  13.0471  13.0471  13.2253  13.6210
    13.7461  13.7461  13.8178  13.8178  13.8795  16.4608  16.4608  18.8600
    24.0003  25.1812  26.3520  26.3520  28.3927  28.3927  29.0175  29.0175
    30.7377  36.1815  36.2469  37.2065  37.2065  37.4495  40.2514  40.2514
    41.3693  42.7590  43.6419  45.3735  46.6845  49.9559  50.6343  53.3839
    53.8978  55.5657  55.5657  56.4571

          k =-0.0000 0.0476 0.0952 (   440 PWs)   bands (ev):

     7.2083   9.7840  10.4624  10.5118  10.7248  10.7777  10.7974  11.5275
    12.0359  12.1763  12.2937  12.4119  12.4351  12.8718  13.2956  13.3756
    13.3812  13.4053  13.5575  13.8145  13.8206  14.4961  18.0830  20.6544
    22.1619  24.7086  25.5998  26.6415  27.4929  29.7177  30.0106  30.0509
    31.1157  33.8417  34.5735  37.8684  38.7908  40.5197  40.7212  40.8706
    41.3039  44.1810  45.1631  47.2389  47.9550  48.8259  50.1004  51.5151
    53.1388  53.3992  55.2007  57.2617

          k = 0.0000 0.0476-0.1429 (   442 PWs)   bands (ev):

     8.6626   8.6634  10.8107  10.8107  11.1209  11.1221  11.2395  11.2405
    11.3870  11.3882  12.2214  12.2227  12.8549  12.8558  13.0842  13.0846
    13.1048  13.1048  13.7228  13.7228  13.8118  13.8120  19.9599  19.9609
    22.9587  22.9607  25.5062  25.5077  28.4034  28.4039  31.6315  31.6320
    32.1327  32.1331  35.9649  35.9687  38.9810  38.9812  42.3356  42.3388
    43.2460  43.2472  46.1117  46.1162  50.2739  50.2778  50.5420  50.5438
    52.8188  52.8204  53.5742  53.5753

          k =-0.0000 0.0952 0.0952 (   432 PWs)   bands (ev):

     8.1371  10.3733  10.3733  10.7451  10.9939  10.9939  11.0058  11.4571
    11.7046  11.7046  11.8595  12.1801  12.5434  12.7853  13.0787  13.2339
    13.2339  13.3762  13.3762  13.5480  13.7625  15.7447  15.7447  19.3777
    22.1910  25.2745  26.8867  26.8867  27.9872  27.9873  31.1131  31.7574
    31.7575  31.8460  33.7251  37.0201  41.6321  42.0618  42.0618  43.3223
    43.5137  43.8825  43.8826  47.3334  47.6570  48.7075  48.7075  51.9445
    52.3349  52.4324  53.6305  55.5251

          k = 0.0000 0.0952-0.1429 (   436 PWs)   bands (ev):

     9.4072   9.4079  10.8466  10.8473  11.2486  11.2497  11.2557  11.2558
    11.4058  11.4070  11.9146  11.9154  12.8909  12.8910  12.8925  12.8935
    12.9583  12.9584  13.4111  13.4117  14.4257  14.4258  17.2793  17.2801
    24.3274  24.3288  26.3245  26.3257  28.8094  28.8101  29.6478  29.6480
    33.0614  33.0618  36.9394  36.9430  40.4889  40.4895  43.2206  43.2212
    43.3495  43.3497  46.9190  46.9227  48.1526  48.1546  50.6495  50.6516
    52.0231  52.0263  53.7266  53.7274

          k = 0.0000-0.1429-0.1429 (   428 PWs)   bands (ev):

    10.2639  10.2645  10.2645  10.2651  11.3674  11.3684  11.3684  11.3695
    11.6780  11.6783  11.6783  11.6786  12.7444  12.7445  12.7445  12.7446
    13.0603  13.0612  13.0612  13.0621  15.4976  15.4979  15.4980  15.4984
    26.3232  26.3242  26.3242  26.3252  27.6994  27.7001  27.7002  27.7009
    38.0464  38.0473  38.0474  38.0483  38.6360  38.6371  38.6372  38.6383
    47.3108  47.3108  47.3109  47.3109  49.4816  49.4837  49.4838  49.4859
    52.0411  52.0411  52.0412  52.0412

          k = 0.0476 0.0476 0.0476 (   440 PWs)   bands (ev):

     6.5309  10.1402  10.1402  10.1402  10.5571  10.5571  10.5571  11.7746
    12.1844  12.1844  12.7413  12.7413  12.7413  13.1381  13.1381  13.3869
    13.3869  13.3869  13.9338  13.9338  13.9338  17.0910  17.0910  17.0910
    25.4255  25.4255  25.4255  26.6930  26.6930  26.6930  31.2582  31.2582
    31.2582  33.5957  36.3349  36.3349  36.3349  39.3434  41.2981  41.2981
    42.9749  42.9750  42.9750  46.7059  47.8482  47.8482  51.9330  51.9330
    55.4200  55.4200  55.4200  55.6648

          k = 0.0476 0.0476 0.0952 (   431 PWs)   bands (ev):

     7.5150   9.9436  10.5251  10.5251  10.8436  10.8711  10.8711  11.5641
    12.0263  12.0263  12.2223  12.2636  12.3243  12.9827  13.0532  13.1394
    13.1394  13.3793  13.8362  13.8362  13.8683  14.8577  18.4386  18.4387
    22.7925  22.7925  26.7325  27.3584  27.3584  30.4580  30.4580  30.8945
    31.0724  32.7517  36.8160  37.9155  37.9946  38.9465  38.9465  42.5505
    43.6568  44.6193  47.1942  47.1942  48.1439  49.2898  50.4219  50.4219
    50.9804  53.2048  53.3060  55.9840

          k = 0.0476 0.0476-0.1429 (   434 PWs)   bands (ev):

     8.8907   8.8914  10.9138  10.9138  10.9711  10.9711  11.2160  11.2171
    11.6311  11.6311  12.1254  12.1266  12.5983  12.5988  12.9707  12.9707
    13.5475  13.5483  13.6568  13.6570  13.7800  13.7800  19.5932  19.5932
    21.2275  21.2275  28.3217  28.3218  28.5830  28.5834  29.0203  29.0203
    35.0555  35.0568  35.5647  35.5674  38.2668  38.2695  42.3235  42.3236
    44.8977  44.8991  45.5728  45.5728  49.6896  49.6917  51.0935  51.0941
    52.3796  52.3797  54.3246  54.3249

          k = 0.0476 0.0952 0.0952 (   435 PWs)   bands (ev):

     8.3565  10.2635  10.2635  10.5529  11.1587  11.2048  11.2048  11.6084
    11.8220  11.8220  11.9552  12.1823  12.3090  12.7892  12.7892  12.8058
    13.1102  13.6680  13.7386  13.7532  13.7532  15.8743  15.8743  18.6919
    20.8882  23.9954  23.9954  28.0801  28.1800  31.2419  31.2419  32.2312
    32.2312  34.1362  35.3780  37.0612  39.4572  39.4572  40.2583  43.2037
    44.0465  44.9496  46.6348  46.6349  49.4079  49.4079  50.6113  50.8485
    51.1237  51.9094  52.5570  53.0933

          k = 0.0476 0.0952-0.1429 (   438 PWs)   bands (ev):

     9.4431   9.4436  10.4866  10.4868  11.3730  11.3730  11.5208  11.5217
    11.8278  11.8282  11.9505  11.9514  12.4586  12.4589  12.6702  12.6704
    13.4087  13.4091  13.6380  13.6384  14.3311  14.3312  17.2547  17.2554
    21.9042  21.9047  25.7732  25.7735  29.5416  29.5420  33.1678  33.1679
    33.3671  33.3674  37.0469  37.0499  40.2481  40.2487  40.5773  40.5778
    45.4222  45.4223  45.8837  45.8852  47.8856  47.8865  50.8590  50.8602
    51.9845  51.9853  54.1877  54.1886

          k = 0.0476-0.1429-0.1429 (   432 PWs)   bands (ev):

    10.0160  10.0162  10.0162  10.0164  11.7664  11.7667  11.7667  11.7670
    11.8507  11.8513  11.8513  11.8520  12.4297  12.4300  12.4300  12.4303
    13.3914  13.3920  13.3920  13.3925  15.4066  15.4070  15.4070  15.4074
    23.5514  23.5518  23.5518  23.5522  31.0992  31.0994  31.0995  31.0996
    38.3259  38.3267  38.3268  38.3276  38.4548  38.4558  38.4558  38.4568
    46.8400  46.8401  46.8401  46.8402  47.0133  47.0144  47.0145  47.0156
    55.0400  55.0409  55.0410  55.0418

          k = 0.0952 0.0952 0.0952 (   438 PWs)   bands (ev):

     8.9030  10.0996  10.0996  10.0996  11.5647  11.5647  11.5647  12.0773
    12.1411  12.1411  12.1411  12.1492  12.1492  12.4335  12.4335  12.4335
    13.5155  13.5155  13.8825  13.8825  13.8825  16.2513  16.2513  16.2513
    21.4987  21.4987  21.4987  25.2515  32.6277  32.6278  32.6278  35.3695
    35.3695  35.3695  37.3937  37.3938  37.3938  37.8804  40.0880  40.0880
    44.6646  44.6646  47.9650  48.2711  48.2711  48.2711  48.4042  48.4042
    48.4042  52.6458  52.6458  52.6458

          k = 0.0952 0.0952-0.1429 (   440 PWs)   bands (ev):

     9.5324   9.5325  10.0311  10.0311  11.6857  11.6857  11.9736  11.9743
    12.1920  12.1921  12.3128  12.3128  12.3219  12.3226  12.4242  12.4242
    13.8024  13.8025  13.8101  13.8101  14.2187  14.2187  16.5331  16.5331
    20.4658  20.4659  23.0611  23.0615  33.5367  33.5367  34.7392  34.7392
    36.4539  36.4552  37.3805  37.3811  39.1192  39.1213  39.5346  39.5346
    44.8765  44.8766  45.1784  45.1796  46.2605  46.2608  48.7778  48.7778
    49.8134  49.8138  53.2720  53.2720

          k = 0.0952-0.1429-0.1429 (   436 PWs)   bands (ev):

     9.7097   9.7097   9.7097   9.7097  11.9333  11.9335  11.9335  11.9337
    12.1240  12.1242  12.1242  12.1244  12.8706  12.8710  12.8710  12.8714
    13.7297  13.7300  13.7300  13.7303  15.0240  15.0244  15.0245  15.0250
    21.1808  21.1811  21.1811  21.1814  35.2816  35.2818  35.2819  35.2821
    38.3133  38.3138  38.3139  38.3144  39.0792  39.0797  39.0798  39.0803
    44.3943  44.3948  44.3949  44.3954  45.4314  45.4315  45.4315  45.4317
    50.6688  50.6691  50.6691  50.6693

          k =-0.1429-0.1429-0.1429 (   432 PWs)   bands (ev):

     9.5937   9.5937   9.5937   9.5937  12.0122  12.0122  12.0122  12.0123
    12.0123  12.0123  12.0123  12.0123  13.8582  13.8582  13.8582  13.8582
    13.8582  13.8582  13.8582  13.8582  14.3345  14.3346  14.3346  14.3346
    20.2981  20.2981  20.2981  20.2982  37.0329  37.0331  37.0331  37.0332
    39.6769  39.6769  39.6769  39.6769  39.6769  39.6769  39.6770  39.6770
    43.1609  43.1609  43.1609  43.1610  43.1610  43.1610  43.1610  43.1610
    49.0038  49.0038  49.0038  49.0039

          k =-0.0476 0.0000 0.0476 (   447 PWs)   bands (ev):

     6.1845   9.9787   9.9787  10.1063  10.4420  10.4420  10.4558  11.8100
    12.1476  12.1646  12.9883  13.0399  13.0471  13.0471  13.2253  13.6210
    13.7461  13.7461  13.8178  13.8178  13.8795  16.4608  16.4608  18.8600
    24.0003  25.1812  26.3520  26.3520  28.3926  28.3927  29.0175  29.0175
    30.7376  36.1814  36.2470  37.2065  37.2065  37.4496  40.2514  40.2514
    41.3692  42.7591  43.6418  45.3734  46.6844  49.9558  50.6344  53.3840
    53.8978  55.5658  55.5658  56.4571

          k =-0.0476-0.0000 0.0952 (   440 PWs)   bands (ev):

     7.2083   9.7840  10.4624  10.5118  10.7248  10.7777  10.7974  11.5275
    12.0359  12.1763  12.2937  12.4119  12.4351  12.8718  13.2956  13.3756
    13.3812  13.4053  13.5575  13.8145  13.8206  14.4961  18.0830  20.6544
    22.1620  24.7086  25.5998  26.6415  27.4930  29.7176  30.0106  30.0508
    31.1157  33.8417  34.5735  37.8684  38.7907  40.5196  40.7211  40.8706
    41.3039  44.1810  45.1630  47.2390  47.9549  48.8258  50.1005  51.5151
    53.1389  53.3992  55.2006  57.2618

          k =-0.0952 0.0000 0.0952 (   432 PWs)   bands (ev):

     8.1371  10.3733  10.3733  10.7451  10.9939  10.9939  11.0058  11.4571
    11.7046  11.7046  11.8595  12.1801  12.5434  12.7853  13.0787  13.2339
    13.2339  13.3762  13.3762  13.5480  13.7625  15.7447  15.7447  19.3777
    22.1910  25.2746  26.8867  26.8867  27.9872  27.9872  31.1131  31.7575
    31.7575  31.8460  33.7250  37.0200  41.6320  42.0618  42.0618  43.3223
    43.5136  43.8826  43.8826  47.3333  47.6569  48.7075  48.7076  51.9446
    52.3349  52.4323  53.6304  55.5252

          k = 0.0476-0.0476 0.0476 (   440 PWs)   bands (ev):

     6.5310  10.1402  10.1402  10.1402  10.5571  10.5571  10.5571  11.7746
    12.1844  12.1844  12.7413  12.7413  12.7413  13.1381  13.1381  13.3869
    13.3869  13.3869  13.9338  13.9338  13.9338  17.0909  17.0910  17.0910
    25.4255  25.4256  25.4256  26.6930  26.6930  26.6930  31.2581  31.2581
    31.2582  33.5958  36.3348  36.3349  36.3349  39.3434  41.2980  41.2981
    42.9750  42.9751  42.9751  46.7058  47.8481  47.8482  51.9329  51.9330
    55.4200  55.4200  55.4201  55.6647

          k = 0.0476-0.0476 0.0952 (   431 PWs)   bands (ev):

     7.5150   9.9436  10.5251  10.5251  10.8436  10.8711  10.8711  11.5641
    12.0263  12.0263  12.2223  12.2636  12.3243  12.9827  13.0532  13.1394
    13.1394  13.3793  13.8362  13.8362  13.8683  14.8577  18.4386  18.4387
    22.7925  22.7925  26.7325  27.3584  27.3584  30.4580  30.4580  30.8946
    31.0724  32.7516  36.8159  37.9154  37.9945  38.9464  38.9465  42.5505
    43.6570  44.6192  47.1943  47.1943  48.1439  49.2897  50.4219  50.4220
    50.9804  53.2048  53.3060  55.9839

          k =-0.0952 0.0476 0.0476 (   431 PWs)   bands (ev):

     7.5150   9.9436  10.5251  10.5251  10.8436  10.8711  10.8711  11.5641
    12.0263  12.0263  12.2222  12.2636  12.3243  12.9827  13.0532  13.1394
    13.1394  13.3793  13.8362  13.8362  13.8683  14.8577  18.4386  18.4386
    22.7925  22.7925  26.7324  27.3584  27.3584  30.4579  30.4579  30.8946
    31.0724  32.7517  36.8160  37.9155  37.9946  38.9464  38.9464  42.5505
    43.6569  44.6191  47.1944  47.1944  48.1438  49.2897  50.4220  50.4220
    50.9803  53.2049  53.3061  55.9840

          k = 0.0476-0.0476-0.1429 (   434 PWs)   bands (ev):

     8.8907   8.8914  10.9138  10.9138  10.9711  10.9711  11.2160  11.2172
    11.6311  11.6311  12.1254  12.1266  12.5983  12.5988  12.9707  12.9707
    13.5475  13.5484  13.6568  13.6570  13.7800  13.7800  19.5932  19.5932
    21.2275  21.2275  28.3217  28.3218  28.5831  28.5835  29.0203  29.0204
    35.0554  35.0567  35.5647  35.5674  38.2667  38.2694  42.3235  42.3236
    44.8978  44.8992  45.5728  45.5729  49.6896  49.6917  51.0934  51.0940
    52.3796  52.3797  54.3246  54.3249

          k = 0.0952-0.0476 0.0952 (   435 PWs)   bands (ev):

     8.3565  10.2635  10.2635  10.5529  11.1587  11.2048  11.2048  11.6084
    11.8220  11.8220  11.9552  12.1823  12.3090  12.7892  12.7892  12.8058
    13.1102  13.6680  13.7386  13.7532  13.7532  15.8743  15.8743  18.6919
    20.8881  23.9954  23.9954  28.0802  28.1800  31.2419  31.2419  32.2312
    32.2312  34.1362  35.3778  37.0612  39.4571  39.4571  40.2582  43.2037
    44.0464  44.9496  46.6349  46.6349  49.4080  49.4080  50.6114  50.8485
    51.1236  51.9095  52.5570  53.0933

          k =-0.0952 0.0476 0.0952 (   435 PWs)   bands (ev):

     8.3565  10.2635  10.2635  10.5529  11.1587  11.2048  11.2048  11.6084
    11.8220  11.8220  11.9552  12.1823  12.3090  12.7892  12.7892  12.8058
    13.1102  13.6680  13.7386  13.7532  13.7532  15.8743  15.8743  18.6920
    20.8882  23.9953  23.9954  28.0802  28.1800  31.2419  31.2419  32.2312
    32.2312  34.1361  35.3779  37.0612  39.4572  39.4572  40.2582  43.2036
    44.0464  44.9495  46.6349  46.6350  49.4080  49.4080  50.6114  50.8485
    51.1236  51.9094  52.5571  53.0933

          k = 0.0952-0.0476-0.1429 (   438 PWs)   bands (ev):

     9.4431   9.4436  10.4866  10.4868  11.3730  11.3730  11.5208  11.5217
    11.8278  11.8282  11.9505  11.9514  12.4586  12.4589  12.6702  12.6704
    13.4087  13.4091  13.6380  13.6384  14.3311  14.3312  17.2547  17.2554
    21.9041  21.9047  25.7732  25.7736  29.5416  29.5420  33.1678  33.1679
    33.3671  33.3675  37.0469  37.0499  40.2481  40.2487  40.5772  40.5778
    45.4222  45.4223  45.8837  45.8852  47.8857  47.8865  50.8590  50.8603
    51.9846  51.9853  54.1878  54.1886

          k = 0.0952-0.0952 0.0952 (   438 PWs)   bands (ev):

     8.9030  10.0996  10.0996  10.0996  11.5647  11.5647  11.5647  12.0773
    12.1411  12.1411  12.1411  12.1492  12.1492  12.4335  12.4335  12.4335
    13.5155  13.5155  13.8825  13.8825  13.8825  16.2513  16.2513  16.2513
    21.4987  21.4987  21.4988  25.2516  32.6278  32.6278  32.6278  35.3694
    35.3695  35.3695  37.3937  37.3937  37.3938  37.8803  40.0879  40.0880
    44.6645  44.6646  47.9650  48.2711  48.2712  48.2712  48.4042  48.4042
    48.4043  52.6459  52.6459  52.6459

          k = 0.0952-0.0952-0.1429 (   440 PWs)   bands (ev):

     9.5324   9.5325  10.0311  10.0311  11.6857  11.6857  11.9736  11.9743
    12.1920  12.1921  12.3128  12.3128  12.3219  12.3226  12.4242  12.4242
    13.8024  13.8025  13.8101  13.8101  14.2187  14.2187  16.5330  16.5331
    20.4658  20.4659  23.0611  23.0615  33.5367  33.5368  34.7392  34.7393
    36.4539  36.4552  37.3804  37.3811  39.1192  39.1213  39.5345  39.5347
    44.8765  44.8766  45.1784  45.1796  46.2604  46.2608  48.7779  48.7779
    49.8134  49.8138  53.2721  53.2721

 ------ SPIN DOWN ----------


          k = 0.0000 0.0000 0.0000 (   461 PWs)   bands (ev):

     5.4051  10.2191  10.2191  10.2191  10.9289  10.9289  10.9289  12.8797
    12.8797  12.8797  13.9630  13.9630  14.7182  14.7182  14.7182  15.0044
    15.0044  15.0044  15.0044  15.0044  15.0044  17.0409  17.0409  17.0409
    24.2058  24.2059  24.2059  29.6274  29.6274  29.6275  29.6275  29.6275
    29.6275  34.9164  34.9164  34.9164  38.2651  38.2653  38.2653  38.3752
    42.5419  42.5420  42.5420  46.4686  46.4687  46.4687  48.1247  55.5026
    55.5027  55.5027  59.7546  59.7546

          k =-0.0000-0.0000 0.0476 (   441 PWs)   bands (ev):

     5.7720  10.1946  10.4147  10.4147  11.0502  11.0559  11.0559  12.7371
    12.9864  12.9864  13.8348  14.0121  14.1545  14.1545  14.5506  14.5506
    14.6661  14.8111  14.8111  15.0048  15.0048  15.5908  18.1943  18.1943
    24.2959  24.2959  26.3586  27.9836  27.9836  28.5487  28.5487  30.2068
    30.2069  35.0861  37.0946  37.0946  37.8293  38.3963  40.2061  40.2062
    40.4331  40.4332  40.9463  47.8334  48.3622  48.3623  49.3476  51.7449
    56.6747  56.6747  56.7739  56.7739

          k =-0.0000-0.0000 0.0952 (   434 PWs)   bands (ev):

     6.8278   9.7547  10.8778  10.8778  11.3845  11.4351  11.4351  12.3573
    13.0036  13.0036  13.2972  13.2972  13.5123  13.7281  14.1364  14.1365
    14.1473  14.3337  14.3337  14.5249  15.0054  15.0054  20.2468  20.2468
    24.5740  24.5741  25.2815  25.2815  26.8632  26.8633  30.5584  31.8344
    31.8345  35.3914  36.8429  37.2319  37.2320  38.3950  38.9415  41.0730
    41.0730  44.3628  44.3629  44.5242  51.1058  51.1058  51.1505  51.1505
    51.1823  55.1407  56.7472  56.7473

          k = 0.0000 0.0000-0.1429 (   418 PWs)   bands (ev):

     8.3748   8.3757  11.1699  11.1700  11.8596  11.8609  12.0809  12.0809
    12.0822  12.0822  13.2426  13.2445  13.7751  13.7751  13.7760  13.7760
    13.8654  13.8654  14.3348  14.3355  15.0056  15.0056  22.6366  22.6366
    22.6388  22.6388  24.8933  24.8933  25.9739  25.9739  34.2909  34.2910
    34.2923  34.2924  35.0723  35.0760  36.0510  36.0521  40.5811  40.5864
    45.7853  45.7853  45.7901  45.7901  47.8239  47.8240  52.8508  52.8508
    54.2032  54.2032  54.2073  54.2074

          k =-0.0000 0.0476 0.0476 (   447 PWs)   bands (ev):

     6.1312  10.4064  10.4064  10.5970  11.1548  11.1655  11.1655  12.6628
    13.0370  13.0413  13.7516  13.7930  13.7930  13.8082  14.0121  14.4112
    14.5377  14.5377  14.8098  14.8098  14.8808  16.7765  16.7765  19.0264
    24.2571  25.3105  26.5391  26.5391  28.4734  28.4734  29.0591  29.0591
    30.7493  36.2338  36.2816  37.2707  37.2708  37.4644  40.3696  40.3697
    41.2890  42.8450  43.6105  45.3155  46.7315  50.1138  50.5558  53.5081
    53.8901  55.5170  55.5170  56.3960

          k =-0.0000 0.0476 0.0952 (   440 PWs)   bands (ev):

     7.1630  10.0061  10.9243  11.0434  11.4393  11.4723  11.5139  12.3489
    12.7262  12.8959  13.0902  13.1325  13.3135  13.6359  14.0600  14.1457
    14.2163  14.3023  14.3322  14.8069  14.8162  15.2059  18.4218  20.8579
    22.3590  24.9359  25.7490  26.7730  27.6200  29.8231  30.0701  30.1208
    31.2132  33.9165  34.6144  37.9031  38.8244  40.4672  40.6648  40.9915
    41.2969  44.2627  45.3693  47.3023  47.8743  48.8006  50.0785  51.4357
    53.0870  53.3078  55.3914  57.1514

          k = 0.0000 0.0476-0.1429 (   442 PWs)   bands (ev):

     8.6683   8.6691  11.3134  11.3135  11.9035  11.9048  11.9156  11.9165
    12.0982  12.0994  12.9617  12.9632  13.7784  13.7794  13.8537  13.8539
    13.8542  13.8544  14.5608  14.5608  14.8052  14.8054  20.2406  20.2417
    23.1503  23.1523  25.6769  25.6786  28.5198  28.5205  31.7414  31.7419
    32.1893  32.1896  35.9867  35.9905  38.9765  38.9766  42.4900  42.4932
    43.2369  43.2383  46.0582  46.0628  50.3340  50.3378  50.4694  50.4711
    52.7296  52.7312  53.7313  53.7324

          k =-0.0000 0.0952 0.0952 (   432 PWs)   bands (ev):

     8.1152  10.6458  10.6458  11.4094  11.4895  11.7291  11.7291  12.2504
    12.3972  12.3972  12.5708  12.9709  13.4582  13.5319  13.8316  13.9706
    13.9707  14.3362  14.3362  14.5277  14.6042  16.3504  16.3504  19.6841
    22.4088  25.4713  27.0504  27.0504  28.0881  28.0881  31.2405  31.8451
    31.8451  31.9116  33.7765  37.0492  41.5683  42.0369  42.0369  43.3525
    43.3954  43.9257  43.9258  47.4516  47.6724  48.7458  48.7458  51.9943
    52.2093  52.3785  53.8132  55.4242

          k = 0.0000 0.0952-0.1429 (   436 PWs)   bands (ev):

     9.4685   9.4692  11.2649  11.2657  11.8957  11.8957  12.0113  12.0124
    12.1257  12.1269  12.6511  12.6520  13.6249  13.6250  13.6992  13.6993
    13.8254  13.8265  14.3788  14.3794  15.2313  15.2315  17.7435  17.7444
    24.5302  24.5316  26.4756  26.4769  28.9660  28.9666  29.7367  29.7370
    33.1319  33.1323  36.9633  36.9670  40.4858  40.4864  43.1594  43.1600
    43.3690  43.3693  46.8512  46.8549  48.2276  48.2296  50.5900  50.5922
    52.1354  52.1386  53.6377  53.6384

          k = 0.0000-0.1429-0.1429 (   428 PWs)   bands (ev):

    10.4825  10.4831  10.4832  10.4838  12.1047  12.1058  12.1058  12.1070
    12.3473  12.3477  12.3477  12.3480  13.4816  13.4818  13.4818  13.4819
    14.0086  14.0095  14.0095  14.0104  16.1794  16.1797  16.1797  16.1800
    26.5147  26.5156  26.5156  26.5165  27.8212  27.8221  27.8221  27.8230
    38.1187  38.1196  38.1196  38.1205  38.5982  38.5993  38.5993  38.6004
    47.1885  47.1886  47.1887  47.1887  49.4587  49.4609  49.4609  49.4631
    52.1380  52.1381  52.1383  52.1384

          k = 0.0476 0.0476 0.0476 (   440 PWs)   bands (ev):

     6.4805  10.5948  10.5948  10.5948  11.2575  11.2575  11.2575  12.6074
    13.0621  13.0621  13.4502  13.4502  13.4502  13.9241  13.9241  14.2173
    14.2173  14.2173  14.8815  14.8815  14.8815  17.4327  17.4327  17.4327
    25.5541  25.5541  25.5541  26.8657  26.8657  26.8657  31.2803  31.2804
    31.2804  33.6594  36.4247  36.4248  36.4248  39.1870  41.3463  41.3463
    43.0568  43.0569  43.0569  46.6187  47.8015  47.8015  52.0918  52.0918
    55.3692  55.3692  55.3692  56.3049

          k = 0.0476 0.0476 0.0952 (   431 PWs)   bands (ev):

     7.4802  10.2055  11.0560  11.0560  11.4992  11.4992  11.5559  12.3594
    12.7276  12.7276  12.8938  13.0937  13.1841  13.8283  13.8627  13.9256
    13.9257  14.2011  14.7690  14.7987  14.7987  15.4884  18.7655  18.7655
    23.0014  23.0014  26.8738  27.5056  27.5056  30.5322  30.5322  31.0040
    31.1574  32.7978  36.8853  37.8158  38.0692  38.9726  38.9726  42.5529
    43.7350  44.6383  47.2349  47.2349  48.1733  49.2294  50.4041  50.4041
    50.9808  53.1275  53.2589  56.0900

          k = 0.0476 0.0476-0.1429 (   434 PWs)   bands (ev):

     8.9253   8.9261  11.4845  11.4846  11.5525  11.5525  11.9667  11.9679
    12.3443  12.3443  12.8745  12.8759  13.4485  13.4488  13.7339  13.7340
    14.3517  14.3526  14.5174  14.5175  14.7509  14.7509  19.8498  19.8498
    21.5305  21.5305  28.4338  28.4339  28.7211  28.7215  29.1352  29.1352
    35.1234  35.1247  35.5323  35.5351  38.3402  38.3429  42.3037  42.3038
    44.9827  44.9842  45.5544  45.5544  49.6053  49.6074  51.0417  51.0423
    52.4092  52.4093  54.3461  54.3463

          k = 0.0476 0.0952 0.0952 (   435 PWs)   bands (ev):

     8.3686  10.6551  10.6551  11.1710  11.6650  11.8064  11.8064  12.3348
    12.5414  12.5414  12.6661  12.9827  13.1328  13.5880  13.5881  13.5904
    13.9530  14.5164  14.6657  14.6657  14.6830  16.4282  16.4282  18.9664
    21.2308  24.2108  24.2109  28.2379  28.3053  31.3036  31.3037  32.3234
    32.3234  34.1900  35.3993  37.0813  39.4692  39.4692  40.1824  43.3184
    44.0236  44.8897  46.6252  46.6252  49.4568  49.4568  50.5375  50.8232
    51.0939  51.9722  52.6120  53.0172

          k = 0.0476 0.0952-0.1429 (   438 PWs)   bands (ev):

     9.5920   9.5926  11.0207  11.0209  11.9263  11.9264  12.1666  12.1677
    12.5210  12.5214  12.7105  12.7114  13.2623  13.2625  13.4442  13.4444
    14.2732  14.2737  14.5731  14.5735  15.1238  15.1240  17.6661  17.6667
    22.2033  22.2038  25.9708  25.9711  29.6406  29.6410  33.2217  33.2218
    33.4346  33.4351  37.0559  37.0589  40.2313  40.2319  40.5989  40.5995
    45.4023  45.4024  45.8683  45.8699  47.8637  47.8646  50.8851  50.8863
    51.9195  51.9202  54.2683  54.2693

          k = 0.0476-0.1429-0.1429 (   432 PWs)   bands (ev):

    10.3718  10.3722  10.3722  10.3725  12.3336  12.3341  12.3341  12.3346
    12.5559  12.5566  12.5566  12.5572  13.2064  13.2067  13.2067  13.2070
    14.3026  14.3033  14.3033  14.3039  16.0526  16.0530  16.0530  16.0533
    23.8072  23.8075  23.8075  23.8079  31.1794  31.1797  31.1797  31.1800
    38.3965  38.3970  38.3971  38.3981  38.4034  38.4045  38.4045  38.4053
    46.7663  46.7663  46.7664  46.7665  47.0297  47.0308  47.0309  47.0321
    55.0997  55.1006  55.1007  55.1017

          k = 0.0952 0.0952 0.0952 (   438 PWs)   bands (ev):

     9.0358  10.6087  10.6087  10.6087  12.1223  12.1224  12.1224  12.6001
    12.8200  12.8200  12.8200  12.9498  12.9498  13.2241  13.2241  13.2241
    14.3958  14.3958  14.8094  14.8094  14.8094  16.6787  16.6787  16.6787
    21.8360  21.8360  21.8360  25.4748  32.6715  32.6715  32.6715  35.4298
    35.4299  35.4299  37.4039  37.4039  37.4039  37.7084  40.1729  40.1729
    44.6663  44.6663  47.9734  48.2147  48.2147  48.2147  48.3964  48.3965
    48.3965  52.6728  52.6729  52.6729

          k = 0.0952 0.0952-0.1429 (   440 PWs)   bands (ev):

     9.8640   9.8642  10.5688  10.5688  12.3158  12.3158  12.6293  12.6300
    12.8774  12.8783  12.9837  12.9838  13.0227  13.0227  13.0910  13.0911
    14.7105  14.7107  14.7379  14.7379  14.9350  14.9352  16.8662  16.8662
    20.9019  20.9019  23.3490  23.3494  33.5411  33.5412  34.8249  34.8250
    36.3402  36.3416  37.4514  37.4520  39.1999  39.2020  39.5098  39.5098
    44.8948  44.8949  45.1471  45.1483  46.2601  46.2605  48.7316  48.7316
    49.8590  49.8594  53.3664  53.3664

          k = 0.0952-0.1429-0.1429 (   436 PWs)   bands (ev):

    10.1798  10.1799  10.1799  10.1800  12.6654  12.6656  12.6656  12.6658
    12.8994  12.8996  12.8996  12.8998  13.3079  13.3083  13.3084  13.3088
    14.6471  14.6475  14.6475  14.6478  15.5582  15.5586  15.5586  15.5590
    21.5726  21.5729  21.5729  21.5732  35.2516  35.2519  35.2520  35.2523
    38.2835  38.2840  38.2840  38.2845  39.1481  39.1486  39.1487  39.1492
    44.4147  44.4153  44.4154  44.4159  45.4148  45.4149  45.4150  45.4151
    50.7501  50.7503  50.7503  50.7506

          k =-0.1429-0.1429-0.1429 (   432 PWs)   bands (ev):

    10.0948  10.0948  10.0948  10.0948  12.7849  12.7849  12.7849  12.7849
    12.7849  12.7849  12.7849  12.7849  14.2354  14.2354  14.2355  14.2355
    14.7809  14.7809  14.7809  14.7809  14.7809  14.7809  14.7809  14.7809
    20.7795  20.7795  20.7795  20.7796  36.8483  36.8485  36.8485  36.8486
    39.7486  39.7486  39.7486  39.7486  39.7487  39.7487  39.7487  39.7487
    43.1768  43.1768  43.1768  43.1768  43.1769  43.1769  43.1769  43.1769
    49.1112  49.1112  49.1112  49.1113

          k =-0.0476 0.0000 0.0476 (   447 PWs)   bands (ev):

     6.1312  10.4064  10.4064  10.5970  11.1548  11.1655  11.1655  12.6628
    13.0370  13.0413  13.7516  13.7930  13.7930  13.8082  14.0121  14.4112
    14.5377  14.5377  14.8098  14.8098  14.8808  16.7765  16.7765  19.0264
    24.2572  25.3106  26.5391  26.5391  28.4733  28.4734  29.0591  29.0591
    30.7492  36.2338  36.2815  37.2708  37.2708  37.4645  40.3696  40.3697
    41.2890  42.8451  43.6104  45.3155  46.7315  50.1138  50.5558  53.5082
    53.8901  55.5171  55.5171  56.3960

          k =-0.0476-0.0000 0.0952 (   440 PWs)   bands (ev):

     7.1630  10.0061  10.9243  11.0434  11.4393  11.4723  11.5139  12.3489
    12.7262  12.8959  13.0902  13.1325  13.3135  13.6359  14.0600  14.1457
    14.2163  14.3023  14.3322  14.8069  14.8162  15.2059  18.4217  20.8579
    22.3591  24.9359  25.7490  26.7730  27.6200  29.8231  30.0701  30.1207
    31.2132  33.9165  34.6144  37.9031  38.8243  40.4672  40.6647  40.9915
    41.2969  44.2628  45.3693  47.3024  47.8743  48.8005  50.0786  51.4357
    53.0870  53.3079  55.3913  57.1515

          k =-0.0952 0.0000 0.0952 (   432 PWs)   bands (ev):

     8.1153  10.6457  10.6457  11.4094  11.4895  11.7291  11.7291  12.2504
    12.3972  12.3972  12.5708  12.9709  13.4582  13.5319  13.8316  13.9706
    13.9707  14.3362  14.3362  14.5277  14.6042  16.3504  16.3504  19.6841
    22.4088  25.4713  27.0504  27.0504  28.0881  28.0881  31.2405  31.8451
    31.8451  31.9116  33.7764  37.0491  41.5683  42.0369  42.0370  43.3525
    43.3953  43.9258  43.9259  47.4515  47.6723  48.7459  48.7459  51.9944
    52.2093  52.3785  53.8131  55.4243

          k = 0.0476-0.0476 0.0476 (   440 PWs)   bands (ev):

     6.4805  10.5948  10.5948  10.5948  11.2575  11.2575  11.2575  12.6074
    13.0621  13.0621  13.4502  13.4502  13.4502  13.9241  13.9241  14.2173
    14.2173  14.2173  14.8815  14.8815  14.8815  17.4327  17.4327  17.4327
    25.5541  25.5542  25.5542  26.8658  26.8658  26.8658  31.2803  31.2803
    31.2804  33.6596  36.4247  36.4247  36.4248  39.1870  41.3462  41.3463
    43.0569  43.0570  43.0571  46.6187  47.8014  47.8015  52.0917  52.0917
    55.3692  55.3692  55.3693  56.3048

          k = 0.0476-0.0476 0.0952 (   431 PWs)   bands (ev):

     7.4802  10.2055  11.0560  11.0560  11.4992  11.4992  11.5559  12.3594
    12.7276  12.7276  12.8938  13.0937  13.1841  13.8283  13.8626  13.9256
    13.9257  14.2011  14.7690  14.7987  14.7987  15.4884  18.7655  18.7655
    23.0013  23.0014  26.8739  27.5056  27.5057  30.5321  30.5322  31.0041
    31.1574  32.7977  36.8852  37.8158  38.0691  38.9725  38.9726  42.5529
    43.7351  44.6382  47.2349  47.2350  48.1732  49.2293  50.4041  50.4041
    50.9808  53.1276  53.2589  56.0899

          k =-0.0952 0.0476 0.0476 (   431 PWs)   bands (ev):

     7.4802  10.2055  11.0560  11.0560  11.4992  11.4992  11.5559  12.3594
    12.7276  12.7276  12.8938  13.0937  13.1841  13.8283  13.8626  13.9256
    13.9257  14.2011  14.7690  14.7987  14.7987  15.4884  18.7655  18.7655
    23.0014  23.0014  26.8738  27.5056  27.5057  30.5321  30.5321  31.0041
    31.1574  32.7978  36.8853  37.8158  38.0692  38.9725  38.9726  42.5529
    43.7350  44.6381  47.2350  47.2351  48.1732  49.2294  50.4041  50.4041
    50.9808  53.1277  53.2590  56.0900

          k = 0.0476-0.0476-0.1429 (   434 PWs)   bands (ev):

     8.9253   8.9261  11.4845  11.4846  11.5525  11.5525  11.9667  11.9679
    12.3443  12.3443  12.8745  12.8759  13.4485  13.4488  13.7339  13.7340
    14.3517  14.3526  14.5174  14.5175  14.7509  14.7509  19.8498  19.8499
    21.5304  21.5305  28.4338  28.4339  28.7212  28.7215  29.1352  29.1353
    35.1234  35.1246  35.5323  35.5351  38.3401  38.3429  42.3037  42.3038
    44.9828  44.9843  45.5543  45.5544  49.6054  49.6074  51.0416  51.0422
    52.4092  52.4093  54.3461  54.3463

          k = 0.0952-0.0476 0.0952 (   435 PWs)   bands (ev):

     8.3686  10.6551  10.6551  11.1710  11.6650  11.8064  11.8064  12.3348
    12.5414  12.5414  12.6661  12.9827  13.1328  13.5880  13.5880  13.5904
    13.9530  14.5163  14.6657  14.6657  14.6830  16.4282  16.4282  18.9664
    21.2308  24.2109  24.2109  28.2380  28.3054  31.3036  31.3037  32.3234
    32.3234  34.1900  35.3992  37.0813  39.4691  39.4691  40.1823  43.3184
    44.0236  44.8897  46.6253  46.6253  49.4569  49.4569  50.5376  50.8233
    51.0938  51.9722  52.6121  53.0172

          k =-0.0952 0.0476 0.0952 (   435 PWs)   bands (ev):

     8.3686  10.6551  10.6551  11.1711  11.6650  11.8064  11.8064  12.3348
    12.5414  12.5414  12.6661  12.9827  13.1328  13.5880  13.5881  13.5904
    13.9530  14.5164  14.6657  14.6657  14.6830  16.4282  16.4282  18.9664
    21.2308  24.2108  24.2109  28.2380  28.3054  31.3036  31.3037  32.3234
    32.3234  34.1899  35.3993  37.0812  39.4692  39.4693  40.1823  43.3184
    44.0235  44.8896  46.6253  46.6253  49.4569  49.4569  50.5376  50.8232
    51.0939  51.9721  52.6122  53.0172

          k = 0.0952-0.0476-0.1429 (   438 PWs)   bands (ev):

     9.5920   9.5926  11.0207  11.0210  11.9263  11.9264  12.1666  12.1677
    12.5210  12.5214  12.7105  12.7114  13.2623  13.2625  13.4442  13.4444
    14.2732  14.2737  14.5731  14.5735  15.1238  15.1240  17.6660  17.6667
    22.2033  22.2038  25.9708  25.9711  29.6406  29.6411  33.2217  33.2218
    33.4346  33.4351  37.0559  37.0589  40.2313  40.2319  40.5989  40.5994
    45.4022  45.4024  45.8683  45.8699  47.8637  47.8647  50.8851  50.8864
    51.9196  51.9203  54.2684  54.2693

          k = 0.0952-0.0952 0.0952 (   438 PWs)   bands (ev):

     9.0358  10.6087  10.6087  10.6087  12.1224  12.1224  12.1224  12.6001
    12.8200  12.8200  12.8200  12.9498  12.9498  13.2241  13.2241  13.2241
    14.3958  14.3958  14.8094  14.8094  14.8094  16.6787  16.6787  16.6787
    21.8359  21.8360  21.8360  25.4749  32.6715  32.6716  32.6716  35.4297
    35.4298  35.4299  37.4038  37.4039  37.4040  37.7083  40.1728  40.1728
    44.6662  44.6662  47.9733  48.2147  48.2147  48.2148  48.3964  48.3965
    48.3965  52.6729  52.6730  52.6730

          k = 0.0952-0.0952-0.1429 (   440 PWs)   bands (ev):

     9.8640   9.8643  10.5688  10.5688  12.3158  12.3158  12.6293  12.6300
    12.8774  12.8783  12.9837  12.9838  13.0227  13.0227  13.0910  13.0910
    14.7105  14.7107  14.7379  14.7379  14.9350  14.9352  16.8662  16.8662
    20.9019  20.9019  23.3491  23.3494  33.5411  33.5412  34.8250  34.8250
    36.3402  36.3416  37.4513  37.4519  39.1999  39.2020  39.5097  39.5099
    44.8948  44.8949  45.1471  45.1483  46.2600  46.2605  48.7317  48.7317
    49.8590  49.8594  53.3665  53.3665

     the Fermi energy is    14.5527 ev

!    total energy              =    -343.62477644 Ry
     Harris-Foulkes estimate   =    -343.62473817 Ry
     estimated scf accuracy    <          5.3E-11 Ry

     The total energy is the sum of the following terms:

     one-electron contribution =      -6.02523152 Ry
     hartree contribution      =      60.25671630 Ry
     xc contribution           =    -120.53251140 Ry
     ewald contribution        =    -277.27515051 Ry
     Dispersion Correction     =      -0.04801664 Ry
     smearing contrib. (-TS)   =      -0.00058266 Ry

     total magnetization       =     2.83 Bohr mag/cell
     absolute magnetization    =     3.25 Bohr mag/cell

     convergence has been achieved in  17 iterations

     Forces acting on atoms (Ry/au):

     atom    1 type  1   force =    -0.00008586   -0.00008586    0.00008623
     atom    2 type  1   force =     0.00008549    0.00008549    0.00008549
     atom    3 type  1   force =    -0.00008586    0.00008623   -0.00008586
     atom    4 type  1   force =     0.00008623   -0.00008586   -0.00008586

     Total force =     0.000297     Total SCF correction =     0.000007


     entering subroutine stress ...

          total   stress  (Ry/bohr**3)                   (kbar)     P=    0.41
   0.00000280  -0.00000003  -0.00000003          0.41     -0.01     -0.01
  -0.00000003   0.00000280  -0.00000003         -0.01      0.41     -0.01
  -0.00000003  -0.00000003   0.00000280         -0.01     -0.01      0.41


     Writing output data file Ni-ferromag.save

     init_run     :     11.62s CPU     11.77s WALL (       2 calls)
     electrons    :    726.66s CPU    739.18s WALL (       5 calls)
     update_pot   :     16.54s CPU     16.60s WALL (       3 calls)
     forces       :     22.27s CPU     22.47s WALL (       5 calls)
     stress       :     47.79s CPU     48.34s WALL (       5 calls)

     Called by init_run:
     wfcinit      :      5.53s CPU      5.59s WALL (       2 calls)
     potinit      :      1.82s CPU      1.84s WALL (       2 calls)

     Called by electrons:
     c_bands      :    588.15s CPU    596.39s WALL (      66 calls)
     sum_band     :    101.82s CPU    103.78s WALL (      66 calls)
     v_of_rho     :     20.21s CPU     20.97s WALL (      71 calls)
     newd         :     17.58s CPU     19.24s WALL (      71 calls)
     mix_rho      :      0.93s CPU      0.94s WALL (      66 calls)

     Called by c_bands:
     init_us_2    :      3.32s CPU      3.27s WALL (    9216 calls)
     cegterg      :    576.80s CPU    584.99s WALL (    4224 calls)

     Called by sum_band:
     sum_band:bec :      0.70s CPU      0.71s WALL (    4224 calls)
     addusdens    :     24.44s CPU     26.09s WALL (      66 calls)

     Called by *egterg:
     h_psi        :    275.84s CPU    276.85s WALL (   12426 calls)
     s_psi        :     33.67s CPU     33.65s WALL (   12426 calls)
     g_psi        :      1.42s CPU      1.40s WALL (    8074 calls)
     cdiaghg      :    129.71s CPU    129.84s WALL (   12106 calls)

     Called by h_psi:
     add_vuspsi   :     33.64s CPU     33.70s WALL (   12426 calls)

     General routines
     calbec       :     56.67s CPU     56.74s WALL (   18250 calls)
     fft          :      7.06s CPU      7.64s WALL (    2371 calls)
     ffts         :      0.06s CPU      0.07s WALL (     274 calls)
     fftw         :    186.77s CPU    187.74s WALL ( 1208016 calls)
     interpolate  :      0.95s CPU      1.03s WALL (     274 calls)

     Parallel routines
     fft_scatter  :     10.14s CPU     10.64s WALL ( 1210661 calls)

     PWSCF        : 13m46.67s CPU    14m 0.31s WALL


   This run was terminated on:   0:14:35  27May2016            

=------------------------------------------------------------------------------=
   JOB DONE.
=------------------------------------------------------------------------------=
