
     Program PWSCF v.5.3.0 (svn rev. 11974) starts on 27May2016 at  0:34:11 

     This program is part of the open-source Quantum ESPRESSO suite
     for quantum simulation of materials; please cite
         "P. Giannozzi et al., J. Phys.:Condens. Matter 21 395502 (2009);
          URL http://www.quantum-espresso.org", 
     in publications or presentations arising from this work. More details at
     http://www.quantum-espresso.org/quote

     Parallel version (MPI), running on     1 processors
     Waiting for input...
     Reading input from standard input
     Message from routine read_cards :
     DEPRECATED: no units specified in CELL_PARAMETERS card

     Current dimensions of program PWSCF are:
     Max number of different atomic species (ntypx) = 10
     Max number of k-points (npk) =  40000
     Max angular momentum in pseudopotentials (lmaxx) =  3
               file Ni.pbe-nd-rrkjus.UPF: wavefunction(s)  4S renormalized

     -------------------------------------
     Parameters for Dispersion Correction:
     -------------------------------------
       atom      VdW radius       C_6     

        Ni1        3.014        159.927

     Subspace diagonalization in iterative solution of the eigenvalue problem:
     a serial algorithm will be used


     G-vector sticks info
     --------------------
     sticks:   dense  smooth     PW     G-vecs:    dense   smooth      PW
     Sum        1413     421    137                39847     6619    1237

     Generating pointlists ...
     new r_m :   0.4125 (alat units)  0.7795 (a.u.) for type    1

     Title: 
     Ni-ferro-mag                                                               


     bravais-lattice index     =            0
     lattice parameter (alat)  =       1.8897  a.u.
     unit-cell volume          =     295.0010 (a.u.)^3
     number of atoms/cell      =            4
     number of atomic types    =            1
     number of electrons       =        40.00
     number of Kohn-Sham states=           52
     kinetic-energy cutoff     =      30.0000  Ry
     charge density cutoff     =     400.0000  Ry
     convergence threshold     =      1.0E-08
     mixing beta               =       0.2000
     number of iterations used =            8  plain     mixing
     Exchange-correlation      =  SLA  PW   PBE  PBE ( 1  4  3  4 0 0)
     nstep                     =           50


     celldm(1)=   1.889726  celldm(2)=   0.000000  celldm(3)=   0.000000
     celldm(4)=   0.000000  celldm(5)=   0.000000  celldm(6)=   0.000000

     crystal axes: (cart. coord. in units of alat)
               a(1) = (   3.522700   0.000000   0.000000 )  
               a(2) = (   0.000000   3.522700   0.000000 )  
               a(3) = (   0.000000   0.000000   3.522700 )  

     reciprocal axes: (cart. coord. in units 2 pi/alat)
               b(1) = (  0.283873  0.000000  0.000000 )  
               b(2) = (  0.000000  0.283873  0.000000 )  
               b(3) = (  0.000000  0.000000  0.283873 )  


     PseudoPot. # 1 for Ni read from file:
     /home/eliot/pseudo/Ni.pbe-nd-rrkjus.UPF
     MD5 check sum: 8081f0a005c9a5470caab1a58e82ecb2
     Pseudo is Ultrasoft + core correction, Zval = 10.0
     Generated by new atomic code, or converted to UPF format
     Using radial grid of 1203 points,  6 beta functions with: 
                l(1) =   0
                l(2) =   0
                l(3) =   1
                l(4) =   1
                l(5) =   2
                l(6) =   2
     Q(r) pseudized with 0 coefficients 


     atomic species   valence    mass     pseudopotential
        Ni1           10.00    58.69340     Ni( 1.00)

     Starting magnetic structure 
     atomic species   magnetization
        Ni1          0.500

      6 Sym. Ops. (no inversion) found



   Cartesian axes

     site n.     atom                  positions (alat units)
         1           Ni1 tau(   1) = (   1.7691699   1.7691699   0.0000000  )
         2           Ni1 tau(   2) = (   0.0000000   0.0000000   0.0000000  )
         3           Ni1 tau(   3) = (   1.7691699   0.0000000   1.7691699  )
         4           Ni1 tau(   4) = (   0.0000000   1.7691699   1.7691699  )

     number of k points=    32  Methfessel-Paxton smearing, width (Ry)=  0.0500
                       cart. coord. in units 2pi/alat
        k(    1) = (   0.0000000   0.0000000   0.0000000), wk =   0.0046296
        k(    2) = (   0.0000000   0.0000000   0.0473122), wk =   0.0277778
        k(    3) = (   0.0000000   0.0000000   0.0946244), wk =   0.0277778
        k(    4) = (   0.0000000   0.0000000  -0.1419366), wk =   0.0138889
        k(    5) = (   0.0000000   0.0473122   0.0473122), wk =   0.0277778
        k(    6) = (   0.0000000   0.0473122   0.0946244), wk =   0.0555556
        k(    7) = (   0.0000000   0.0473122  -0.1419366), wk =   0.0555556
        k(    8) = (   0.0000000   0.0946244   0.0946244), wk =   0.0277778
        k(    9) = (   0.0000000   0.0946244  -0.1419366), wk =   0.0555556
        k(   10) = (   0.0000000  -0.1419366  -0.1419366), wk =   0.0138889
        k(   11) = (   0.0473122   0.0473122   0.0473122), wk =   0.0092593
        k(   12) = (   0.0473122   0.0473122   0.0946244), wk =   0.0277778
        k(   13) = (   0.0473122   0.0473122  -0.1419366), wk =   0.0277778
        k(   14) = (   0.0473122   0.0946244   0.0946244), wk =   0.0277778
        k(   15) = (   0.0473122   0.0946244  -0.1419366), wk =   0.0555556
        k(   16) = (   0.0473122  -0.1419366  -0.1419366), wk =   0.0277778
        k(   17) = (   0.0946244   0.0946244   0.0946244), wk =   0.0092593
        k(   18) = (   0.0946244   0.0946244  -0.1419366), wk =   0.0277778
        k(   19) = (   0.0946244  -0.1419366  -0.1419366), wk =   0.0277778
        k(   20) = (  -0.1419366  -0.1419366  -0.1419366), wk =   0.0046296
        k(   21) = (  -0.0473122   0.0000000   0.0473122), wk =   0.0277778
        k(   22) = (  -0.0473122   0.0000000   0.0946244), wk =   0.0555556
        k(   23) = (  -0.0946244   0.0000000   0.0946244), wk =   0.0277778
        k(   24) = (   0.0473122  -0.0473122   0.0473122), wk =   0.0277778
        k(   25) = (   0.0473122  -0.0473122   0.0946244), wk =   0.0555556
        k(   26) = (  -0.0946244   0.0473122   0.0473122), wk =   0.0277778
        k(   27) = (   0.0473122  -0.0473122  -0.1419366), wk =   0.0277778
        k(   28) = (   0.0946244  -0.0473122   0.0946244), wk =   0.0277778
        k(   29) = (  -0.0946244   0.0473122   0.0946244), wk =   0.0555556
        k(   30) = (   0.0946244  -0.0473122  -0.1419366), wk =   0.0555556
        k(   31) = (   0.0946244  -0.0946244   0.0946244), wk =   0.0277778
        k(   32) = (   0.0946244  -0.0946244  -0.1419366), wk =   0.0277778

     Dense  grid:    39847 G-vectors     FFT dimensions: (  45,  45,  45)

     Smooth grid:     6619 G-vectors     FFT dimensions: (  24,  24,  24)

     Largest allocated arrays     est. size (Mb)     dimensions
        Kohn-Sham Wavefunctions         0.67 Mb     (     840,   52)
        NL pseudopotentials             0.92 Mb     (     840,   72)
        Each V/rho on FFT grid          2.78 Mb     (   91125,   2)
        Each G-vector array             0.30 Mb     (   39847)
        G-vector shells                 0.30 Mb     (   39847)
     Largest temporary arrays     est. size (Mb)     dimensions
        Auxiliary wavefunctions         2.67 Mb     (     840,  208)
        Each subspace H/S matrix        0.66 Mb     (     208,  208)
        Each <psi_i|beta_j> matrix      0.06 Mb     (      72,   52)
        Arrays for rho mixing          11.12 Mb     (   91125,    8)

     Check: negative/imaginary core charge=   -0.000005    0.000000

     Initial potential from superposition of free atoms

     starting charge   39.99816, renormalised to   40.00000
     Starting wfc are   24 randomized atomic wfcs +   28 random wfc

     total cpu time spent up to now is        9.5 secs

     Self-consistent Calculation

     iteration #  1     ecut=    30.00 Ry     beta=0.20
     Davidson diagonalization with overlap
     ethr =  1.00E-02,  avg # of iterations =  5.9

     total cpu time spent up to now is       47.7 secs

     total energy              =    -342.90116942 Ry
     Harris-Foulkes estimate   =    -343.18439028 Ry
     estimated scf accuracy    <       2.43496765 Ry

     total magnetization       =     6.91 Bohr mag/cell
     absolute magnetization    =     6.92 Bohr mag/cell

     iteration #  2     ecut=    30.00 Ry     beta=0.20
     Davidson diagonalization with overlap
     ethr =  6.09E-03,  avg # of iterations =  1.0

     total cpu time spent up to now is       61.7 secs

     total energy              =    -343.20559713 Ry
     Harris-Foulkes estimate   =    -343.04020571 Ry
     estimated scf accuracy    <       0.77176790 Ry

     total magnetization       =     5.77 Bohr mag/cell
     absolute magnetization    =     5.87 Bohr mag/cell

     iteration #  3     ecut=    30.00 Ry     beta=0.20
     Davidson diagonalization with overlap
     ethr =  1.93E-03,  avg # of iterations =  1.5

     negative rho (up, down):  0.000E+00 3.638E-04

     total cpu time spent up to now is       76.1 secs

     total energy              =    -343.52066876 Ry
     Harris-Foulkes estimate   =    -343.27771678 Ry
     estimated scf accuracy    <       0.36066240 Ry

     total magnetization       =     4.53 Bohr mag/cell
     absolute magnetization    =     4.85 Bohr mag/cell

     iteration #  4     ecut=    30.00 Ry     beta=0.20
     Davidson diagonalization with overlap
     ethr =  9.02E-04,  avg # of iterations =  1.6

     negative rho (up, down):  0.000E+00 1.560E-04

     total cpu time spent up to now is       90.6 secs

     total energy              =    -343.60865254 Ry
     Harris-Foulkes estimate   =    -343.63690734 Ry
     estimated scf accuracy    <       0.12469695 Ry

     total magnetization       =     2.54 Bohr mag/cell
     absolute magnetization    =     3.17 Bohr mag/cell

     iteration #  5     ecut=    30.00 Ry     beta=0.20
     Davidson diagonalization with overlap
     ethr =  3.12E-04,  avg # of iterations =  1.0

     negative rho (up, down):  0.000E+00 3.256E-05

     total cpu time spent up to now is      104.5 secs

     total energy              =    -343.61744794 Ry
     Harris-Foulkes estimate   =    -343.61846014 Ry
     estimated scf accuracy    <       0.01590296 Ry

     total magnetization       =     2.62 Bohr mag/cell
     absolute magnetization    =     3.23 Bohr mag/cell

     iteration #  6     ecut=    30.00 Ry     beta=0.20
     Davidson diagonalization with overlap
     ethr =  3.98E-05,  avg # of iterations =  3.8

     total cpu time spent up to now is      121.2 secs

     total energy              =    -343.62343225 Ry
     Harris-Foulkes estimate   =    -343.62158094 Ry
     estimated scf accuracy    <       0.00193581 Ry

     total magnetization       =     2.72 Bohr mag/cell
     absolute magnetization    =     3.31 Bohr mag/cell

     iteration #  7     ecut=    30.00 Ry     beta=0.20
     Davidson diagonalization with overlap
     ethr =  4.84E-06,  avg # of iterations =  3.6

     total cpu time spent up to now is      137.8 secs

     total energy              =    -343.62654742 Ry
     Harris-Foulkes estimate   =    -343.62522769 Ry
     estimated scf accuracy    <       0.00167615 Ry

     total magnetization       =     3.03 Bohr mag/cell
     absolute magnetization    =     3.52 Bohr mag/cell

     iteration #  8     ecut=    30.00 Ry     beta=0.20
     Davidson diagonalization with overlap
     ethr =  4.19E-06,  avg # of iterations =  1.0

     total cpu time spent up to now is      151.8 secs

     total energy              =    -343.62751620 Ry
     Harris-Foulkes estimate   =    -343.62689292 Ry
     estimated scf accuracy    <       0.00007463 Ry

     total magnetization       =     2.91 Bohr mag/cell
     absolute magnetization    =     3.37 Bohr mag/cell

     iteration #  9     ecut=    30.00 Ry     beta=0.20
     Davidson diagonalization with overlap
     ethr =  1.87E-07,  avg # of iterations =  1.6

     total cpu time spent up to now is      166.2 secs

     total energy              =    -343.62807932 Ry
     Harris-Foulkes estimate   =    -343.62754538 Ry
     estimated scf accuracy    <       0.00004558 Ry

     total magnetization       =     2.88 Bohr mag/cell
     absolute magnetization    =     3.32 Bohr mag/cell

     iteration # 10     ecut=    30.00 Ry     beta=0.20
     Davidson diagonalization with overlap
     ethr =  1.14E-07,  avg # of iterations =  1.0

     total cpu time spent up to now is      180.1 secs

     total energy              =    -343.62837993 Ry
     Harris-Foulkes estimate   =    -343.62809334 Ry
     estimated scf accuracy    <       0.00001772 Ry

     total magnetization       =     2.89 Bohr mag/cell
     absolute magnetization    =     3.33 Bohr mag/cell

     iteration # 11     ecut=    30.00 Ry     beta=0.20
     Davidson diagonalization with overlap
     ethr =  4.43E-08,  avg # of iterations =  1.0

     total cpu time spent up to now is      194.0 secs

     total energy              =    -343.62858469 Ry
     Harris-Foulkes estimate   =    -343.62838720 Ry
     estimated scf accuracy    <       0.00000221 Ry

     total magnetization       =     2.88 Bohr mag/cell
     absolute magnetization    =     3.31 Bohr mag/cell

     iteration # 12     ecut=    30.00 Ry     beta=0.20
     Davidson diagonalization with overlap
     ethr =  5.52E-09,  avg # of iterations =  1.0

     total cpu time spent up to now is      207.9 secs

     total energy              =    -343.62872298 Ry
     Harris-Foulkes estimate   =    -343.62858576 Ry
     estimated scf accuracy    <       0.00000035 Ry

     total magnetization       =     2.87 Bohr mag/cell
     absolute magnetization    =     3.30 Bohr mag/cell

     iteration # 13     ecut=    30.00 Ry     beta=0.20
     Davidson diagonalization with overlap
     ethr =  8.64E-10,  avg # of iterations =  1.3

     total cpu time spent up to now is      222.0 secs

     total energy              =    -343.62881153 Ry
     Harris-Foulkes estimate   =    -343.62872312 Ry
     estimated scf accuracy    <       0.00000005 Ry

     total magnetization       =     2.87 Bohr mag/cell
     absolute magnetization    =     3.30 Bohr mag/cell

     iteration # 14     ecut=    30.00 Ry     beta=0.20
     Davidson diagonalization with overlap
     ethr =  1.29E-10,  avg # of iterations =  1.2

     total cpu time spent up to now is      236.2 secs

     total energy              =    -343.62886932 Ry
     Harris-Foulkes estimate   =    -343.62881154 Ry
     estimated scf accuracy    <       0.00000002 Ry

     total magnetization       =     2.87 Bohr mag/cell
     absolute magnetization    =     3.30 Bohr mag/cell

     iteration # 15     ecut=    30.00 Ry     beta=0.20
     Davidson diagonalization with overlap
     ethr =  5.23E-11,  avg # of iterations =  2.0

     total cpu time spent up to now is      251.2 secs

     total energy              =    -343.62890470 Ry
     Harris-Foulkes estimate   =    -343.62886933 Ry
     estimated scf accuracy    <       0.00000004 Ry

     total magnetization       =     2.87 Bohr mag/cell
     absolute magnetization    =     3.30 Bohr mag/cell

     iteration # 16     ecut=    30.00 Ry     beta=0.20
     Davidson diagonalization with overlap
     ethr =  5.23E-11,  avg # of iterations =  1.8

     Magnetic moment per site:
     atom:    1    charge:    3.0543    magn:    0.3440    constr:    0.0000
     atom:    2    charge:    3.0526    magn:    0.3438    constr:    0.0000
     atom:    3    charge:    3.0543    magn:    0.3440    constr:    0.0000
     atom:    4    charge:    3.0543    magn:    0.3440    constr:    0.0000

     total cpu time spent up to now is      265.9 secs

     End of self-consistent calculation

 ------ SPIN UP ------------


          k = 0.0000 0.0000 0.0000 (   799 PWs)   bands (ev):

     5.2288   9.4945   9.4945   9.4945   9.9351   9.9357   9.9357  11.6686
    11.6686  11.6686  12.8182  12.8182  13.5181  13.5181  13.5181  13.6039
    13.6039  13.6039  13.6041  13.6041  13.6041  16.7425  16.7427  16.7427
    23.3414  23.3415  23.3415  29.0912  29.0912  29.0912  29.0914  29.0914
    29.0915  34.1100  34.1100  34.1104  37.3496  37.3497  37.3497  38.0325
    41.8755  41.8755  41.8755  45.3951  45.3951  45.3951  47.5723  54.3425
    54.3425  54.3425  57.4694  58.5706

          k = 0.0000 0.0000 0.0473 (   807 PWs)   bands (ev):

     5.5905   9.5138   9.6749   9.6749  10.0433  10.0584  10.0588  11.5436
    11.7684  11.7684  12.7030  12.8632  12.9709  12.9711  13.3683  13.3683
    13.4334  13.4334  13.4698  13.6044  13.6044  15.1468  17.6790  17.6792
    23.4406  23.4406  25.5854  27.3505  27.3508  27.9639  27.9639  29.6430
    29.6430  34.2283  36.2707  36.2709  37.3796  37.4799  39.2962  39.2963
    39.6517  39.6517  40.3574  46.8214  47.4796  47.4796  48.4075  50.8871
    55.4029  55.4029  55.9802  55.9807

          k = 0.0000 0.0000 0.0946 (   820 PWs)   bands (ev):

     6.6278   9.2776  10.1027  10.1027  10.3432  10.4315  10.4322  11.2092
    11.9406  11.9413  12.0575  12.0575  12.4240  12.9892  12.9910  12.9910
    13.0035  13.0158  13.0158  13.3392  13.6049  13.6049  19.6092  19.6094
    23.7688  23.7688  24.6011  24.6012  26.1900  26.1900  29.8666  31.1986
    31.1986  34.5984  36.2249  36.4541  36.4541  37.8347  38.0210  40.2858
    40.2861  43.3995  43.4310  43.4311  50.2483  50.3955  50.3956  50.4139
    50.4139  54.3407  55.3211  55.3211

          k = 0.0000 0.0000-0.1419 (   820 PWs)   bands (ev):

     8.1033   8.1260  10.3730  10.3730  10.7508  10.7826  11.0474  11.0476
    11.0790  11.0793  12.2299  12.2743  12.4857  12.4857  12.5095  12.5095
    12.7605  12.7605  13.1541  13.1716  13.6051  13.6052  21.9364  21.9366
    21.9926  21.9928  24.1656  24.1656  25.2238  25.2239  33.5243  33.5243
    33.5643  33.5643  34.3715  34.4539  35.2466  35.2652  39.5055  39.6362
    44.9936  44.9939  45.1072  45.1074  46.9046  46.9046  51.5954  51.5954
    53.4715  53.4715  53.5767  53.5767

          k = 0.0000 0.0473 0.0473 (   806 PWs)   bands (ev):

     5.9438   9.7083   9.7083   9.8344  10.1573  10.1578  10.1711  11.4855
    11.8123  11.8289  12.6333  12.6675  12.6899  12.7022  12.8597  13.2440
    13.3648  13.3648  13.4318  13.4320  13.4918  16.0556  16.0556  18.4344
    23.4505  24.6353  25.7763  25.7766  27.8203  27.8203  28.4469  28.4476
    30.1622  35.4762  35.6029  36.4792  36.4796  36.7746  39.4649  39.4654
    40.7149  41.9493  42.9250  44.6264  45.6909  49.0112  49.8113  52.2983
    53.0240  54.6660  54.6672  55.6156

          k = 0.0000 0.0473 0.0946 (   822 PWs)   bands (ev):

     6.9541   9.5099  10.1808  10.2287  10.4322  10.4844  10.5025  11.2124
    11.7076  11.8437  11.9555  12.0688  12.0961  12.5180  12.9291  12.9951
    13.0183  13.0355  13.1841  13.4276  13.4355  14.1038  17.6429  20.1901
    21.6682  24.1332  25.0558  26.0870  26.8887  29.1179  29.4143  29.4671
    30.4871  33.2038  33.9324  37.1306  38.0593  39.8339  40.0136  40.0887
    40.5406  43.3673  44.2817  46.3677  47.1661  47.9282  49.2290  50.6780
    52.2644  52.6023  54.0923  55.6014

          k = 0.0000 0.0473-0.1419 (   826 PWs)   bands (ev):

     8.3825   8.4038  10.5209  10.5223  10.8008  10.8315  10.9212  10.9472
    11.0621  11.0929  11.8712  11.9040  12.4862  12.5105  12.7177  12.7283
    12.7457  12.7471  13.3418  13.3421  13.4238  13.4287  19.4754  19.5041
    22.4313  22.4819  24.9269  24.9640  27.8075  27.8192  30.9798  30.9975
    31.5033  31.5160  35.2420  35.3376  38.2719  38.2797  41.4805  41.5601
    42.4911  42.5199  45.2713  45.3786  49.3053  49.4029  49.6838  49.7291
    51.9302  51.9652  52.5077  52.5377

          k = 0.0000 0.0946 0.0946 (   824 PWs)   bands (ev):

     7.8714  10.0876  10.0878  10.4499  10.6925  10.6938  10.7110  11.1451
    11.3853  11.3854  11.5363  11.8472  12.1960  12.4341  12.7190  12.8687
    12.8693  13.0046  13.0050  13.1702  13.3806  15.3285  15.3285  18.9099
    21.6954  24.6839  26.3114  26.3115  27.4173  27.4179  30.4828  31.1118
    31.1181  31.2296  33.0669  36.2867  40.9630  41.2990  41.2993  42.4437
    42.8511  43.1223  43.1224  46.4580  46.6641  47.7916  47.7924  50.9543
    51.5078  51.5336  52.4964  54.6647

          k = 0.0000 0.0946-0.1419 (   814 PWs)   bands (ev):

     9.1197   9.1372  10.5394  10.5594  10.9230  10.9422  10.9577  10.9649
    11.0818  11.1105  11.5798  11.6014  12.5203  12.5361  12.5377  12.5441
    12.6044  12.6076  13.0311  13.0458  14.0258  14.0295  16.8304  16.8529
    23.7754  23.8141  25.7352  25.7653  28.1603  28.1793  29.0405  29.0435
    32.4147  32.4219  36.1891  36.2817  39.7732  39.7923  42.4588  42.4770
    42.5841  42.5928  46.0778  46.1653  47.1916  47.2442  49.7431  49.7916
    50.9752  51.0560  52.8788  52.9003

          k = 0.0000-0.1419-0.1419 (   840 PWs)   bands (ev):

     9.9599   9.9750   9.9750   9.9895  11.0307  11.0580  11.0580  11.0850
    11.3552  11.3631  11.3631  11.3706  12.3916  12.3941  12.3941  12.3971
    12.6769  12.6995  12.6995  12.7218  15.0699  15.0805  15.0805  15.0912
    25.7190  25.7462  25.7462  25.7729  27.0777  27.0953  27.0953  27.1138
    37.2738  37.2996  37.2996  37.3266  37.9231  37.9563  37.9563  37.9850
    46.5763  46.5763  46.5776  46.5781  48.4788  48.5277  48.5277  48.5762
    51.0344  51.0378  51.0379  51.0405

          k = 0.0473 0.0473 0.0473 (   820 PWs)   bands (ev):

     6.2857   9.8655   9.8657   9.8657  10.2690  10.2697  10.2697  11.4518
    11.8480  11.8480  12.3937  12.3937  12.3938  12.7749  12.7749  13.0160
    13.0165  13.0165  13.5446  13.5446  13.5448  16.6713  16.6715  16.6715
    24.8816  24.8818  24.8818  26.1067  26.1067  26.1070  30.6695  30.6698
    30.6698  32.9629  35.6078  35.6078  35.6082  38.7571  40.5223  40.5223
    42.1555  42.1555  42.1555  45.9803  47.0175  47.0175  50.8296  50.8296
    54.5290  54.5300  54.5300  54.5551

          k = 0.0473 0.0473 0.0946 (   819 PWs)   bands (ev):

     7.2569   9.6663  10.2391  10.2394  10.5477  10.5768  10.5770  11.2483
    11.6980  11.6981  11.8840  11.9310  11.9848  12.6235  12.6913  12.7769
    12.7790  13.0089  13.4498  13.4498  13.4819  14.4612  17.9954  17.9955
    22.2761  22.2762  26.1529  26.7635  26.7636  29.8518  29.8521  30.2417
    30.4461  32.1283  36.0836  37.2628  37.2755  38.2182  38.2182  41.7491
    42.8412  43.8301  46.3394  46.3395  47.1901  48.4412  49.5318  49.5319
    50.0094  52.3541  52.3860  54.8181

          k = 0.0473 0.0473-0.1419 (   828 PWs)   bands (ev):

     8.6092   8.6282  10.6129  10.6142  10.6775  10.6778  10.8965  10.9252
    11.3147  11.3148  11.7783  11.8105  12.2454  12.2564  12.6136  12.6140
    13.1637  13.1863  13.2747  13.2796  13.3954  13.3954  19.1401  19.1402
    20.7171  20.7172  27.7399  27.7444  27.9521  27.9682  28.4085  28.4153
    34.3685  34.4022  34.8844  34.9496  37.4663  37.5344  41.6099  41.6099
    44.0572  44.0924  44.7401  44.7405  48.8158  48.8663  50.2225  50.2402
    51.4430  51.4433  53.0043  53.0153

          k = 0.0473 0.0946 0.0946 (   822 PWs)   bands (ev):

     8.0890   9.9787   9.9791  10.2619  10.8595  10.9023  10.9027  11.2925
    11.4988  11.4991  11.6296  11.8489  11.9704  12.4364  12.4369  12.4535
    12.7486  13.2886  13.3534  13.3705  13.3724  15.4609  15.4610  18.2547
    20.3739  23.4566  23.4566  27.4506  27.5789  30.6466  30.6468  31.5808
    31.5812  33.4748  34.7118  36.3597  38.7493  38.7496  39.6121  42.3631
    43.1254  44.1773  45.8131  45.8132  48.4955  48.4959  49.7521  49.9158
    50.2314  50.8678  51.6003  52.2487

          k = 0.0473 0.0946-0.1419 (   810 PWs)   bands (ev):

     9.1601   9.1720  10.1945  10.1980  11.0668  11.0679  11.1977  11.2209
    11.5019  11.5116  11.6146  11.6357  12.1120  12.1200  12.3196  12.3247
    13.0332  13.0422  13.2541  13.2634  13.9356  13.9390  16.8172  16.8356
    21.3783  21.3929  25.1943  25.2050  28.9415  28.9492  32.5206  32.5255
    32.7155  32.7223  36.3164  36.3929  39.5550  39.5723  39.8434  39.8564
    44.5608  44.5673  45.0317  45.0673  47.0349  47.0534  49.8517  49.8820
    51.1039  51.1222  53.1513  53.1798

          k = 0.0473-0.1419-0.1419 (   820 PWs)   bands (ev):

     9.7279   9.7333   9.7333   9.7379  11.4384  11.4462  11.4462  11.4533
    11.5181  11.5335  11.5335  11.5493  12.0809  12.0887  12.0887  12.0965
    13.0060  13.0201  13.0201  13.0344  14.9852  14.9968  14.9968  15.0086
    22.9942  23.0057  23.0057  23.0171  30.4685  30.4707  30.4707  30.4735
    37.5543  37.5750  37.5750  37.6010  37.7786  37.8097  37.8097  37.8327
    46.0301  46.0301  46.0341  46.0377  46.0683  46.0994  46.0994  46.1196
    54.0059  54.0239  54.0243  54.0487

          k = 0.0946 0.0946 0.0946 (   814 PWs)   bands (ev):

     8.6330   9.8172   9.8178   9.8178  11.2531  11.2537  11.2537  11.7527
    11.8044  11.8044  11.8143  11.8234  11.8234  12.0917  12.0917  12.0922
    13.1401  13.1401  13.4948  13.4948  13.4950  15.8443  15.8445  15.8445
    20.9757  20.9757  20.9758  24.6881  31.9946  31.9946  31.9950  34.6868
    34.6871  34.6871  36.7210  36.7210  36.7215  37.3234  39.3319  39.3319
    43.8139  43.8139  47.0984  47.4236  47.4236  47.4253  47.4716  47.4718
    47.4718  51.7018  51.7025  51.7025

          k = 0.0946 0.0946-0.1419 (   818 PWs)   bands (ev):

     9.2564   9.2598   9.7504   9.7508  11.3690  11.3694  11.6384  11.6560
    11.8560  11.8585  11.9702  11.9751  11.9874  12.0049  12.0916  12.0922
    13.4161  13.4180  13.4250  13.4264  13.8347  13.8360  16.1349  16.1350
    19.9456  19.9457  22.5164  22.5274  32.9226  32.9227  34.0603  34.0609
    35.8379  35.8693  36.6544  36.6726  38.3546  38.4086  38.8761  38.8762
    44.0106  44.0109  44.2708  44.2972  45.3649  45.3708  47.8975  47.8975
    48.8912  48.9028  52.2558  52.2576

          k = 0.0946-0.1419-0.1419 (   832 PWs)   bands (ev):

     9.4343   9.4351   9.4351   9.4351  11.6026  11.6075  11.6075  11.6117
    11.7868  11.7917  11.7917  11.7968  12.5214  12.5313  12.5313  12.5414
    13.3398  13.3475  13.3475  13.3553  14.6266  14.6399  14.6399  14.6531
    20.6480  20.6572  20.6572  20.6665  34.6445  34.6477  34.6478  34.6513
    37.6583  37.6723  37.6723  37.6872  38.3200  38.3359  38.3359  38.3490
    43.4458  43.4574  43.4574  43.4685  44.5227  44.5254  44.5254  44.5276
    49.6979  49.7028  49.7029  49.7091

          k =-0.1419-0.1419-0.1419 (   840 PWs)   bands (ev):

     9.3217   9.3223   9.3223   9.3223  11.6826  11.6826  11.6826  11.6828
    11.6828  11.6834  11.6834  11.6834  13.4705  13.4705  13.4705  13.4715
    13.4715  13.4716  13.4716  13.4716  14.0044  14.0052  14.0052  14.0052
    19.7754  19.7754  19.7754  19.7755  36.4962  36.4964  36.4964  36.4964
    38.9598  38.9598  38.9600  38.9601  38.9601  38.9609  38.9609  38.9609
    42.1837  42.1837  42.1839  42.1839  42.1840  42.1843  42.1844  42.1844
    48.0564  48.0564  48.0564  48.0567

          k =-0.0473 0.0000 0.0473 (   806 PWs)   bands (ev):

     5.9438   9.7083   9.7083   9.8344  10.1573  10.1578  10.1711  11.4855
    11.8123  11.8289  12.6333  12.6675  12.6899  12.7022  12.8597  13.2440
    13.3648  13.3648  13.4318  13.4320  13.4918  16.0556  16.0556  18.4344
    23.4505  24.6353  25.7763  25.7766  27.8203  27.8204  28.4469  28.4476
    30.1622  35.4762  35.6029  36.4792  36.4796  36.7746  39.4648  39.4655
    40.7149  41.9493  42.9250  44.6264  45.6909  49.0112  49.8113  52.2983
    53.0240  54.6660  54.6672  55.6156

          k =-0.0473 0.0000 0.0946 (   822 PWs)   bands (ev):

     6.9541   9.5099  10.1808  10.2287  10.4322  10.4844  10.5025  11.2124
    11.7076  11.8437  11.9555  12.0688  12.0961  12.5180  12.9291  12.9951
    13.0183  13.0355  13.1841  13.4276  13.4355  14.1038  17.6429  20.1901
    21.6682  24.1332  25.0558  26.0870  26.8887  29.1179  29.4143  29.4671
    30.4871  33.2038  33.9324  37.1306  38.0593  39.8339  40.0136  40.0887
    40.5406  43.3673  44.2817  46.3677  47.1661  47.9282  49.2290  50.6780
    52.2644  52.6023  54.0923  55.6015

          k =-0.0946 0.0000 0.0946 (   824 PWs)   bands (ev):

     7.8714  10.0876  10.0878  10.4499  10.6925  10.6938  10.7110  11.1451
    11.3853  11.3854  11.5363  11.8472  12.1960  12.4341  12.7190  12.8687
    12.8693  13.0046  13.0050  13.1702  13.3806  15.3285  15.3285  18.9099
    21.6954  24.6839  26.3114  26.3115  27.4173  27.4179  30.4828  31.1118
    31.1181  31.2296  33.0669  36.2867  40.9630  41.2990  41.2993  42.4437
    42.8511  43.1223  43.1223  46.4580  46.6641  47.7916  47.7924  50.9543
    51.5078  51.5336  52.4964  54.6670

          k = 0.0473-0.0473 0.0473 (   820 PWs)   bands (ev):

     6.2857   9.8656   9.8657   9.8657  10.2690  10.2697  10.2697  11.4518
    11.8480  11.8480  12.3937  12.3937  12.3938  12.7749  12.7749  13.0160
    13.0165  13.0165  13.5446  13.5446  13.5448  16.6713  16.6715  16.6715
    24.8816  24.8818  24.8818  26.1067  26.1067  26.1070  30.6695  30.6698
    30.6698  32.9629  35.6077  35.6078  35.6082  38.7571  40.5223  40.5223
    42.1555  42.1555  42.1556  45.9803  47.0175  47.0175  50.8296  50.8296
    54.5290  54.5300  54.5301  54.5551

          k = 0.0473-0.0473 0.0946 (   819 PWs)   bands (ev):

     7.2569   9.6663  10.2391  10.2394  10.5477  10.5768  10.5770  11.2483
    11.6980  11.6981  11.8840  11.9310  11.9848  12.6235  12.6913  12.7769
    12.7790  13.0089  13.4498  13.4498  13.4819  14.4612  17.9954  17.9955
    22.2761  22.2762  26.1529  26.7635  26.7636  29.8518  29.8521  30.2417
    30.4461  32.1283  36.0836  37.2628  37.2755  38.2182  38.2183  41.7491
    42.8412  43.8301  46.3394  46.3395  47.1901  48.4412  49.5317  49.5319
    50.0094  52.3541  52.3860  54.8182

          k =-0.0946 0.0473 0.0473 (   819 PWs)   bands (ev):

     7.2569   9.6663  10.2391  10.2394  10.5477  10.5768  10.5770  11.2483
    11.6980  11.6981  11.8840  11.9310  11.9848  12.6235  12.6913  12.7769
    12.7790  13.0089  13.4498  13.4498  13.4819  14.4612  17.9954  17.9955
    22.2761  22.2762  26.1529  26.7635  26.7636  29.8518  29.8521  30.2417
    30.4461  32.1283  36.0836  37.2628  37.2755  38.2182  38.2182  41.7491
    42.8412  43.8301  46.3394  46.3395  47.1901  48.4412  49.5318  49.5319
    50.0094  52.3541  52.3860  54.8182

          k = 0.0473-0.0473-0.1419 (   828 PWs)   bands (ev):

     8.6092   8.6282  10.6129  10.6142  10.6776  10.6778  10.8965  10.9252
    11.3147  11.3148  11.7783  11.8105  12.2454  12.2564  12.6136  12.6140
    13.1637  13.1863  13.2747  13.2796  13.3954  13.3954  19.1402  19.1402
    20.7171  20.7172  27.7399  27.7444  27.9521  27.9682  28.4085  28.4152
    34.3685  34.4022  34.8844  34.9496  37.4663  37.5344  41.6098  41.6100
    44.0572  44.0924  44.7401  44.7405  48.8158  48.8663  50.2225  50.2402
    51.4430  51.4433  53.0044  53.0153

          k = 0.0946-0.0473 0.0946 (   822 PWs)   bands (ev):

     8.0890   9.9787   9.9791  10.2619  10.8595  10.9023  10.9027  11.2925
    11.4988  11.4991  11.6296  11.8489  11.9704  12.4364  12.4369  12.4535
    12.7486  13.2886  13.3534  13.3705  13.3724  15.4609  15.4610  18.2547
    20.3739  23.4566  23.4566  27.4506  27.5789  30.6466  30.6468  31.5808
    31.5812  33.4748  34.7118  36.3597  38.7493  38.7496  39.6121  42.3631
    43.1254  44.1773  45.8131  45.8132  48.4955  48.4959  49.7521  49.9158
    50.2314  50.8678  51.6003  52.2486

          k =-0.0946 0.0473 0.0946 (   822 PWs)   bands (ev):

     8.0890   9.9787   9.9791  10.2619  10.8595  10.9023  10.9027  11.2925
    11.4988  11.4991  11.6296  11.8489  11.9704  12.4364  12.4369  12.4535
    12.7486  13.2886  13.3534  13.3705  13.3724  15.4609  15.4610  18.2547
    20.3739  23.4566  23.4566  27.4506  27.5789  30.6466  30.6468  31.5808
    31.5812  33.4748  34.7118  36.3597  38.7493  38.7496  39.6121  42.3631
    43.1254  44.1773  45.8131  45.8131  48.4955  48.4959  49.7521  49.9158
    50.2314  50.8678  51.6003  52.2486

          k = 0.0946-0.0473-0.1419 (   810 PWs)   bands (ev):

     9.1601   9.1720  10.1945  10.1980  11.0668  11.0679  11.1977  11.2209
    11.5019  11.5116  11.6146  11.6357  12.1120  12.1200  12.3196  12.3247
    13.0332  13.0422  13.2541  13.2633  13.9356  13.9390  16.8172  16.8356
    21.3783  21.3929  25.1943  25.2050  28.9415  28.9492  32.5206  32.5255
    32.7155  32.7223  36.3164  36.3929  39.5550  39.5723  39.8434  39.8564
    44.5608  44.5673  45.0317  45.0673  47.0349  47.0534  49.8517  49.8820
    51.1039  51.1222  53.1515  53.1798

          k = 0.0946-0.0946 0.0946 (   814 PWs)   bands (ev):

     8.6330   9.8172   9.8178   9.8178  11.2532  11.2537  11.2537  11.7527
    11.8044  11.8044  11.8144  11.8234  11.8234  12.0917  12.0917  12.0922
    13.1401  13.1401  13.4948  13.4948  13.4950  15.8444  15.8445  15.8445
    20.9757  20.9757  20.9758  24.6881  31.9946  31.9946  31.9950  34.6868
    34.6871  34.6871  36.7209  36.7210  36.7216  37.3234  39.3319  39.3319
    43.8139  43.8139  47.0984  47.4236  47.4236  47.4254  47.4716  47.4718
    47.4718  51.7018  51.7025  51.7025

          k = 0.0946-0.0946-0.1419 (   818 PWs)   bands (ev):

     9.2564   9.2598   9.7504   9.7508  11.3690  11.3694  11.6384  11.6560
    11.8560  11.8585  11.9702  11.9751  11.9874  12.0049  12.0916  12.0922
    13.4161  13.4180  13.4250  13.4264  13.8347  13.8360  16.1349  16.1350
    19.9456  19.9457  22.5164  22.5274  32.9226  32.9227  34.0604  34.0609
    35.8379  35.8693  36.6544  36.6726  38.3546  38.4086  38.8761  38.8762
    44.0106  44.0109  44.2708  44.2972  45.3649  45.3708  47.8975  47.8975
    48.8912  48.9028  52.2558  52.2577

 ------ SPIN DOWN ----------


          k = 0.0000 0.0000 0.0000 (   799 PWs)   bands (ev):

     5.1726   9.9653   9.9653   9.9653  10.6621  10.6629  10.6629  12.5582
    12.5582  12.5582  13.6091  13.6091  14.3433  14.3433  14.3433  14.6222
    14.6222  14.6222  14.6226  14.6226  14.6226  16.6612  16.6615  16.6615
    23.6486  23.6486  23.6486  29.0762  29.0763  29.0763  29.0766  29.0766
    29.0766  34.2714  34.2714  34.2717  37.4921  37.4923  37.4923  37.8217
    41.8477  41.8477  41.8477  45.4659  45.4659  45.4659  47.4080  54.5254
    54.5254  54.5254  58.0227  58.5991

          k = 0.0000 0.0000 0.0473 (   807 PWs)   bands (ev):

     5.5341   9.9366  10.1559  10.1559  10.7793  10.7829  10.7834  12.4199
    12.6620  12.6620  13.4842  13.6560  13.8012  13.8017  14.1804  14.1804
    14.2926  14.4347  14.4347  14.6229  14.6229  15.2180  17.7821  17.7823
    23.7324  23.7324  25.7869  27.4176  27.4179  27.9904  27.9904  29.6443
    29.6443  34.3770  36.3490  36.3493  37.2373  37.6197  39.4145  39.4146
    39.6950  39.6950  40.2878  46.8386  47.4513  47.4513  48.4841  50.8630
    55.6093  55.6093  55.9036  55.9042

          k = 0.0000 0.0000 0.0946 (   820 PWs)   bands (ev):

     6.5757   9.4866  10.6087  10.6087  11.1047  11.1505  11.1513  12.0513
    12.6790  12.6798  12.9642  12.9642  13.1707  13.3839  13.7783  13.7783
    13.7883  13.9724  13.9724  14.1555  14.6235  14.6235  19.7918  19.7920
    24.0156  24.0156  24.7400  24.7401  26.2877  26.2878  29.9615  31.2343
    31.2343  34.7093  36.1872  36.5251  36.5251  37.7427  38.1649  40.2888
    40.2892  43.5287  43.5288  43.6170  50.1998  50.3152  50.3152  50.3195
    50.3195  54.2283  55.5404  55.5404

          k = 0.0000 0.0000-0.1419 (   820 PWs)   bands (ev):

     8.0946   8.1180  10.8950  10.8950  11.5488  11.5829  11.7650  11.7657
    11.7975  11.7981  12.8868  12.9355  13.4142  13.4142  13.4391  13.4391
    13.5211  13.5212  13.9613  13.9795  14.6237  14.6237  22.1154  22.1155
    22.1728  22.1730  24.3610  24.3610  25.3824  25.3825  33.5884  33.5884
    33.6283  33.6283  34.3487  34.4335  35.2930  35.3156  39.6956  39.8285
    44.9454  44.9458  45.0618  45.0621  46.9775  46.9776  51.7746  51.7746
    53.3571  53.3571  53.4623  53.4623

          k = 0.0000 0.0473 0.0473 (   806 PWs)   bands (ev):

     5.8884  10.1439  10.1439  10.3345  10.8795  10.8902  10.8909  12.3482
    12.7113  12.7154  13.4080  13.4320  13.4477  13.4749  13.6578  14.0458
    14.1685  14.1686  14.4335  14.4336  14.5030  16.3703  16.3703  18.5968
    23.7118  24.7623  25.9646  25.9649  27.9016  27.9016  28.4871  28.4878
    30.1721  35.5773  35.5953  36.5473  36.5477  36.7928  39.5812  39.5818
    40.6303  42.0344  42.8960  44.5650  45.7498  49.1660  49.7328  52.4701
    52.9752  54.6213  54.6225  55.5528

          k = 0.0000 0.0473 0.0946 (   822 PWs)   bands (ev):

     6.9067   9.7338  10.6515  10.7707  11.1544  11.1891  11.2283  12.0437
    12.4078  12.5740  12.7569  12.8089  12.9800  13.2932  13.7051  13.7868
    13.8556  13.9412  13.9708  14.4300  14.4408  14.8205  17.9819  20.3916
    21.8654  24.3620  25.2055  26.2201  27.0144  29.2245  29.4759  29.5348
    30.5848  33.2803  33.9750  37.1703  38.0956  39.7833  39.9582  40.2061
    40.5379  43.4483  44.4869  46.4315  47.0847  47.9076  49.2098  50.6007
    52.2162  52.5073  54.2955  56.2965

          k = 0.0000 0.0473-0.1419 (   826 PWs)   bands (ev):

     8.3858   8.4081  11.0328  11.0357  11.5841  11.6144  11.6147  11.6422
    11.7827  11.8144  12.6200  12.6578  13.4173  13.4418  13.4971  13.5032
    13.5114  13.5141  14.1903  14.1914  14.4268  14.4322  19.7562  19.7854
    22.6220  22.6731  25.0965  25.1367  27.9227  27.9367  31.0928  31.1087
    31.5615  31.5726  35.2660  35.3615  38.2722  38.2779  41.6298  41.7123
    42.4811  42.5132  45.2197  45.3297  49.3695  49.4653  49.6132  49.6589
    51.8424  51.8789  52.6642  52.6939

          k = 0.0000 0.0946 0.0946 (   824 PWs)   bands (ev):

     7.8475  10.3637  10.3639  11.1224  11.2044  11.4369  11.4384  11.9482
    12.0883  12.0883  12.2576  12.6484  13.1202  13.1921  13.4839  13.6177
    13.6183  13.9742  13.9744  14.1601  14.2332  15.9392  15.9394  19.2176
    21.9123  24.8825  26.4760  26.4761  27.5177  27.5184  30.6117  31.1990
    31.2061  31.2976  33.1185  36.3207  40.8959  41.2787  41.2791  42.4805
    42.7309  43.1640  43.1641  46.5756  46.6913  47.8325  47.8334  51.0090
    51.4081  51.4598  52.6864  54.5586

          k = 0.0000 0.0946-0.1419 (   814 PWs)   bands (ev):

     9.1792   9.1983  10.9653  10.9852  11.5993  11.6009  11.6992  11.7293
    11.8112  11.8412  12.3257  12.3496  13.2820  13.2826  13.3512  13.3546
    13.4676  13.4933  14.0081  14.0240  14.8408  14.8455  17.2974  17.3194
    23.9787  24.0166  25.8851  25.9180  28.3214  28.3384  29.1292  29.1338
    32.4844  32.4938  36.2158  36.3088  39.7715  39.7886  42.4033  42.4202
    42.6019  42.6096  46.0129  46.1022  47.2692  47.3242  49.6866  49.7364
    51.0911  51.1715  52.7909  52.8112

          k = 0.0000-0.1419-0.1419 (   840 PWs)   bands (ev):

    10.1785  10.1955  10.1955  10.2120  11.7753  11.8046  11.8046  11.8333
    12.0337  12.0428  12.0428  12.0517  13.1402  13.1430  13.1430  13.1465
    13.6337  13.6574  13.6574  13.6811  15.7604  15.7695  15.7695  15.7783
    25.9133  25.9388  25.9389  25.9639  27.1986  27.2183  27.2184  27.2391
    37.3481  37.3729  37.3729  37.3998  37.8890  37.9205  37.9206  37.9469
    46.4536  46.4537  46.4537  46.4569  48.4644  48.5145  48.5145  48.5644
    51.1320  51.1380  51.1380  51.1431

          k = 0.0473 0.0473 0.0473 (   820 PWs)   bands (ev):

     6.2331  10.3285  10.3286  10.3286  10.9782  10.9793  10.9793  12.2945
    12.7352  12.7352  13.1137  13.1137  13.1137  13.5721  13.5721  13.8576
    13.8582  13.8582  14.5025  14.5025  14.5029  17.0128  17.0130  17.0130
    25.0112  25.0114  25.0114  26.2800  26.2800  26.2804  30.6901  30.6906
    30.6906  33.0285  35.7010  35.7010  35.7013  38.5980  40.5756  40.5756
    42.2373  42.2374  42.2374  45.8886  46.9711  46.9711  50.9956  50.9956
    54.4801  54.4813  54.4813  54.8799

          k = 0.0473 0.0473 0.0946 (   819 PWs)   bands (ev):

     7.2200   9.9306  10.7797  10.7799  11.2127  11.2135  11.2695  12.0533
    12.4094  12.4095  12.5691  12.7681  12.8547  13.4797  13.5106  13.5745
    13.5776  13.8419  14.3928  14.4223  14.4230  15.0984  18.3225  18.3227
    22.4851  22.4852  26.2955  26.9118  26.9119  29.9256  29.9260  30.3543
    30.5329  32.1737  36.1563  37.1793  37.3394  38.2470  38.2470  41.7589
    42.9189  43.8438  46.3819  46.3819  47.2295  48.3851  49.5168  49.5171
    50.0108  52.2778  52.3447  54.9317

          k = 0.0473 0.0473-0.1419 (   828 PWs)   bands (ev):

     8.6412   8.6618  11.2009  11.2010  11.2606  11.2619  11.6551  11.6865
    12.0376  12.0380  12.5363  12.5722  13.1068  13.1158  13.3881  13.3885
    13.9774  14.0017  14.1475  14.1500  14.3763  14.3764  19.3962  19.3963
    21.0211  21.0211  27.8533  27.8574  28.0924  28.1077  28.5230  28.5305
    34.4372  34.4704  34.8544  34.9218  37.5434  37.6120  41.5897  41.5898
    44.1395  44.1778  44.7275  44.7279  48.7325  48.7832  50.1754  50.1933
    51.4746  51.4748  53.1624  53.1806

          k = 0.0473 0.0946 0.0946 (   822 PWs)   bands (ev):

     8.0989  10.3749  10.3752  10.8879  11.3761  11.5130  11.5138  12.0286
    12.2284  12.2288  12.3506  12.6594  12.8046  13.2450  13.2466  13.2506
    13.6021  14.1479  14.2914  14.2934  14.3122  16.0190  16.0192  18.5283
    20.7183  23.6721  23.6721  27.6069  27.7098  30.7088  30.7089  31.6730
    31.6735  33.5285  34.7378  36.3831  38.7624  38.7628  39.5307  42.4785
    43.1144  44.1213  45.8059  45.8059  48.5461  48.5465  49.6826  49.8982
    50.2068  50.9378  51.6568  52.1729

          k = 0.0473 0.0946-0.1419 (   810 PWs)   bands (ev):

     9.3064   9.3219  10.7337  10.7406  11.6302  11.6334  11.8513  11.8779
    12.2036  12.2158  12.3832  12.4070  12.9273  12.9334  13.1051  13.1093
    13.9063  13.9194  14.1988  14.2094  14.7371  14.7418  17.2303  17.2479
    21.6783  21.6915  25.3934  25.4025  29.0401  29.0499  32.5782  32.5807
    32.7824  32.7913  36.3287  36.4044  39.5382  39.5541  39.8637  39.8778
    44.5468  44.5523  45.0210  45.0587  47.0125  47.0338  49.8862  49.9164
    51.0417  51.0591  53.2287  53.2607

          k = 0.0473-0.1419-0.1419 (   820 PWs)   bands (ev):

    10.0822  10.0920  10.0920  10.1011  12.0144  12.0275  12.0275  12.0404
    12.2290  12.2446  12.2447  12.2603  12.8695  12.8762  12.8762  12.8834
    13.9255  13.9417  13.9417  13.9582  15.6389  15.6487  15.6487  15.6583
    23.2522  23.2620  23.2620  23.2716  30.5483  30.5526  30.5526  30.5575
    37.6269  37.6427  37.6427  37.6722  37.7286  37.7621  37.7622  37.7792
    45.9626  45.9626  45.9643  45.9664  46.0909  46.1209  46.1209  46.1460
    54.0663  54.0852  54.0853  54.1124

          k = 0.0946 0.0946 0.0946 (   814 PWs)   bands (ev):

     8.7640  10.3322  10.3328  10.3328  11.8219  11.8225  11.8225  12.2857
    12.4997  12.4997  12.5016  12.6275  12.6275  12.8930  12.8930  12.8935
    14.0311  14.0311  14.4322  14.4322  14.4326  16.2729  16.2732  16.2732
    21.3139  21.3139  21.3140  24.9119  32.0407  32.0407  32.0411  34.7474
    34.7478  34.7478  36.7312  36.7312  36.7318  37.1480  39.4178  39.4178
    43.8221  43.8221  47.1118  47.3689  47.3689  47.3709  47.4720  47.4724
    47.4724  51.7309  51.7315  51.7315

          k = 0.0946 0.0946-0.1419 (   818 PWs)   bands (ev):

     9.5876   9.5952  10.2945  10.2950  12.0112  12.0116  12.3071  12.3246
    12.5455  12.5676  12.6582  12.6601  12.7004  12.7005  12.7639  12.7641
    14.3349  14.3377  14.3629  14.3640  14.5565  14.5604  16.4648  16.4650
    20.3846  20.3846  22.8054  22.8149  32.9293  32.9294  34.1462  34.1468
    35.7256  35.7589  36.7268  36.7438  38.4349  38.4885  38.8482  38.8484
    44.0358  44.0362  44.2448  44.2714  45.3716  45.3790  47.8547  47.8548
    48.9428  48.9542  52.3560  52.3579

          k = 0.0946-0.1419-0.1419 (   832 PWs)   bands (ev):

     9.9076   9.9102   9.9102   9.9120  12.3462  12.3508  12.3508  12.3551
    12.5732  12.5777  12.5777  12.5826  12.9689  12.9807  12.9807  12.9925
    14.2667  14.2754  14.2754  14.2843  15.1617  15.1726  15.1726  15.1830
    21.0424  21.0502  21.0503  21.0581  34.6178  34.6235  34.6236  34.6295
    37.6234  37.6359  37.6359  37.6494  38.3899  38.4049  38.4049  38.4173
    43.4750  43.4881  43.4881  43.5008  44.5126  44.5160  44.5160  44.5190
    49.7844  49.7895  49.7895  49.7959

          k =-0.1419-0.1419-0.1419 (   840 PWs)   bands (ev):

     9.8284   9.8291   9.8291   9.8291  12.4657  12.4657  12.4657  12.4661
    12.4661  12.4664  12.4664  12.4664  13.9014  13.9015  13.9015  13.9025
    14.4046  14.4046  14.4050  14.4050  14.4050  14.4054  14.4054  14.4054
    20.2602  20.2602  20.2602  20.2603  36.3074  36.3076  36.3076  36.3077
    39.0302  39.0302  39.0302  39.0303  39.0303  39.0312  39.0312  39.0313
    42.2125  42.2125  42.2127  42.2127  42.2127  42.2132  42.2132  42.2132
    48.1676  48.1676  48.1676  48.1680

          k =-0.0473 0.0000 0.0473 (   806 PWs)   bands (ev):

     5.8884  10.1439  10.1439  10.3345  10.8795  10.8902  10.8909  12.3482
    12.7113  12.7154  13.4080  13.4320  13.4477  13.4749  13.6578  14.0458
    14.1686  14.1686  14.4335  14.4336  14.5030  16.3703  16.3703  18.5968
    23.7118  24.7623  25.9646  25.9650  27.9015  27.9016  28.4871  28.4878
    30.1721  35.5773  35.5953  36.5473  36.5477  36.7928  39.5811  39.5819
    40.6303  42.0344  42.8960  44.5650  45.7498  49.1660  49.7328  52.4701
    52.9752  54.6213  54.6225  55.5528

          k =-0.0473 0.0000 0.0946 (   822 PWs)   bands (ev):

     6.9067   9.7338  10.6515  10.7707  11.1544  11.1891  11.2283  12.0437
    12.4078  12.5740  12.7569  12.8089  12.9800  13.2932  13.7051  13.7868
    13.8556  13.9412  13.9708  14.4300  14.4408  14.8205  17.9819  20.3916
    21.8654  24.3620  25.2055  26.2201  27.0144  29.2245  29.4759  29.5348
    30.5848  33.2803  33.9750  37.1703  38.0956  39.7833  39.9582  40.2061
    40.5379  43.4483  44.4869  46.4315  47.0847  47.9076  49.2098  50.6007
    52.2162  52.5073  54.2955  55.8298

          k =-0.0946 0.0000 0.0946 (   824 PWs)   bands (ev):

     7.8475  10.3637  10.3639  11.1224  11.2044  11.4369  11.4385  11.9482
    12.0883  12.0883  12.2576  12.6484  13.1202  13.1921  13.4839  13.6177
    13.6183  13.9742  13.9744  14.1601  14.2332  15.9392  15.9394  19.2176
    21.9123  24.8825  26.4759  26.4761  27.5177  27.5184  30.6117  31.1990
    31.2061  31.2976  33.1185  36.3207  40.8959  41.2788  41.2790  42.4805
    42.7309  43.1640  43.1641  46.5756  46.6913  47.8325  47.8334  51.0090
    51.4081  51.4598  52.6864  54.5615

          k = 0.0473-0.0473 0.0473 (   820 PWs)   bands (ev):

     6.2331  10.3285  10.3286  10.3286  10.9782  10.9793  10.9793  12.2945
    12.7352  12.7352  13.1137  13.1137  13.1137  13.5721  13.5721  13.8576
    13.8582  13.8582  14.5025  14.5025  14.5029  17.0128  17.0130  17.0130
    25.0112  25.0114  25.0114  26.2800  26.2800  26.2804  30.6902  30.6906
    30.6906  33.0285  35.7009  35.7010  35.7014  38.5980  40.5756  40.5756
    42.2373  42.2374  42.2374  45.8886  46.9711  46.9711  50.9956  50.9956
    54.4801  54.4812  54.4813  54.8798

          k = 0.0473-0.0473 0.0946 (   819 PWs)   bands (ev):

     7.2200   9.9306  10.7797  10.7799  11.2127  11.2135  11.2695  12.0533
    12.4094  12.4095  12.5691  12.7681  12.8547  13.4797  13.5106  13.5745
    13.5776  13.8419  14.3928  14.4223  14.4230  15.0984  18.3225  18.3227
    22.4851  22.4851  26.2955  26.9118  26.9119  29.9257  29.9260  30.3543
    30.5329  32.1737  36.1563  37.1793  37.3394  38.2470  38.2470  41.7589
    42.9189  43.8438  46.3818  46.3820  47.2295  48.3851  49.5168  49.5171
    50.0108  52.2778  52.3447  54.9316

          k =-0.0946 0.0473 0.0473 (   819 PWs)   bands (ev):

     7.2200   9.9306  10.7797  10.7799  11.2127  11.2135  11.2695  12.0533
    12.4094  12.4095  12.5691  12.7681  12.8547  13.4797  13.5106  13.5745
    13.5776  13.8419  14.3928  14.4223  14.4230  15.0984  18.3225  18.3227
    22.4851  22.4852  26.2955  26.9118  26.9119  29.9256  29.9260  30.3543
    30.5329  32.1737  36.1563  37.1793  37.3394  38.2470  38.2470  41.7589
    42.9189  43.8438  46.3819  46.3819  47.2295  48.3851  49.5168  49.5171
    50.0108  52.2778  52.3447  54.9316

          k = 0.0473-0.0473-0.1419 (   828 PWs)   bands (ev):

     8.6412   8.6618  11.2009  11.2010  11.2606  11.2619  11.6551  11.6865
    12.0376  12.0380  12.5363  12.5722  13.1068  13.1158  13.3880  13.3885
    13.9774  14.0017  14.1475  14.1500  14.3763  14.3764  19.3962  19.3963
    21.0211  21.0211  27.8533  27.8574  28.0924  28.1077  28.5231  28.5305
    34.4372  34.4704  34.8544  34.9218  37.5434  37.6120  41.5896  41.5898
    44.1395  44.1778  44.7275  44.7279  48.7325  48.7832  50.1754  50.1933
    51.4745  51.4748  53.1626  53.1806

          k = 0.0946-0.0473 0.0946 (   822 PWs)   bands (ev):

     8.0989  10.3749  10.3752  10.8879  11.3761  11.5130  11.5138  12.0286
    12.2284  12.2288  12.3506  12.6594  12.8046  13.2450  13.2466  13.2506
    13.6021  14.1479  14.2914  14.2934  14.3122  16.0190  16.0192  18.5283
    20.7183  23.6721  23.6721  27.6069  27.7098  30.7088  30.7089  31.6730
    31.6735  33.5285  34.7378  36.3831  38.7624  38.7628  39.5307  42.4785
    43.1144  44.1213  45.8059  45.8059  48.5461  48.5465  49.6826  49.8982
    50.2068  50.9378  51.6568  52.1722

          k =-0.0946 0.0473 0.0946 (   822 PWs)   bands (ev):

     8.0989  10.3749  10.3752  10.8879  11.3761  11.5130  11.5138  12.0286
    12.2284  12.2288  12.3506  12.6594  12.8046  13.2450  13.2466  13.2506
    13.6021  14.1479  14.2914  14.2934  14.3122  16.0190  16.0192  18.5283
    20.7183  23.6721  23.6721  27.6069  27.7098  30.7087  30.7090  31.6731
    31.6735  33.5285  34.7378  36.3831  38.7624  38.7628  39.5307  42.4785
    43.1144  44.1213  45.8059  45.8059  48.5461  48.5465  49.6826  49.8982
    50.2068  50.9378  51.6568  52.1729

          k = 0.0946-0.0473-0.1419 (   810 PWs)   bands (ev):

     9.3064   9.3219  10.7337  10.7406  11.6302  11.6334  11.8513  11.8779
    12.2036  12.2158  12.3832  12.4070  12.9273  12.9334  13.1051  13.1093
    13.9063  13.9194  14.1988  14.2094  14.7371  14.7418  17.2303  17.2479
    21.6783  21.6915  25.3934  25.4025  29.0401  29.0499  32.5782  32.5807
    32.7824  32.7913  36.3287  36.4044  39.5382  39.5541  39.8637  39.8778
    44.5468  44.5523  45.0210  45.0587  47.0125  47.0338  49.8862  49.9164
    51.0417  51.0591  53.2287  53.2607

          k = 0.0946-0.0946 0.0946 (   814 PWs)   bands (ev):

     8.7640  10.3322  10.3328  10.3328  11.8219  11.8225  11.8225  12.2857
    12.4997  12.4997  12.5016  12.6275  12.6275  12.8930  12.8930  12.8935
    14.0311  14.0311  14.4322  14.4322  14.4326  16.2729  16.2731  16.2732
    21.3139  21.3139  21.3140  24.9119  32.0407  32.0407  32.0412  34.7474
    34.7478  34.7478  36.7312  36.7312  36.7319  37.1480  39.4178  39.4178
    43.8221  43.8221  47.1118  47.3689  47.3689  47.3710  47.4720  47.4723
    47.4724  51.7309  51.7315  51.7315

          k = 0.0946-0.0946-0.1419 (   818 PWs)   bands (ev):

     9.5876   9.5952  10.2945  10.2950  12.0112  12.0116  12.3071  12.3246
    12.5455  12.5676  12.6582  12.6601  12.7004  12.7005  12.7639  12.7641
    14.3349  14.3377  14.3629  14.3640  14.5565  14.5604  16.4649  16.4650
    20.3846  20.3846  22.8054  22.8149  32.9292  32.9294  34.1462  34.1468
    35.7256  35.7589  36.7268  36.7438  38.4349  38.4885  38.8482  38.8484
    44.0359  44.0362  44.2448  44.2714  45.3716  45.3790  47.8547  47.8548
    48.9428  48.9542  52.3560  52.3579

     the Fermi energy is    14.1801 ev

!    total energy              =    -343.62897018 Ry
     Harris-Foulkes estimate   =    -343.62890474 Ry
     estimated scf accuracy    <          1.6E-10 Ry

     The total energy is the sum of the following terms:

     one-electron contribution =      -8.70074811 Ry
     hartree contribution      =      61.08082125 Ry
     xc contribution           =    -120.47559262 Ry
     ewald contribution        =    -275.48620515 Ry
     Dispersion Correction     =      -0.04675218 Ry
     smearing contrib. (-TS)   =      -0.00049337 Ry

     total magnetization       =     2.87 Bohr mag/cell
     absolute magnetization    =     3.30 Bohr mag/cell

     convergence has been achieved in  16 iterations

     Forces acting on atoms (Ry/au):

     atom    1 type  1   force =    -0.00231546   -0.00231546    0.00231528
     atom    2 type  1   force =     0.00231565    0.00231565    0.00231565
     atom    3 type  1   force =    -0.00231546    0.00231528   -0.00231546
     atom    4 type  1   force =     0.00231528   -0.00231546   -0.00231546

     Total force =     0.008021     Total SCF correction =     0.000002


     entering subroutine stress ...

          total   stress  (Ry/bohr**3)                   (kbar)     P=  -31.91
  -0.00021695   0.00000000   0.00000000        -31.91      0.00      0.00
   0.00000000  -0.00021695   0.00000000          0.00    -31.91      0.00
   0.00000000   0.00000000  -0.00021695          0.00      0.00    -31.91


     BFGS Geometry Optimization

     number of scf cycles    =   1
     number of bfgs steps    =   0

     enthalpy new            =    -343.6289701771 Ry

     new trust radius        =       0.0186313348 bohr
     new conv_thr            =       0.0000000100 Ry

     new unit-cell volume =    290.22688 a.u.^3 (    43.00719 Ang^3 )

CELL_PARAMETERS (alat=  1.88972590)
   3.503593641   0.000000077   0.000000077
   0.000000077   3.503593641   0.000000077
   0.000000077   0.000000077   3.503593641

ATOMIC_POSITIONS (alat)
Ni1      1.758355747   1.758355747   0.001218623
Ni1      0.001218745   0.001218745   0.001218745
Ni1      1.758355747   0.001218623   1.758355747
Ni1      0.001218623   1.758355747   1.758355747



     Writing output data file Ni-ferromag.save
     NEW-OLD atomic charge density approx. for the potential

     Check: negative/imaginary core charge=   -0.000005    0.000000
     extrapolated charge   39.34205, renormalised to   40.00000

     total cpu time spent up to now is      289.5 secs

     Self-consistent Calculation

     iteration #  1     ecut=    30.00 Ry     beta=0.20
     Davidson diagonalization with overlap
     c_bands:  1 eigenvalues not converged
     c_bands:  2 eigenvalues not converged
     c_bands:  3 eigenvalues not converged
     c_bands:  2 eigenvalues not converged
     ethr =  1.00E-06,  avg # of iterations =  6.7

     total cpu time spent up to now is      327.6 secs

     total energy              =    -343.54349651 Ry
     Harris-Foulkes estimate   =    -344.35488389 Ry
     estimated scf accuracy    <       0.14110996 Ry

     total magnetization       =     2.55 Bohr mag/cell
     absolute magnetization    =     2.98 Bohr mag/cell

     iteration #  2     ecut=    30.00 Ry     beta=0.20
     Davidson diagonalization with overlap
     ethr =  3.53E-04,  avg # of iterations =  3.1

     total cpu time spent up to now is      343.9 secs

     total energy              =    -343.63246208 Ry
     Harris-Foulkes estimate   =    -343.64284168 Ry
     estimated scf accuracy    <       0.05325471 Ry

     total magnetization       =     2.94 Bohr mag/cell
     absolute magnetization    =     3.35 Bohr mag/cell

     iteration #  3     ecut=    30.00 Ry     beta=0.20
     Davidson diagonalization with overlap
     ethr =  1.33E-04,  avg # of iterations =  1.2

     total cpu time spent up to now is      358.0 secs

     total energy              =    -343.62580666 Ry
     Harris-Foulkes estimate   =    -343.63415716 Ry
     estimated scf accuracy    <       0.01844154 Ry

     total magnetization       =     2.90 Bohr mag/cell
     absolute magnetization    =     3.32 Bohr mag/cell

     iteration #  4     ecut=    30.00 Ry     beta=0.20
     Davidson diagonalization with overlap
     ethr =  4.61E-05,  avg # of iterations =  2.8

     total cpu time spent up to now is      373.6 secs

     total energy              =    -343.62986236 Ry
     Harris-Foulkes estimate   =    -343.62959262 Ry
     estimated scf accuracy    <       0.00013245 Ry

     total magnetization       =     2.84 Bohr mag/cell
     absolute magnetization    =     3.26 Bohr mag/cell

     iteration #  5     ecut=    30.00 Ry     beta=0.20
     Davidson diagonalization with overlap
     ethr =  3.31E-07,  avg # of iterations =  4.2

     total cpu time spent up to now is      394.4 secs

     total energy              =    -343.62963076 Ry
     Harris-Foulkes estimate   =    -343.63006906 Ry
     estimated scf accuracy    <       0.00203752 Ry

     total magnetization       =     2.82 Bohr mag/cell
     absolute magnetization    =     3.24 Bohr mag/cell

     iteration #  6     ecut=    30.00 Ry     beta=0.20
     Davidson diagonalization with overlap
     ethr =  3.31E-07,  avg # of iterations =  1.7

     total cpu time spent up to now is      409.0 secs

     total energy              =    -343.62964425 Ry
     Harris-Foulkes estimate   =    -343.62970902 Ry
     estimated scf accuracy    <       0.00057504 Ry

     total magnetization       =     2.83 Bohr mag/cell
     absolute magnetization    =     3.25 Bohr mag/cell

     iteration #  7     ecut=    30.00 Ry     beta=0.20
     Davidson diagonalization with overlap
     ethr =  3.31E-07,  avg # of iterations =  1.1

     total cpu time spent up to now is      422.9 secs

     total energy              =    -343.62961445 Ry
     Harris-Foulkes estimate   =    -343.62965017 Ry
     estimated scf accuracy    <       0.00033399 Ry

     total magnetization       =     2.83 Bohr mag/cell
     absolute magnetization    =     3.25 Bohr mag/cell

     iteration #  8     ecut=    30.00 Ry     beta=0.20
     Davidson diagonalization with overlap
     ethr =  3.31E-07,  avg # of iterations =  1.0

     total cpu time spent up to now is      436.8 secs

     total energy              =    -343.62957424 Ry
     Harris-Foulkes estimate   =    -343.62961744 Ry
     estimated scf accuracy    <       0.00020055 Ry

     total magnetization       =     2.83 Bohr mag/cell
     absolute magnetization    =     3.25 Bohr mag/cell

     iteration #  9     ecut=    30.00 Ry     beta=0.20
     Davidson diagonalization with overlap
     ethr =  3.31E-07,  avg # of iterations =  1.0

     total cpu time spent up to now is      450.7 secs

     total energy              =    -343.62957541 Ry
     Harris-Foulkes estimate   =    -343.62958211 Ry
     estimated scf accuracy    <       0.00005564 Ry

     total magnetization       =     2.84 Bohr mag/cell
     absolute magnetization    =     3.25 Bohr mag/cell

     iteration # 10     ecut=    30.00 Ry     beta=0.20
     Davidson diagonalization with overlap
     ethr =  1.39E-07,  avg # of iterations =  1.0

     total cpu time spent up to now is      464.6 secs

     total energy              =    -343.62956329 Ry
     Harris-Foulkes estimate   =    -343.62957608 Ry
     estimated scf accuracy    <       0.00003062 Ry

     total magnetization       =     2.84 Bohr mag/cell
     absolute magnetization    =     3.25 Bohr mag/cell

     iteration # 11     ecut=    30.00 Ry     beta=0.20
     Davidson diagonalization with overlap
     ethr =  7.65E-08,  avg # of iterations =  1.0

     Magnetic moment per site:
     atom:    1    charge:    3.0066    magn:    0.3352    constr:    0.0000
     atom:    2    charge:    3.0048    magn:    0.3351    constr:    0.0000
     atom:    3    charge:    3.0066    magn:    0.3352    constr:    0.0000
     atom:    4    charge:    3.0066    magn:    0.3352    constr:    0.0000

     total cpu time spent up to now is      478.4 secs

     End of self-consistent calculation

 ------ SPIN UP ------------


          k = 0.0000 0.0000 0.0000 (   799 PWs)   bands (ev):

     5.4255   9.7097   9.7097   9.7097  10.1624  10.1627  10.1627  11.9402
    11.9402  11.9402  13.1182  13.1182  13.8357  13.8357  13.8357  13.9254
    13.9254  13.9254  13.9256  13.9256  13.9256  17.0632  17.0633  17.0633
    23.8003  23.8004  23.8004  29.5560  29.5560  29.5560  29.5561  29.5561
    29.5562  34.6402  34.6402  34.6404  37.9776  37.9778  37.9778  38.4848
    42.4576  42.4576  42.4576  46.0645  46.0645  46.0645  48.1608  55.1494
    55.1494  55.1494  57.8101  59.1945

          k =-0.0000-0.0000 0.0476 (   807 PWs)   bands (ev):

     5.7916   9.7317   9.8938   9.8938  10.2729  10.2887  10.2889  11.8117
    12.0425  12.0425  13.0000  13.1646  13.2722  13.2723  13.6820  13.6820
    13.7499  13.7499  13.7862  13.9258  13.9258  15.4628  18.0215  18.0216
    23.8965  23.8965  26.0497  27.8057  27.8058  28.4326  28.4326  30.1164
    30.1164  34.7562  36.8116  36.8117  37.8508  38.1092  39.9337  39.9338
    40.2393  40.2393  40.9040  47.4821  48.1171  48.1171  49.1320  51.5493
    56.2453  56.2453  56.6585  56.6588

          k =-0.0000-0.0000 0.0951 (   820 PWs)   bands (ev):

     6.8406   9.5019  10.3304  10.3305  10.5803  10.6713  10.6717  11.4680
    12.2165  12.2168  12.3389  12.3389  12.7127  13.2934  13.2984  13.2984
    13.2997  13.3169  13.3169  13.6521  13.9264  13.9264  19.9834  19.9835
    24.2139  24.2140  25.0330  25.0331  26.6648  26.6648  30.3495  31.6956
    31.6956  35.1199  36.7194  37.0175  37.0175  38.3384  38.6605  40.8537
    40.8538  44.0982  44.0983  44.1290  50.9145  51.0346  51.0346  51.0374
    51.0374  55.0243  55.9663  55.9663

          k = 0.0000 0.0000-0.1427 (   820 PWs)   bands (ev):

     8.3320   8.3474  10.6063  10.6063  11.0034  11.0258  11.3067  11.3069
    11.3289  11.3291  12.5202  12.5516  12.7820  12.7820  12.7987  12.7987
    13.0565  13.0565  13.4652  13.4775  13.9266  13.9266  22.3494  22.3494
    22.3882  22.3883  24.5877  24.5877  25.7190  25.7190  34.0599  34.0599
    34.0872  34.0872  34.8714  34.9288  35.7598  35.7733  40.2065  40.2982
    45.6127  45.6129  45.6927  45.6928  47.6013  47.6014  52.2931  52.2931
    54.1238  54.1238  54.1975  54.1975

          k =-0.0000 0.0476 0.0476 (   806 PWs)   bands (ev):

     6.1491   9.9299   9.9299  10.0568  10.3901  10.3903  10.4040  11.7518
    12.0875  12.1045  12.9259  12.9676  12.9844  12.9925  13.1603  13.5538
    13.6780  13.6781  13.7485  13.7486  13.8101  16.3945  16.3945  18.7911
    23.8909  25.0881  26.2372  26.2373  28.2830  28.2830  28.9250  28.9254
    30.6441  36.0261  36.1097  37.0199  37.0201  37.3208  40.1022  40.1024
    41.2577  42.5914  43.5175  45.2202  46.3567  49.7725  50.4430  53.0894
    53.6664  55.3411  55.3416  56.2893

          k =-0.0000 0.0476 0.0951 (   822 PWs)   bands (ev):

     7.1703   9.7378  10.4116  10.4602  10.6716  10.7248  10.7439  11.4711
    11.9783  12.1175  12.2333  12.3505  12.3763  12.8091  13.2303  13.3031
    13.3201  13.3398  13.4915  13.7446  13.7518  14.4284  18.0082  20.5735
    22.0716  24.5983  25.4942  26.5243  27.3887  29.5971  29.8883  29.9481
    31.0037  33.7139  34.4554  37.6714  38.6219  40.3787  40.5576  40.7333
    41.1094  44.0251  45.0154  47.0448  47.7735  48.5782  49.8830  51.3219
    52.9292  53.2461  54.8313  56.2376

          k = 0.0000 0.0476-0.1427 (   826 PWs)   bands (ev):

     8.6139   8.6283  10.7582  10.7592  11.0551  11.0767  11.1770  11.1951
    11.3216  11.3432  12.1511  12.1742  12.7826  12.7997  13.0163  13.0239
    13.0413  13.0423  13.6548  13.6549  13.7411  13.7445  19.8666  19.8862
    22.8506  22.8854  25.3887  25.4153  28.2939  28.3027  31.4812  31.4928
    32.0054  32.0135  35.7851  35.8511  38.8162  38.8212  42.1687  42.2252
    43.0916  43.1127  45.8911  45.9667  50.0344  50.1019  50.3267  50.3584
    52.5870  52.6123  53.1980  53.2185

          k =-0.0000 0.0951 0.0951 (   824 PWs)   bands (ev):

     8.0966  10.3250  10.3251  10.6911  10.9390  10.9396  10.9533  11.4015
    11.6480  11.6481  11.8024  12.1210  12.4811  12.7229  13.0145  13.1687
    13.1690  13.3096  13.3098  13.4797  13.6945  15.6737  15.6737  19.2910
    22.0996  25.1486  26.7665  26.7665  27.8861  27.8864  30.9755  31.6264
    31.6297  31.7288  33.5919  36.8275  41.5145  41.8707  41.8708  43.0645
    43.3990  43.7563  43.7564  47.1719  47.3222  48.4652  48.4657  51.6622
    52.1652  52.1752  53.2129  55.3351

          k = 0.0000 0.0951-0.1427 (   814 PWs)   bands (ev):

     9.3576   9.3694  10.7887  10.8025  11.1805  11.1940  11.2049  11.2101
    11.3412  11.3613  11.8496  11.8647  12.8187  12.8276  12.8287  12.8359
    12.8955  12.8981  13.3394  13.3497  14.3541  14.3569  17.1970  17.2124
    24.2106  24.2370  26.2056  26.2273  28.6369  28.6495  29.5260  29.5287
    32.9353  32.9410  36.7475  36.8118  40.3464  40.3591  43.0328  43.0452
    43.1996  43.2054  46.6979  46.7594  47.8938  47.9309  50.3986  50.4330
    51.7261  51.7814  53.5420  53.5564

          k = 0.0000-0.1427-0.1427 (   840 PWs)   bands (ev):

    10.2065  10.2166  10.2166  10.2265  11.2936  11.3128  11.3128  11.3318
    11.6166  11.6222  11.6222  11.6275  12.6801  12.6819  12.6819  12.6840
    12.9807  12.9966  12.9966  13.0123  15.4180  15.4252  15.4252  15.4325
    26.1792  26.1975  26.1975  26.2156  27.5557  27.5687  27.5687  27.5821
    37.8626  37.8802  37.8802  37.8986  38.4670  38.4892  38.4892  38.5091
    47.1642  47.1642  47.1646  47.1652  49.1456  49.1804  49.1804  49.2150
    51.7993  51.8023  51.8024  51.8050

          k = 0.0476 0.0476 0.0476 (   820 PWs)   bands (ev):

     6.4947  10.0906  10.0907  10.0907  10.5043  10.5047  10.5047  11.7169
    12.1240  12.1240  12.6805  12.6805  12.6806  13.0734  13.0734  13.3205
    13.3207  13.3207  13.8639  13.8639  13.8640  17.0213  17.0214  17.0214
    25.3157  25.3158  25.3158  26.5814  26.5814  26.5815  31.1591  31.1593
    31.1593  33.4723  36.1572  36.1572  36.1574  39.2414  41.1263  41.1263
    42.7983  42.7984  42.7984  46.5782  47.6380  47.6380  51.6289  51.6289
    55.1668  55.2141  55.2146  55.2146

          k = 0.0476 0.0476 0.0951 (   819 PWs)   bands (ev):

     7.4759   9.8965  10.4734  10.4735  10.7897  10.8180  10.8182  11.5077
    11.9685  11.9686  12.1617  12.2057  12.2637  12.9183  12.9883  13.0747
    13.0757  13.3131  13.7667  13.7668  13.7991  14.7900  18.3633  18.3633
    22.6969  22.6969  26.6088  27.2330  27.2330  30.3468  30.3469  30.7349
    30.9378  32.6389  36.6358  37.7669  37.8388  38.7802  38.7802  42.3486
    43.4897  44.4556  47.0067  47.0067  47.8698  49.0712  50.1897  50.1898
    50.6854  53.0063  53.0646  55.6421

          k = 0.0476 0.0476-0.1427 (   828 PWs)   bands (ev):

     8.8418   8.8545  10.8596  10.8603  10.9184  10.9186  11.1516  11.1718
    11.5752  11.5752  12.0557  12.0784  12.5326  12.5403  12.9070  12.9072
    13.4743  13.4903  13.5871  13.5905  13.7108  13.7109  19.5120  19.5121
    21.1357  21.1357  28.1963  28.1983  28.4309  28.4401  28.9148  28.9180
    34.9151  34.9379  35.3835  35.4289  38.0596  38.1070  42.1910  42.1911
    44.7287  44.7543  45.3591  45.3593  49.4506  49.4861  50.8803  50.8926
    52.1694  52.1695  53.6852  53.6900

          k = 0.0476 0.0951 0.0951 (   822 PWs)   bands (ev):

     8.3146  10.2140  10.2142  10.5003  11.1052  11.1510  11.1512  11.5526
    11.7649  11.7650  11.8979  12.1231  12.2485  12.7262  12.7264  12.7430
    13.0459  13.6002  13.6685  13.6847  13.6857  15.8045  15.8045  18.6154
    20.7932  23.8935  23.8935  27.9284  28.0478  31.1248  31.1248  32.1084
    32.1086  34.0047  35.2309  36.8980  39.3132  39.3134  40.1417  43.0230
    43.7267  44.7718  46.4500  46.4500  49.1814  49.1816  50.4036  50.5833
    50.9104  51.6042  52.2933  52.9133

          k = 0.0476 0.0951-0.1427 (   810 PWs)   bands (ev):

     9.3940   9.4018  10.4341  10.4364  11.3181  11.3189  11.4586  11.4749
    11.7682  11.7751  11.8854  11.9004  12.3948  12.4005  12.6065  12.6101
    13.3394  13.3458  13.5669  13.5735  14.2606  14.2631  17.1755  17.1881
    21.8043  21.8141  25.6505  25.6575  29.4225  29.4286  33.0276  33.0302
    33.2393  33.2447  36.8669  36.9197  40.1190  40.1306  40.4285  40.4380
    45.1801  45.1844  45.6619  45.6874  47.6832  47.6968  50.5514  50.5725
    51.7711  51.7834  53.8738  53.8965

          k = 0.0476-0.1427-0.1427 (   820 PWs)   bands (ev):

     9.9641   9.9675   9.9675   9.9706  11.7039  11.7092  11.7092  11.7142
    11.7858  11.7970  11.7970  11.8082  12.3637  12.3691  12.3691  12.3747
    13.3153  13.3253  13.3253  13.3353  15.3283  15.3362  15.3362  15.3442
    23.4355  23.4430  23.4430  23.4505  30.9605  30.9628  30.9628  30.9654
    38.1451  38.1590  38.1590  38.1768  38.3131  38.3341  38.3342  38.3500
    46.6418  46.6419  46.6424  46.6449  46.7288  46.7492  46.7492  46.7663
    54.7794  54.7925  54.7926  55.0596

          k = 0.0951 0.0951 0.0951 (   814 PWs)   bands (ev):

     8.8587  10.0492  10.0495  10.0495  11.5093  11.5096  11.5096  12.0223
    12.0797  12.0797  12.0850  12.0940  12.0940  12.3725  12.3725  12.3727
    13.4482  13.4482  13.8127  13.8127  13.8128  16.1827  16.1828  16.1828
    21.4007  21.4007  21.4008  25.1406  32.4901  32.4901  32.4903  35.2322
    35.2324  35.2324  37.2625  37.2625  37.2627  37.7810  39.9393  39.9393
    44.4352  44.4352  47.7608  48.0545  48.0545  48.0554  48.1287  48.1288
    48.1288  52.4331  52.4334  52.4334

          k = 0.0951 0.0951-0.1427 (   818 PWs)   bands (ev):

     9.4840   9.4860   9.9808   9.9810  11.6292  11.6294  11.9095  11.9219
    12.1314  12.1331  12.2495  12.2526  12.2622  12.2746  12.3671  12.3674
    13.7324  13.7337  13.7411  13.7418  14.1516  14.1524  16.4670  16.4670
    20.3716  20.3717  22.9550  22.9622  33.4064  33.4064  34.6149  34.6152
    36.3098  36.3318  37.2287  37.2405  38.9627  39.0001  39.4265  39.4266
    44.6436  44.6437  44.8844  44.9031  46.0041  46.0091  48.5395  48.5395
    49.5916  49.5994  52.9765  52.9774

          k = 0.0951-0.1427-0.1427 (   832 PWs)   bands (ev):

     9.6605   9.6608   9.6608   9.6608  11.8719  11.8753  11.8753  11.8783
    12.0614  12.0648  12.0648  12.0684  12.8066  12.8137  12.8137  12.8209
    13.6559  13.6614  13.6614  13.6668  14.9508  14.9599  14.9599  14.9689
    21.0791  21.0852  21.0852  21.0913  35.1419  35.1449  35.1450  35.1481
    38.1966  38.2063  38.2063  38.2163  38.9171  38.9274  38.9274  38.9365
    44.0765  44.0852  44.0852  44.0937  45.1454  45.1477  45.1477  45.1497
    50.4097  50.4133  50.4133  50.4176

          k =-0.1427-0.1427-0.1427 (   840 PWs)   bands (ev):

     9.5447   9.5450   9.5450   9.5450  11.9532  11.9532  11.9532  11.9533
    11.9533  11.9536  11.9536  11.9536  13.7882  13.7882  13.7882  13.7887
    13.7887  13.7888  13.7888  13.7888  14.2852  14.2856  14.2856  14.2856
    20.2040  20.2040  20.2040  20.2041  36.9397  36.9399  36.9399  36.9399
    39.5617  39.5617  39.5618  39.5618  39.5618  39.5622  39.5622  39.5623
    42.7953  42.7953  42.7955  42.7955  42.7955  42.7957  42.7957  42.7957
    48.7674  48.7674  48.7674  48.7676

          k =-0.0476 0.0000 0.0476 (   806 PWs)   bands (ev):

     6.1491   9.9299   9.9299  10.0568  10.3901  10.3903  10.4040  11.7518
    12.0875  12.1045  12.9259  12.9676  12.9844  12.9925  13.1603  13.5538
    13.6780  13.6781  13.7485  13.7486  13.8101  16.3945  16.3945  18.7911
    23.8909  25.0881  26.2371  26.2373  28.2830  28.2831  28.9250  28.9254
    30.6441  36.0261  36.1097  37.0199  37.0201  37.3208  40.1021  40.1025
    41.2577  42.5914  43.5175  45.2202  46.3567  49.7725  50.4430  53.0894
    53.6664  55.3411  55.3416  56.2893

          k =-0.0476-0.0000 0.0951 (   822 PWs)   bands (ev):

     7.1703   9.7378  10.4116  10.4602  10.6716  10.7248  10.7439  11.4711
    11.9783  12.1175  12.2333  12.3505  12.3763  12.8091  13.2303  13.3031
    13.3201  13.3398  13.4915  13.7446  13.7518  14.4284  18.0082  20.5735
    22.0716  24.5983  25.4942  26.5243  27.3887  29.5971  29.8883  29.9481
    31.0037  33.7139  34.4554  37.6714  38.6219  40.3787  40.5576  40.7333
    41.1094  44.0251  45.0154  47.0448  47.7735  48.5782  49.8830  51.3219
    52.9292  53.2461  54.8313  56.2376

          k =-0.0951 0.0000 0.0951 (   824 PWs)   bands (ev):

     8.0966  10.3250  10.3251  10.6911  10.9390  10.9396  10.9533  11.4015
    11.6480  11.6481  11.8024  12.1210  12.4811  12.7229  13.0145  13.1687
    13.1690  13.3096  13.3098  13.4797  13.6945  15.6737  15.6737  19.2910
    22.0996  25.1486  26.7665  26.7665  27.8861  27.8864  30.9755  31.6264
    31.6297  31.7289  33.5919  36.8275  41.5145  41.8707  41.8708  43.0645
    43.3990  43.7563  43.7564  47.1719  47.3222  48.4652  48.4656  51.6622
    52.1652  52.1752  53.2129  55.3362

          k = 0.0476-0.0476 0.0476 (   820 PWs)   bands (ev):

     6.4947  10.0907  10.0907  10.0907  10.5043  10.5047  10.5047  11.7169
    12.1240  12.1240  12.6805  12.6805  12.6806  13.0734  13.0734  13.3205
    13.3207  13.3207  13.8639  13.8639  13.8640  17.0213  17.0214  17.0214
    25.3157  25.3158  25.3158  26.5814  26.5814  26.5816  31.1591  31.1593
    31.1593  33.4723  36.1572  36.1572  36.1574  39.2414  41.1263  41.1263
    42.7983  42.7984  42.7984  46.5782  47.6380  47.6380  51.6289  51.6289
    55.1668  55.2141  55.2146  55.2146

          k = 0.0476-0.0476 0.0951 (   819 PWs)   bands (ev):

     7.4759   9.8965  10.4734  10.4735  10.7897  10.8180  10.8181  11.5077
    11.9685  11.9686  12.1617  12.2057  12.2637  12.9183  12.9883  13.0747
    13.0757  13.3131  13.7667  13.7668  13.7991  14.7900  18.3633  18.3633
    22.6969  22.6969  26.6088  27.2330  27.2330  30.3468  30.3469  30.7349
    30.9378  32.6389  36.6358  37.7669  37.8388  38.7802  38.7802  42.3486
    43.4898  44.4556  47.0067  47.0068  47.8698  49.0712  50.1897  50.1899
    50.6854  53.0064  53.0646  55.6421

          k =-0.0951 0.0476 0.0476 (   819 PWs)   bands (ev):

     7.4759   9.8965  10.4734  10.4735  10.7897  10.8180  10.8182  11.5077
    11.9685  11.9686  12.1617  12.2057  12.2637  12.9183  12.9883  13.0747
    13.0757  13.3131  13.7667  13.7668  13.7991  14.7900  18.3633  18.3633
    22.6969  22.6969  26.6088  27.2330  27.2330  30.3468  30.3469  30.7349
    30.9378  32.6389  36.6358  37.7669  37.8388  38.7802  38.7802  42.3486
    43.4898  44.4556  47.0067  47.0067  47.8698  49.0712  50.1897  50.1898
    50.6854  53.0064  53.0646  55.6421

          k = 0.0476-0.0476-0.1427 (   828 PWs)   bands (ev):

     8.8418   8.8545  10.8596  10.8603  10.9184  10.9186  11.1516  11.1718
    11.5752  11.5752  12.0557  12.0784  12.5326  12.5403  12.9070  12.9072
    13.4743  13.4903  13.5871  13.5905  13.7108  13.7109  19.5120  19.5120
    21.1357  21.1357  28.1963  28.1982  28.4309  28.4401  28.9149  28.9180
    34.9151  34.9379  35.3835  35.4289  38.0596  38.1070  42.1910  42.1911
    44.7287  44.7543  45.3591  45.3593  49.4506  49.4861  50.8803  50.8926
    52.1694  52.1695  53.6852  53.6899

          k = 0.0951-0.0476 0.0951 (   822 PWs)   bands (ev):

     8.3146  10.2140  10.2142  10.5003  11.1052  11.1510  11.1512  11.5526
    11.7649  11.7650  11.8979  12.1231  12.2486  12.7262  12.7264  12.7430
    13.0459  13.6002  13.6685  13.6847  13.6857  15.8045  15.8045  18.6154
    20.7932  23.8935  23.8935  27.9284  28.0478  31.1248  31.1248  32.1084
    32.1086  34.0047  35.2308  36.8980  39.3132  39.3134  40.1417  43.0230
    43.7267  44.7718  46.4500  46.4500  49.1814  49.1816  50.4036  50.5833
    50.9104  51.6042  52.2933  52.9133

          k =-0.0951 0.0476 0.0951 (   822 PWs)   bands (ev):

     8.3146  10.2140  10.2142  10.5003  11.1052  11.1510  11.1512  11.5526
    11.7649  11.7651  11.8979  12.1231  12.2485  12.7262  12.7264  12.7430
    13.0459  13.6002  13.6685  13.6847  13.6857  15.8045  15.8045  18.6154
    20.7932  23.8935  23.8935  27.9284  28.0478  31.1248  31.1249  32.1084
    32.1086  34.0047  35.2309  36.8980  39.3132  39.3134  40.1417  43.0230
    43.7267  44.7718  46.4500  46.4500  49.1814  49.1816  50.4036  50.5833
    50.9104  51.6042  52.2933  52.9132

          k = 0.0951-0.0476-0.1427 (   810 PWs)   bands (ev):

     9.3940   9.4018  10.4341  10.4364  11.3181  11.3189  11.4586  11.4749
    11.7682  11.7751  11.8854  11.9004  12.3948  12.4005  12.6065  12.6101
    13.3394  13.3458  13.5669  13.5735  14.2606  14.2631  17.1755  17.1881
    21.8043  21.8141  25.6505  25.6575  29.4225  29.4286  33.0276  33.0302
    33.2393  33.2447  36.8669  36.9197  40.1190  40.1306  40.4285  40.4380
    45.1801  45.1844  45.6619  45.6874  47.6832  47.6968  50.5514  50.5725
    51.7711  51.7834  53.8739  53.8961

          k = 0.0951-0.0951 0.0951 (   814 PWs)   bands (ev):

     8.8587  10.0492  10.0495  10.0495  11.5093  11.5096  11.5096  12.0223
    12.0797  12.0797  12.0850  12.0940  12.0940  12.3725  12.3725  12.3727
    13.4482  13.4482  13.8127  13.8127  13.8128  16.1827  16.1828  16.1828
    21.4007  21.4008  21.4008  25.1406  32.4901  32.4901  32.4903  35.2322
    35.2324  35.2324  37.2624  37.2625  37.2628  37.7810  39.9393  39.9393
    44.4352  44.4352  47.7608  48.0544  48.0545  48.0554  48.1287  48.1288
    48.1288  52.4331  52.4334  52.4335

          k = 0.0951-0.0951-0.1427 (   818 PWs)   bands (ev):

     9.4840   9.4860   9.9808   9.9810  11.6292  11.6294  11.9095  11.9219
    12.1314  12.1331  12.2495  12.2526  12.2622  12.2746  12.3670  12.3674
    13.7324  13.7337  13.7411  13.7418  14.1516  14.1524  16.4670  16.4670
    20.3716  20.3716  22.9550  22.9622  33.4064  33.4065  34.6149  34.6152
    36.3098  36.3318  37.2287  37.2405  38.9627  39.0001  39.4265  39.4266
    44.6436  44.6437  44.8844  44.9031  46.0041  46.0091  48.5394  48.5395
    49.5916  49.5994  52.9765  52.9774

 ------ SPIN DOWN ----------


          k = 0.0000 0.0000 0.0000 (   799 PWs)   bands (ev):

     5.3710  10.1722  10.1722  10.1722  10.8810  10.8814  10.8814  12.8212
    12.8212  12.8212  13.8989  13.8989  14.6504  14.6505  14.6505  14.9354
    14.9354  14.9354  14.9356  14.9356  14.9356  16.9844  16.9845  16.9845
    24.1060  24.1060  24.1060  29.5423  29.5423  29.5423  29.5425  29.5425
    29.5425  34.8038  34.8038  34.8040  38.1215  38.1217  38.1217  38.2786
    42.4282  42.4282  42.4282  46.1367  46.1367  46.1367  48.0009  55.3383
    55.3383  55.3383  58.3586  59.7342

          k =-0.0000-0.0000 0.0476 (   807 PWs)   bands (ev):

     5.7370  10.1476  10.3663  10.3663  11.0005  11.0048  11.0051  12.6793
    12.9276  12.9276  13.7710  13.9473  14.0927  14.0930  14.4834  14.4835
    14.5986  14.7430  14.7430  14.9358  14.9359  15.5331  18.1283  18.1284
    24.1871  24.1871  26.2516  27.8741  27.8743  28.4600  28.4601  30.1190
    30.1190  34.9072  36.8921  36.8922  37.7114  38.2506  40.0540  40.0541
    40.2816  40.2816  40.8339  47.5024  48.0906  48.0906  49.2037  51.5396
    56.4565  56.4565  56.5849  56.5852

          k =-0.0000-0.0000 0.0951 (   820 PWs)   bands (ev):

     6.7902   9.7101  10.8275  10.8275  11.3333  11.3821  11.3825  12.3014
    12.9462  12.9466  13.2370  13.2370  13.4501  13.6715  14.0715  14.0715
    14.0822  14.2687  14.2687  14.4580  14.9364  14.9364  20.1685  20.1686
    24.4601  24.4601  25.1736  25.1737  26.7631  26.7632  30.4449  31.7325
    31.7325  35.2332  36.6841  37.0888  37.0888  38.2478  38.8069  40.8587
    40.8588  44.1979  44.1979  44.3477  50.8698  50.9392  50.9392  50.9636
    50.9636  54.9181  56.2069  56.2069

          k = 0.0000 0.0000-0.1427 (   820 PWs)   bands (ev):

     8.3253   8.3411  11.1190  11.1190  11.7934  11.8174  12.0162  12.0165
    12.0389  12.0392  13.1673  13.2016  13.7030  13.7030  13.7205  13.7205
    13.8050  13.8050  14.2621  14.2750  14.9367  14.9367  22.5305  22.5306
    22.5702  22.5703  24.7841  24.7842  25.8768  25.8768  34.1249  34.1249
    34.1521  34.1521  34.8502  34.9094  35.8092  35.8254  40.3985  40.4917
    45.5669  45.5671  45.6488  45.6490  47.6754  47.6755  52.4832  52.4832
    54.0130  54.0130  54.0867  54.0867

          k =-0.0000 0.0476 0.0476 (   806 PWs)   bands (ev):

     6.0954  10.3584  10.3584  10.5482  11.1042  11.1146  11.1149  12.6058
    12.9779  12.9823  13.6914  13.7233  13.7329  13.7546  13.9481  14.3452
    14.4711  14.4711  14.7418  14.7418  14.8127  16.7092  16.7092  18.9567
    24.1496  25.2178  26.4258  26.4259  28.3658  28.3658  28.9662  28.9666
    30.6552  36.1004  36.1305  37.0901  37.0903  37.3382  40.2204  40.2206
    41.1765  42.6789  43.4865  45.1634  46.4170  49.9312  50.3680  53.2566
    53.6359  55.3017  55.3023  56.2294

          k =-0.0000 0.0476 0.0951 (   822 PWs)   bands (ev):

     7.1248   9.9605  10.8744  10.9928  11.3872  11.4200  11.4613  12.2937
    12.6701  12.8389  13.0305  13.0757  13.2531  13.5742  13.9959  14.0805
    14.1510  14.2379  14.2670  14.7385  14.7487  15.1381  18.3469  20.7775
    22.2700  24.8264  25.6457  26.6589  27.5143  29.7055  29.9503  30.0182
    31.1012  33.7917  34.4977  37.7129  38.6596  40.3299  40.5049  40.8534
    41.1086  44.1075  45.2204  47.1114  47.6955  48.5603  49.8668  51.2468
    52.8843  53.1551  55.0493  56.4896

          k = 0.0000 0.0476-0.1427 (   826 PWs)   bands (ev):

     8.6191   8.6341  11.2615  11.2634  11.8338  11.8557  11.8587  11.8773
    12.0339  12.0561  12.8910  12.9176  13.7062  13.7238  13.7856  13.7897
    13.7950  13.7977  14.4936  14.4944  14.7356  14.7394  20.1479  20.1679
    23.0434  23.0786  25.5593  25.5879  28.4102  28.4206  31.5956  31.6060
    32.0638  32.0708  35.8101  35.8760  38.8177  38.8213  42.3209  42.3793
    43.0833  43.1067  45.8419  45.9192  50.1003  50.1666  50.2586  50.2906
    52.5026  52.5288  53.3668  53.3871

          k =-0.0000 0.0951 0.0951 (   824 PWs)   bands (ev):

     8.0745  10.5984  10.5985  11.3559  11.4380  11.6751  11.6758  12.1960
    12.3418  12.3418  12.5151  12.9129  13.3969  13.4705  13.7689  13.9070
    13.9072  14.2709  14.2710  14.4610  14.5375  16.2794  16.2794  19.5988
    22.3188  25.3471  26.9331  26.9331  27.9873  27.9876  31.1062  31.7146
    31.7184  31.7968  33.6444  36.8630  41.4507  41.8521  41.8523  43.0991
    43.2812  43.7988  43.7989  47.2930  47.3511  48.5101  48.5106  51.7216
    52.0517  52.1197  53.4162  55.2351

          k = 0.0000 0.0951-0.1427 (   814 PWs)   bands (ev):

     9.4184   9.4313  11.2088  11.2224  11.8404  11.8417  11.9467  11.9680
    12.0621  12.0831  12.5862  12.6030  13.5630  13.5634  13.6349  13.6374
    13.7551  13.7733  14.3080  14.3192  15.1605  15.1639  17.6616  17.6767
    24.4158  24.4417  26.3565  26.3800  28.7996  28.8108  29.6155  29.6193
    33.0063  33.0135  36.7749  36.8394  40.3459  40.3572  42.9786  42.9900
    43.2182  43.2234  46.6351  46.6978  47.9751  48.0140  50.3452  50.3804
    51.8470  51.9020  53.4567  53.4703

          k = 0.0000-0.1427-0.1427 (   840 PWs)   bands (ev):

    10.4247  10.4361  10.4361  10.4473  12.0305  12.0510  12.0511  12.0713
    12.2858  12.2921  12.2922  12.2985  13.4183  13.4204  13.4204  13.4228
    13.9294  13.9461  13.9461  13.9628  16.1014  16.1076  16.1076  16.1137
    26.3751  26.3923  26.3923  26.4092  27.6779  27.6923  27.6924  27.7073
    37.9372  37.9541  37.9541  37.9723  38.4342  38.4552  38.4553  38.4736
    47.0432  47.0437  47.0438  47.0457  49.1336  49.1692  49.1693  49.2048
    51.8987  51.9034  51.9034  51.9078

          k = 0.0476 0.0476 0.0476 (   820 PWs)   bands (ev):

     6.4439  10.5462  10.5462  10.5462  11.2054  11.2059  11.2059  12.5509
    13.0027  13.0027  13.3917  13.3917  13.3918  13.8604  13.8604  14.1522
    14.1525  14.1525  14.8129  14.8129  14.8130  17.3625  17.3626  17.3626
    25.4471  25.4472  25.4472  26.7548  26.7548  26.7549  31.1810  31.1813
    31.1813  33.5386  36.2519  36.2519  36.2520  39.0855  41.1788  41.1788
    42.8826  42.8827  42.8827  46.4905  47.5947  47.5947  51.7957  51.7957
    55.1672  55.1678  55.1678  55.5064

          k = 0.0476 0.0476 0.0951 (   819 PWs)   bands (ev):

     7.4409  10.1592  11.0054  11.0055  11.4466  11.4471  11.5028  12.3039
    12.6714  12.6715  12.8363  13.0352  13.1246  13.7652  13.7984  13.8622
    13.8637  14.1361  14.7008  14.7306  14.7309  15.4209  18.6903  18.6903
    22.9071  22.9071  26.7529  27.3820  27.3820  30.4217  30.4219  30.8488
    31.0251  32.6854  36.7101  37.6722  37.9159  38.8103  38.8104  42.3560
    43.5701  44.4730  47.0509  47.0509  47.9115  49.0166  50.1784  50.1785
    50.6921  52.9351  53.0245  55.7570

          k = 0.0476 0.0476-0.1427 (   828 PWs)   bands (ev):

     8.8757   8.8896  11.4328  11.4329  11.4997  11.5003  11.9020  11.9240
    12.2897  12.2898  12.8047  12.8299  13.3845  13.3908  13.6714  13.6716
    14.2791  14.2962  14.4498  14.4516  14.6831  14.6832  19.7693  19.7694
    21.4397  21.4397  28.3111  28.3129  28.5729  28.5813  29.0297  29.0332
    34.9846  35.0071  35.3556  35.4025  38.1367  38.1844  42.1722  42.1722
    44.8146  44.8423  45.3478  45.3480  49.3706  49.4063  50.8342  50.8466
    52.2028  52.2029  53.8617  53.8700

          k = 0.0476 0.0951 0.0951 (   822 PWs)   bands (ev):

     8.3266  10.6070  10.6072  11.1191  11.6128  11.7532  11.7536  12.2798
    12.4855  12.4857  12.6103  12.9244  13.0734  13.5254  13.5264  13.5296
    13.8899  14.4498  14.5974  14.5985  14.6164  16.3581  16.3582  18.8901
    21.1372  24.1105  24.1105  28.0879  28.1777  31.1883  31.1884  32.2011
    32.2013  34.0595  35.2562  36.9230  39.3278  39.3280  40.0651  43.1369
    43.7179  44.7172  46.4438  46.4438  49.2360  49.2363  50.3349  50.5667
    50.8866  51.6766  52.3583  52.8401

          k = 0.0476 0.0951-0.1427 (   810 PWs)   bands (ev):

     9.5422   9.5525  10.9683  10.9729  11.8722  11.8745  12.1038  12.1225
    12.4618  12.4703  12.6453  12.6621  13.2002  13.2045  13.3819  13.3849
    14.2039  14.2131  14.5029  14.5103  15.0538  15.0571  17.5870  17.5991
    22.1050  22.1138  25.8510  25.8568  29.5223  29.5298  33.0851  33.0860
    33.3075  33.3144  36.8800  36.9322  40.1036  40.1143  40.4507  40.4608
    45.1673  45.1710  45.6527  45.6796  47.6630  47.6784  50.5893  50.6104
    51.7105  51.7223  53.9559  53.9785

          k = 0.0476-0.1427-0.1427 (   820 PWs)   bands (ev):

    10.3181  10.3245  10.3245  10.3306  12.2709  12.2800  12.2800  12.2889
    12.4896  12.5006  12.5007  12.5117  13.1421  13.1469  13.1469  13.1519
    14.2264  14.2378  14.2379  14.2494  15.9756  15.9824  15.9824  15.9890
    23.6943  23.7007  23.7007  23.7069  31.0417  31.0454  31.0454  31.0494
    38.2179  38.2261  38.2261  38.2486  38.2649  38.2900  38.2900  38.2994
    46.5739  46.5740  46.5743  46.5758  46.7529  46.7739  46.7739  46.7930
    54.8420  54.8563  54.8563  55.0759

          k = 0.0951 0.0951 0.0951 (   814 PWs)   bands (ev):

     8.9918  10.5592  10.5595  10.5595  12.0687  12.0690  12.0690  12.5460
    12.7637  12.7637  12.7646  12.8917  12.8917  13.1642  13.1642  13.1644
    14.3298  14.3298  14.7409  14.7409  14.7411  16.6095  16.6096  16.6096
    21.7394  21.7394  21.7394  25.3659  32.5364  32.5364  32.5366  35.2937
    35.2939  35.2939  37.2750  37.2750  37.2752  37.6095  40.0255  40.0255
    44.4441  44.4441  47.7757  48.0026  48.0026  48.0037  48.1298  48.1300
    48.1300  52.4641  52.4644  52.4644

          k = 0.0951 0.0951-0.1427 (   818 PWs)   bands (ev):

     9.8150   9.8198  10.5192  10.5194  12.2613  12.2615  12.5684  12.5807
    12.8141  12.8296  12.9242  12.9254  12.9676  12.9676  13.0319  13.0319
    14.6417  14.6437  14.6700  14.6705  14.8670  14.8697  16.7987  16.7988
    20.8088  20.8088  23.2449  23.2511  33.4139  33.4139  34.7011  34.7014
    36.1999  36.2233  37.3015  37.3126  39.0433  39.0804  39.4010  39.4011
    44.6698  44.6700  44.8612  44.8801  46.0117  46.0177  48.4989  48.4990
    49.6450  49.6527  53.0848  53.0856

          k = 0.0951-0.1427-0.1427 (   832 PWs)   bands (ev):

    10.1303  10.1318  10.1318  10.1329  12.6055  12.6086  12.6087  12.6117
    12.8380  12.8412  12.8412  12.8446  13.2460  13.2543  13.2543  13.2626
    14.5740  14.5801  14.5801  14.5863  15.4844  15.4918  15.4918  15.4991
    21.4728  21.4780  21.4780  21.4831  35.1142  35.1188  35.1189  35.1236
    38.1665  38.1752  38.1752  38.1843  38.9870  38.9967  38.9967  39.0053
    44.1072  44.1170  44.1170  44.1264  45.1372  45.1400  45.1401  45.1427
    50.5002  50.5039  50.5039  50.5082

          k =-0.1427-0.1427-0.1427 (   840 PWs)   bands (ev):

    10.0463  10.0467  10.0467  10.0467  12.7267  12.7267  12.7267  12.7269
    12.7269  12.7271  12.7271  12.7271  14.1852  14.1853  14.1853  14.1858
    14.7127  14.7127  14.7128  14.7128  14.7128  14.7130  14.7130  14.7130
    20.6864  20.6864  20.6864  20.6865  36.7550  36.7553  36.7553  36.7553
    39.6321  39.6321  39.6321  39.6322  39.6322  39.6326  39.6326  39.6327
    42.8253  42.8253  42.8254  42.8254  42.8254  42.8256  42.8256  42.8256
    48.8819  48.8819  48.8819  48.8821

          k =-0.0476 0.0000 0.0476 (   806 PWs)   bands (ev):

     6.0954  10.3584  10.3584  10.5482  11.1042  11.1146  11.1149  12.6058
    12.9779  12.9823  13.6914  13.7233  13.7329  13.7546  13.9481  14.3452
    14.4711  14.4711  14.7418  14.7418  14.8127  16.7092  16.7092  18.9567
    24.1496  25.2178  26.4258  26.4260  28.3658  28.3659  28.9662  28.9666
    30.6552  36.1004  36.1305  37.0901  37.0903  37.3382  40.2203  40.2207
    41.1765  42.6789  43.4865  45.1634  46.4170  49.9312  50.3680  53.2566
    53.6359  55.3018  55.3023  56.2294

          k =-0.0476-0.0000 0.0951 (   822 PWs)   bands (ev):

     7.1248   9.9605  10.8744  10.9928  11.3872  11.4200  11.4613  12.2937
    12.6701  12.8389  13.0305  13.0757  13.2531  13.5742  13.9959  14.0805
    14.1510  14.2379  14.2670  14.7385  14.7487  15.1381  18.3469  20.7775
    22.2700  24.8264  25.6457  26.6589  27.5143  29.7055  29.9503  30.0182
    31.1012  33.7917  34.4977  37.7129  38.6596  40.3299  40.5049  40.8534
    41.1086  44.1075  45.2204  47.1114  47.6955  48.5603  49.8668  51.2468
    52.8843  53.1551  55.0493  56.4896

          k =-0.0951 0.0000 0.0951 (   824 PWs)   bands (ev):

     8.0745  10.5984  10.5985  11.3559  11.4380  11.6751  11.6758  12.1960
    12.3418  12.3418  12.5151  12.9129  13.3969  13.4705  13.7689  13.9070
    13.9073  14.2709  14.2710  14.4610  14.5375  16.2794  16.2794  19.5988
    22.3188  25.3471  26.9330  26.9332  27.9873  27.9877  31.1062  31.7146
    31.7184  31.7968  33.6444  36.8630  41.4507  41.8522  41.8523  43.0991
    43.2812  43.7988  43.7989  47.2930  47.3511  48.5101  48.5106  51.7216
    52.0517  52.1197  53.4162  55.2364

          k = 0.0476-0.0476 0.0476 (   820 PWs)   bands (ev):

     6.4439  10.5462  10.5462  10.5462  11.2054  11.2059  11.2059  12.5509
    13.0027  13.0027  13.3917  13.3917  13.3918  13.8604  13.8604  14.1522
    14.1525  14.1525  14.8128  14.8129  14.8130  17.3625  17.3626  17.3626
    25.4471  25.4472  25.4472  26.7548  26.7548  26.7549  31.1811  31.1812
    31.1813  33.5386  36.2518  36.2519  36.2521  39.0855  41.1788  41.1788
    42.8826  42.8827  42.8827  46.4905  47.5947  47.5947  51.7957  51.7957
    55.1672  55.1677  55.1678  55.5064

          k = 0.0476-0.0476 0.0951 (   819 PWs)   bands (ev):

     7.4409  10.1592  11.0054  11.0055  11.4466  11.4471  11.5028  12.3039
    12.6714  12.6715  12.8363  13.0352  13.1246  13.7652  13.7984  13.8622
    13.8637  14.1361  14.7008  14.7305  14.7309  15.4209  18.6903  18.6903
    22.9071  22.9071  26.7529  27.3820  27.3820  30.4218  30.4219  30.8488
    31.0251  32.6854  36.7101  37.6722  37.9159  38.8103  38.8104  42.3560
    43.5701  44.4730  47.0508  47.0509  47.9115  49.0166  50.1784  50.1786
    50.6921  52.9351  53.0245  55.7570

          k =-0.0951 0.0476 0.0476 (   819 PWs)   bands (ev):

     7.4409  10.1592  11.0054  11.0055  11.4466  11.4471  11.5028  12.3039
    12.6714  12.6715  12.8363  13.0352  13.1247  13.7652  13.7984  13.8622
    13.8637  14.1361  14.7008  14.7306  14.7309  15.4209  18.6903  18.6903
    22.9071  22.9071  26.7529  27.3820  27.3820  30.4217  30.4219  30.8488
    31.0251  32.6854  36.7101  37.6722  37.9159  38.8103  38.8104  42.3560
    43.5701  44.4730  47.0509  47.0509  47.9115  49.0166  50.1784  50.1785
    50.6921  52.9351  53.0245  55.7570

          k = 0.0476-0.0476-0.1427 (   828 PWs)   bands (ev):

     8.8757   8.8896  11.4328  11.4328  11.4997  11.5003  11.9020  11.9240
    12.2897  12.2898  12.8047  12.8299  13.3845  13.3908  13.6713  13.6716
    14.2791  14.2962  14.4498  14.4516  14.6831  14.6832  19.7694  19.7694
    21.4397  21.4397  28.3111  28.3129  28.5728  28.5814  29.0298  29.0331
    34.9846  35.0071  35.3556  35.4025  38.1367  38.1844  42.1722  42.1723
    44.8146  44.8423  45.3478  45.3480  49.3706  49.4063  50.8342  50.8466
    52.2027  52.2029  53.8617  53.8700

          k = 0.0951-0.0476 0.0951 (   822 PWs)   bands (ev):

     8.3266  10.6070  10.6072  11.1191  11.6128  11.7532  11.7536  12.2798
    12.4855  12.4857  12.6103  12.9244  13.0734  13.5254  13.5264  13.5296
    13.8899  14.4498  14.5974  14.5985  14.6164  16.3581  16.3582  18.8901
    21.1372  24.1105  24.1105  28.0879  28.1778  31.1883  31.1884  32.2011
    32.2013  34.0595  35.2562  36.9230  39.3278  39.3280  40.0651  43.1369
    43.7179  44.7172  46.4438  46.4438  49.2360  49.2363  50.3349  50.5667
    50.8866  51.6766  52.3583  52.8397

          k =-0.0951 0.0476 0.0951 (   822 PWs)   bands (ev):

     8.3266  10.6070  10.6072  11.1191  11.6128  11.7532  11.7536  12.2798
    12.4855  12.4857  12.6103  12.9244  13.0734  13.5254  13.5264  13.5296
    13.8899  14.4498  14.5974  14.5985  14.6164  16.3582  16.3582  18.8901
    21.1372  24.1104  24.1105  28.0879  28.1778  31.1883  31.1884  32.2011
    32.2013  34.0594  35.2562  36.9230  39.3278  39.3280  40.0651  43.1369
    43.7179  44.7172  46.4438  46.4438  49.2360  49.2363  50.3349  50.5667
    50.8866  51.6766  52.3583  52.8400

          k = 0.0951-0.0476-0.1427 (   810 PWs)   bands (ev):

     9.5422   9.5525  10.9683  10.9729  11.8722  11.8745  12.1038  12.1225
    12.4618  12.4703  12.6453  12.6621  13.2002  13.2045  13.3819  13.3849
    14.2039  14.2131  14.5029  14.5103  15.0538  15.0571  17.5870  17.5991
    22.1050  22.1138  25.8510  25.8568  29.5223  29.5298  33.0851  33.0860
    33.3075  33.3144  36.8800  36.9322  40.1036  40.1143  40.4507  40.4608
    45.1673  45.1710  45.6527  45.6796  47.6630  47.6784  50.5893  50.6104
    51.7105  51.7223  53.9558  53.9785

          k = 0.0951-0.0951 0.0951 (   814 PWs)   bands (ev):

     8.9918  10.5592  10.5595  10.5595  12.0687  12.0690  12.0690  12.5460
    12.7637  12.7637  12.7646  12.8917  12.8917  13.1641  13.1642  13.1644
    14.3298  14.3298  14.7409  14.7409  14.7411  16.6095  16.6096  16.6096
    21.7394  21.7394  21.7394  25.3659  32.5364  32.5364  32.5366  35.2937
    35.2939  35.2939  37.2749  37.2750  37.2753  37.6095  40.0255  40.0255
    44.4441  44.4441  47.7757  48.0026  48.0026  48.0037  48.1298  48.1300
    48.1300  52.4641  52.4644  52.4644

          k = 0.0951-0.0951-0.1427 (   818 PWs)   bands (ev):

     9.8150   9.8198  10.5192  10.5194  12.2613  12.2615  12.5684  12.5807
    12.8141  12.8296  12.9242  12.9254  12.9676  12.9676  13.0318  13.0319
    14.6417  14.6437  14.6700  14.6705  14.8670  14.8697  16.7987  16.7987
    20.8088  20.8088  23.2449  23.2511  33.4139  33.4140  34.7011  34.7014
    36.1999  36.2233  37.3015  37.3126  39.0433  39.0804  39.4010  39.4011
    44.6698  44.6700  44.8612  44.8801  46.0117  46.0177  48.4989  48.4990
    49.6450  49.6527  53.0847  53.0857

     the Fermi energy is    14.4858 ev

!    total energy              =    -343.62956869 Ry
     Harris-Foulkes estimate   =    -343.62956862 Ry
     estimated scf accuracy    <          8.3E-10 Ry

     The total energy is the sum of the following terms:

     one-electron contribution =      -6.44607928 Ry
     hartree contribution      =      60.37157007 Ry
     xc contribution           =    -120.51411322 Ry
     ewald contribution        =    -276.99255422 Ry
     Dispersion Correction     =      -0.04781747 Ry
     smearing contrib. (-TS)   =      -0.00057456 Ry

     total magnetization       =     2.84 Bohr mag/cell
     absolute magnetization    =     3.25 Bohr mag/cell

     convergence has been achieved in  11 iterations

     Forces acting on atoms (Ry/au):

     atom    1 type  1   force =    -0.00171930   -0.00171930    0.00171984
     atom    2 type  1   force =     0.00171876    0.00171876    0.00171876
     atom    3 type  1   force =    -0.00171930    0.00171984   -0.00171930
     atom    4 type  1   force =     0.00171984   -0.00171930   -0.00171930

     Total force =     0.005956     Total SCF correction =     0.000009


     entering subroutine stress ...

          total   stress  (Ry/bohr**3)                   (kbar)     P=   -0.57
  -0.00000391  -0.00000001  -0.00000001         -0.57     -0.00     -0.00
  -0.00000001  -0.00000391  -0.00000001         -0.00     -0.57     -0.00
  -0.00000001  -0.00000001  -0.00000391         -0.00     -0.00     -0.57


     number of scf cycles    =   2
     number of bfgs steps    =   1

     enthalpy old            =    -343.6289701771 Ry
     enthalpy new            =    -343.6295686897 Ry

     CASE: enthalpy_new < enthalpy_old

     new trust radius        =       0.0032616104 bohr
     new conv_thr            =       0.0000000002 Ry

     new unit-cell volume =    289.98414 a.u.^3 (    42.97122 Ang^3 )

CELL_PARAMETERS (alat=  1.88972590)
   3.502616593  -0.000000524  -0.000000524
  -0.000000524   3.502616593  -0.000000524
  -0.000000524  -0.000000524   3.502616593

ATOMIC_POSITIONS (alat)
Ni1      1.756868979   1.756868979   0.002214090
Ni1      0.002214220   0.002214220   0.002214220
Ni1      1.756868979   0.002214090   1.756868979
Ni1      0.002214090   1.756868979   1.756868979



     Writing output data file Ni-ferromag.save
     NEW-OLD atomic charge density approx. for the potential

     Check: negative/imaginary core charge=   -0.000005    0.000000
     extrapolated charge   39.96652, renormalised to   40.00000

     total cpu time spent up to now is      502.7 secs

     Self-consistent Calculation

     iteration #  1     ecut=    30.00 Ry     beta=0.20
     Davidson diagonalization with overlap
     ethr =  1.00E-06,  avg # of iterations =  2.7

     total cpu time spent up to now is      525.6 secs

     total energy              =    -343.62934654 Ry
     Harris-Foulkes estimate   =    -343.66483868 Ry
     estimated scf accuracy    <       0.00036152 Ry

     total magnetization       =     2.82 Bohr mag/cell
     absolute magnetization    =     3.24 Bohr mag/cell

     iteration #  2     ecut=    30.00 Ry     beta=0.20
     Davidson diagonalization with overlap
     ethr =  9.04E-07,  avg # of iterations =  2.3

     total cpu time spent up to now is      540.9 secs

     total energy              =    -343.62957665 Ry
     Harris-Foulkes estimate   =    -343.62960432 Ry
     estimated scf accuracy    <       0.00014479 Ry

     total magnetization       =     2.84 Bohr mag/cell
     absolute magnetization    =     3.26 Bohr mag/cell

     iteration #  3     ecut=    30.00 Ry     beta=0.20
     Davidson diagonalization with overlap
     ethr =  3.62E-07,  avg # of iterations =  1.1

     total cpu time spent up to now is      555.0 secs

     total energy              =    -343.62954480 Ry
     Harris-Foulkes estimate   =    -343.62958131 Ry
     estimated scf accuracy    <       0.00005049 Ry

     total magnetization       =     2.84 Bohr mag/cell
     absolute magnetization    =     3.26 Bohr mag/cell

     iteration #  4     ecut=    30.00 Ry     beta=0.20
     Davidson diagonalization with overlap
     ethr =  1.26E-07,  avg # of iterations =  2.0

     total cpu time spent up to now is      570.4 secs

     total energy              =    -343.62958251 Ry
     Harris-Foulkes estimate   =    -343.62958692 Ry
     estimated scf accuracy    <       0.00007261 Ry

     total magnetization       =     2.83 Bohr mag/cell
     absolute magnetization    =     3.25 Bohr mag/cell

     iteration #  5     ecut=    30.00 Ry     beta=0.20
     Davidson diagonalization with overlap
     ethr =  1.26E-07,  avg # of iterations =  1.0

     total cpu time spent up to now is      584.4 secs

     total energy              =    -343.62957196 Ry
     Harris-Foulkes estimate   =    -343.62958278 Ry
     estimated scf accuracy    <       0.00005553 Ry

     total magnetization       =     2.83 Bohr mag/cell
     absolute magnetization    =     3.25 Bohr mag/cell

     iteration #  6     ecut=    30.00 Ry     beta=0.20
     Davidson diagonalization with overlap
     ethr =  1.26E-07,  avg # of iterations =  1.0

     total cpu time spent up to now is      598.4 secs

     total energy              =    -343.62956583 Ry
     Harris-Foulkes estimate   =    -343.62957366 Ry
     estimated scf accuracy    <       0.00001871 Ry

     total magnetization       =     2.83 Bohr mag/cell
     absolute magnetization    =     3.25 Bohr mag/cell

     iteration #  7     ecut=    30.00 Ry     beta=0.20
     Davidson diagonalization with overlap
     ethr =  4.68E-08,  avg # of iterations =  1.0

     total cpu time spent up to now is      612.5 secs

     total energy              =    -343.62956912 Ry
     Harris-Foulkes estimate   =    -343.62956906 Ry
     estimated scf accuracy    <          2.8E-09 Ry

     total magnetization       =     2.84 Bohr mag/cell
     absolute magnetization    =     3.25 Bohr mag/cell

     iteration #  8     ecut=    30.00 Ry     beta=0.20
     Davidson diagonalization with overlap
     ethr =  7.12E-12,  avg # of iterations =  3.0

     total cpu time spent up to now is      631.4 secs

     total energy              =    -343.62956923 Ry
     Harris-Foulkes estimate   =    -343.62956921 Ry
     estimated scf accuracy    <       0.00000053 Ry

     total magnetization       =     2.84 Bohr mag/cell
     absolute magnetization    =     3.25 Bohr mag/cell

     iteration #  9     ecut=    30.00 Ry     beta=0.20
     Davidson diagonalization with overlap
     ethr =  7.12E-12,  avg # of iterations =  1.0

     total cpu time spent up to now is      645.5 secs

     total energy              =    -343.62956927 Ry
     Harris-Foulkes estimate   =    -343.62956923 Ry
     estimated scf accuracy    <       0.00000057 Ry

     total magnetization       =     2.84 Bohr mag/cell
     absolute magnetization    =     3.25 Bohr mag/cell

     iteration # 10     ecut=    30.00 Ry     beta=0.20
     Davidson diagonalization with overlap
     ethr =  7.12E-12,  avg # of iterations =  1.7

     total cpu time spent up to now is      660.2 secs

     total energy              =    -343.62956896 Ry
     Harris-Foulkes estimate   =    -343.62956928 Ry
     estimated scf accuracy    <       0.00000075 Ry

     total magnetization       =     2.84 Bohr mag/cell
     absolute magnetization    =     3.25 Bohr mag/cell

     iteration # 11     ecut=    30.00 Ry     beta=0.20
     Davidson diagonalization with overlap
     ethr =  7.12E-12,  avg # of iterations =  3.0

     Magnetic moment per site:
     atom:    1    charge:    3.0040    magn:    0.3347    constr:    0.0000
     atom:    2    charge:    3.0022    magn:    0.3346    constr:    0.0000
     atom:    3    charge:    3.0040    magn:    0.3347    constr:    0.0000
     atom:    4    charge:    3.0040    magn:    0.3347    constr:    0.0000

     total cpu time spent up to now is      679.6 secs

     End of self-consistent calculation

 ------ SPIN UP ------------


          k = 0.0000 0.0000 0.0000 (   799 PWs)   bands (ev):

     5.4357   9.7209   9.7209   9.7209  10.1744  10.1745  10.1745  11.9544
    11.9544  11.9544  13.1338  13.1338  13.8521  13.8521  13.8521  13.9423
    13.9423  13.9423  13.9423  13.9423  13.9423  17.0797  17.0798  17.0798
    23.8241  23.8242  23.8242  29.5799  29.5799  29.5799  29.5799  29.5799
    29.5800  34.6677  34.6677  34.6678  38.0103  38.0105  38.0105  38.5079
    42.4873  42.4873  42.4874  46.0992  46.0992  46.0992  48.1914  55.1910
    55.1910  55.1910  57.8276  59.2107

          k = 0.0000 0.0000 0.0476 (   807 PWs)   bands (ev):

     5.8020   9.7430   9.9052   9.9052  10.2850  10.3008  10.3009  11.8256
    12.0568  12.0568  13.0157  13.1805  13.2877  13.2878  13.6985  13.6985
    13.7663  13.7663  13.8026  13.9426  13.9426  15.4790  18.0392  18.0392
    23.9201  23.9201  26.0738  27.8291  27.8292  28.4568  28.4568  30.1406
    30.1406  34.7835  36.8396  36.8397  37.8749  38.1419  39.9675  39.9676
    40.2688  40.2688  40.9320  47.5164  48.1500  48.1500  49.1693  51.5836
    56.2888  56.2888  56.6933  56.6934

          k = 0.0000 0.0000 0.0952 (   820 PWs)   bands (ev):

     6.8516   9.5135  10.3423  10.3423  10.5928  10.6840  10.6842  11.4814
    12.2310  12.2311  12.3536  12.3536  12.7278  13.3092  13.3147  13.3170
    13.3170  13.3300  13.3300  13.6683  13.9431  13.9431  20.0028  20.0028
    24.2370  24.2370  25.0553  25.0553  26.6893  26.6893  30.3745  31.7211
    31.7211  35.1469  36.7448  37.0465  37.0465  38.3644  38.6936  40.8830
    40.8831  44.1328  44.1329  44.1665  50.9490  51.0666  51.0666  51.0703
    51.0703  55.0594  55.9990  55.9990

          k =-0.0000-0.0000-0.1428 (   820 PWs)   bands (ev):

     8.3465   8.3561  10.6185  10.6185  11.0208  11.0348  11.3241  11.3242
    11.3381  11.3381  12.5407  12.5604  12.8006  12.8006  12.8111  12.8111
    13.0714  13.0714  13.4835  13.4913  13.9434  13.9434  22.3775  22.3775
    22.4018  22.4019  24.6096  24.6096  25.7446  25.7446  34.0922  34.0922
    34.1092  34.1093  34.9072  34.9432  35.7886  35.7971  40.2589  40.3164
    45.6586  45.6587  45.7088  45.7089  47.6375  47.6375  52.3289  52.3289
    54.1702  54.1702  54.2164  54.2164

          k = 0.0000 0.0476 0.0476 (   806 PWs)   bands (ev):

     6.1597   9.9414   9.9414  10.0684  10.4024  10.4025  10.4162  11.7656
    12.1019  12.1189  12.9413  12.9870  12.9997  13.0039  13.1759  13.5699
    13.6944  13.6944  13.7649  13.7650  13.8265  16.4120  16.4120  18.8095
    23.9137  25.1116  26.2610  26.2610  28.3071  28.3071  28.9495  28.9496
    30.6688  36.0547  36.1356  37.0479  37.0480  37.3490  40.1353  40.1354
    41.2855  42.6246  43.5478  45.2508  46.3912  49.8118  50.4756  53.1302
    53.6995  55.3758  55.3760  56.3237

          k = 0.0000 0.0476 0.0952 (   822 PWs)   bands (ev):

     7.1815   9.7497  10.4236  10.4723  10.6842  10.7374  10.7566  11.4845
    11.9924  12.1320  12.2478  12.3653  12.3907  12.8242  13.2458  13.3217
    13.3337  13.3552  13.5074  13.7614  13.7679  14.4452  18.0271  20.5933
    22.0924  24.6224  25.5168  26.5468  27.4147  29.6217  29.9148  29.9708
    31.0303  33.7402  34.4823  37.6993  38.6509  40.4067  40.5857  40.7667
    41.1387  44.0592  45.0531  47.0801  47.8048  48.6118  49.9165  51.3550
    52.9634  53.2794  54.8690  56.2696

          k =-0.0000 0.0476-0.1428 (   826 PWs)   bands (ev):

     8.6284   8.6374  10.7707  10.7714  11.0726  11.0862  11.1932  11.2046
    11.3388  11.3524  12.1697  12.1842  12.8013  12.8120  13.0336  13.0384
    13.0563  13.0568  13.6710  13.6711  13.7581  13.7603  19.8902  19.9025
    22.8783  22.9002  25.4173  25.4340  28.3206  28.3262  31.5090  31.5162
    32.0326  32.0377  35.8246  35.8660  38.8451  38.8482  42.2142  42.2497
    43.1262  43.1395  45.9362  45.9837  50.0840  50.1263  50.3653  50.3852
    52.6254  52.6413  53.2370  53.2499

          k = 0.0000 0.0952 0.0952 (   824 PWs)   bands (ev):

     8.1083  10.3374  10.3374  10.7038  10.9523  10.9525  10.9660  11.4146
    11.6617  11.6617  11.8163  12.1351  12.4961  12.7379  13.0298  13.1847
    13.1848  13.3253  13.3254  13.4955  13.7108  15.6916  15.6916  19.3107
    22.1206  25.1728  26.7903  26.7903  27.9100  27.9101  31.0008  31.6548
    31.6561  31.7527  33.6188  36.8554  41.5428  41.9002  41.9003  43.0965
    43.4271  43.7890  43.7890  47.2089  47.3563  48.5002  48.5004  51.6986
    52.1988  52.2086  53.2493  55.3704

          k =-0.0000 0.0952-0.1428 (   814 PWs)   bands (ev):

     9.3720   9.3793  10.8042  10.8128  11.1990  11.2085  11.2163  11.2185
    11.3580  11.3707  11.8662  11.8757  12.8382  12.8430  12.8437  12.8491
    12.9101  12.9119  13.3571  13.3636  14.3716  14.3734  17.2187  17.2283
    24.2377  24.2543  26.2339  26.2475  28.6635  28.6713  29.5515  29.5532
    32.9631  32.9667  36.7875  36.8279  40.3782  40.3861  43.0645  43.0723
    43.2323  43.2359  46.7406  46.7792  47.9366  47.9599  50.4387  50.4602
    51.7744  51.8090  53.5786  53.5877

          k =-0.0000-0.1428-0.1428 (   840 PWs)   bands (ev):

    10.2228  10.2292  10.2292  10.2354  11.3141  11.3262  11.3262  11.3381
    11.6321  11.6355  11.6355  11.6389  12.6959  12.6971  12.6971  12.6984
    13.0019  13.0118  13.0118  13.0217  15.4385  15.4431  15.4431  15.4476
    26.2097  26.2211  26.2212  26.2325  27.5846  27.5928  27.5928  27.6012
    37.8994  37.9105  37.9105  37.9219  38.5024  38.5160  38.5161  38.5288
    47.1947  47.1947  47.1948  47.1952  49.1921  49.2139  49.2139  49.2357
    51.8399  51.8418  51.8418  51.8435

          k = 0.0476 0.0476 0.0476 (   820 PWs)   bands (ev):

     6.5055  10.1024  10.1024  10.1024  10.5168  10.5170  10.5170  11.7307
    12.1385  12.1385  12.6955  12.6955  12.6955  13.0889  13.0889  13.3363
    13.3364  13.3364  13.8806  13.8806  13.8806  17.0394  17.0395  17.0395
    25.3382  25.3382  25.3382  26.6059  26.6059  26.6060  31.1843  31.1844
    31.1844  33.4985  36.1857  36.1857  36.1857  39.2662  41.1575  41.1575
    42.8316  42.8317  42.8317  46.6090  47.6699  47.6699  51.6702  51.6702
    55.1976  55.2494  55.2496  55.2496

          k = 0.0476 0.0476 0.0952 (   819 PWs)   bands (ev):

     7.4872   9.9084  10.4857  10.4857  10.8026  10.8307  10.8307  11.5211
    11.9827  11.9827  12.1774  12.2188  12.2781  12.9338  13.0042  13.0902
    13.0906  13.3288  13.7832  13.7832  13.8155  14.8071  18.3823  18.3823
    22.7187  22.7187  26.6325  27.2572  27.2573  30.3724  30.3724  30.7604
    30.9629  32.6651  36.6644  37.7920  37.8685  38.8092  38.8092  42.3794
    43.5233  44.4878  47.0414  47.0414  47.9050  49.1036  50.2236  50.2236
    50.7202  53.0399  53.0995  55.6853

          k = 0.0476 0.0476-0.1428 (   828 PWs)   bands (ev):

     8.8560   8.8640  10.8729  10.8732  10.9310  10.9311  11.1684  11.1811
    11.5887  11.5887  12.0740  12.0883  12.5490  12.5538  12.9224  12.9225
    13.4932  13.5033  13.6039  13.6061  13.7272  13.7272  19.5313  19.5313
    21.1573  21.1574  28.2209  28.2217  28.4577  28.4630  28.9410  28.9422
    34.9472  34.9614  35.4172  35.4456  38.0985  38.1282  42.2210  42.2210
    44.7679  44.7839  45.3911  45.3912  49.4895  49.5119  50.9163  50.9240
    52.2069  52.2070  53.7224  53.7244

          k = 0.0476 0.0952 0.0952 (   822 PWs)   bands (ev):

     8.3263  10.2264  10.2264  10.5128  11.1181  11.1641  11.1642  11.5661
    11.7788  11.7788  11.9119  12.1371  12.2630  12.7415  12.7415  12.7580
    13.0611  13.6164  13.6854  13.7010  13.7014  15.8223  15.8223  18.6340
    20.8149  23.9161  23.9161  27.9560  28.0691  31.1494  31.1494  32.1356
    32.1357  34.0320  35.2575  36.9258  39.3423  39.3424  40.1688  43.0569
    43.7577  44.8024  46.4829  46.4829  49.2171  49.2172  50.4372  50.6175
    50.9455  51.6422  52.3289  52.9474

          k = 0.0476 0.0952-0.1428 (   810 PWs)   bands (ev):

     9.4075   9.4124  10.4471  10.4485  11.3315  11.3319  11.4750  11.4853
    11.7833  11.7877  11.9020  11.9114  12.4106  12.4141  12.6221  12.6243
    13.3564  13.3604  13.5843  13.5884  14.2779  14.2795  17.1963  17.2041
    21.8281  21.8342  25.6754  25.6798  29.4483  29.4521  33.0543  33.0558
    33.2671  33.2705  36.9045  36.9376  40.1501  40.1573  40.4603  40.4662
    45.2128  45.2155  45.6989  45.7149  47.7190  47.7276  50.5914  50.6047
    51.8076  51.8153  53.9204  53.9346

          k = 0.0476-0.1428-0.1428 (   820 PWs)   bands (ev):

     9.9776   9.9797   9.9797   9.9816  11.7198  11.7231  11.7231  11.7263
    11.8034  11.8104  11.8104  11.8175  12.3804  12.3838  12.3838  12.3872
    13.3348  13.3411  13.3411  13.3474  15.3489  15.3538  15.3539  15.3588
    23.4610  23.4657  23.4657  23.4703  30.9866  30.9881  30.9881  30.9897
    38.1812  38.1903  38.1903  38.2010  38.3471  38.3596  38.3597  38.3702
    46.6742  46.6743  46.6743  46.6758  46.7695  46.7819  46.7819  46.7930
    54.8243  54.8333  54.8333  54.8437

          k = 0.0952 0.0952 0.0952 (   814 PWs)   bands (ev):

     8.8704  10.0614  10.0615  10.0615  11.5228  11.5229  11.5229  12.0367
    12.0960  12.0960  12.0985  12.1060  12.1060  12.3872  12.3872  12.3873
    13.4642  13.4642  13.8293  13.8293  13.8293  16.2002  16.2003  16.2003
    21.4228  21.4228  21.4228  25.1641  32.5157  32.5157  32.5157  35.2603
    35.2604  35.2604  37.2904  37.2904  37.2905  37.8044  39.9705  39.9705
    44.4672  44.4672  47.7955  48.0872  48.0872  48.0875  48.1626  48.1627
    48.1627  52.4712  52.4713  52.4713

          k = 0.0952 0.0952-0.1428 (   818 PWs)   bands (ev):

     9.4962   9.4975   9.9929   9.9930  11.6429  11.6429  11.9258  11.9336
    12.1460  12.1471  12.2658  12.2670  12.2777  12.2858  12.3814  12.3815
    13.7492  13.7500  13.7576  13.7579  14.1682  14.1686  16.4841  16.4842
    20.3937  20.3938  22.9790  22.9835  33.4312  33.4313  34.6435  34.6436
    36.3378  36.3517  37.2602  37.2677  39.0005  39.0240  39.4548  39.4548
    44.6764  44.6765  44.9194  44.9311  46.0380  46.0412  48.5726  48.5726
    49.6292  49.6341  53.0142  53.0145

          k = 0.0952-0.1428-0.1428 (   832 PWs)   bands (ev):

     9.6724   9.6726   9.6726   9.6726  11.8871  11.8892  11.8892  11.8911
    12.0769  12.0790  12.0790  12.0813  12.8239  12.8284  12.8284  12.8328
    13.6743  13.6777  13.6777  13.6811  14.9708  14.9764  14.9765  14.9821
    21.1036  21.1074  21.1074  21.1112  35.1685  35.1704  35.1704  35.1724
    38.2277  38.2338  38.2338  38.2400  38.9513  38.9576  38.9576  38.9634
    44.1122  44.1176  44.1177  44.1230  45.1784  45.1798  45.1798  45.1812
    50.4479  50.4503  50.4503  50.4529

          k =-0.1428-0.1428-0.1428 (   840 PWs)   bands (ev):

     9.5564   9.5566   9.5566   9.5566  11.9674  11.9674  11.9674  11.9674
    11.9674  11.9675  11.9675  11.9675  13.8050  13.8050  13.8050  13.8052
    13.8052  13.8053  13.8053  13.8053  14.2996  14.2998  14.2998  14.2998
    20.2263  20.2263  20.2263  20.2263  36.9623  36.9625  36.9625  36.9625
    39.5927  39.5927  39.5927  39.5928  39.5928  39.5929  39.5929  39.5930
    42.8271  42.8271  42.8272  42.8272  42.8272  42.8272  42.8273  42.8273
    48.8044  48.8044  48.8044  48.8045

          k =-0.0476 0.0000 0.0476 (   806 PWs)   bands (ev):

     6.1597   9.9414   9.9414  10.0684  10.4024  10.4025  10.4162  11.7656
    12.1019  12.1189  12.9413  12.9870  12.9997  13.0039  13.1759  13.5699
    13.6944  13.6944  13.7649  13.7650  13.8265  16.4120  16.4120  18.8095
    23.9137  25.1116  26.2610  26.2611  28.3071  28.3071  28.9495  28.9496
    30.6688  36.0547  36.1356  37.0479  37.0480  37.3490  40.1352  40.1354
    41.2856  42.6246  43.5479  45.2509  46.3912  49.8118  50.4756  53.1302
    53.6995  55.3757  55.3760  56.3237

          k =-0.0476 0.0000 0.0952 (   822 PWs)   bands (ev):

     7.1815   9.7497  10.4236  10.4723  10.6842  10.7374  10.7566  11.4845
    11.9924  12.1320  12.2478  12.3653  12.3907  12.8242  13.2458  13.3217
    13.3337  13.3552  13.5074  13.7614  13.7679  14.4452  18.0271  20.5933
    22.0924  24.6224  25.5169  26.5468  27.4147  29.6217  29.9148  29.9708
    31.0303  33.7402  34.4823  37.6993  38.6509  40.4067  40.5857  40.7667
    41.1387  44.0591  45.0531  47.0800  47.8048  48.6118  49.9165  51.3550
    52.9634  53.2794  54.8690  56.2696

          k =-0.0952 0.0000 0.0952 (   824 PWs)   bands (ev):

     8.1083  10.3374  10.3374  10.7038  10.9523  10.9525  10.9660  11.4146
    11.6617  11.6617  11.8163  12.1351  12.4961  12.7379  13.0298  13.1846
    13.1848  13.3253  13.3254  13.4955  13.7108  15.6916  15.6916  19.3107
    22.1206  25.1728  26.7903  26.7903  27.9100  27.9101  31.0008  31.6548
    31.6561  31.7527  33.6188  36.8554  41.5428  41.9002  41.9003  43.0965
    43.4271  43.7890  43.7890  47.2089  47.3563  48.5002  48.5003  51.6986
    52.1988  52.2086  53.2493  55.3707

          k = 0.0476-0.0476 0.0476 (   820 PWs)   bands (ev):

     6.5055  10.1024  10.1024  10.1024  10.5168  10.5170  10.5170  11.7307
    12.1385  12.1385  12.6955  12.6955  12.6955  13.0889  13.0889  13.3363
    13.3364  13.3364  13.8806  13.8806  13.8806  17.0394  17.0394  17.0395
    25.3382  25.3382  25.3382  26.6059  26.6059  26.6060  31.1843  31.1844
    31.1844  33.4985  36.1856  36.1857  36.1857  39.2662  41.1575  41.1575
    42.8316  42.8317  42.8317  46.6090  47.6699  47.6699  51.6702  51.6703
    55.1976  55.2494  55.2496  55.2496

          k = 0.0476-0.0476 0.0952 (   819 PWs)   bands (ev):

     7.4872   9.9084  10.4857  10.4857  10.8026  10.8307  10.8307  11.5211
    11.9827  11.9827  12.1774  12.2188  12.2781  12.9338  13.0042  13.0902
    13.0906  13.3288  13.7832  13.7832  13.8155  14.8071  18.3823  18.3823
    22.7187  22.7187  26.6325  27.2572  27.2573  30.3724  30.3724  30.7604
    30.9629  32.6651  36.6644  37.7920  37.8685  38.8092  38.8092  42.3794
    43.5233  44.4878  47.0413  47.0414  47.9050  49.1036  50.2236  50.2236
    50.7202  53.0399  53.0995  55.6853

          k =-0.0952 0.0476 0.0476 (   819 PWs)   bands (ev):

     7.4872   9.9084  10.4857  10.4857  10.8026  10.8307  10.8307  11.5211
    11.9827  11.9827  12.1774  12.2188  12.2781  12.9338  13.0042  13.0902
    13.0906  13.3288  13.7832  13.7832  13.8155  14.8071  18.3823  18.3823
    22.7187  22.7187  26.6325  27.2572  27.2573  30.3724  30.3724  30.7604
    30.9629  32.6651  36.6644  37.7920  37.8685  38.8092  38.8092  42.3794
    43.5233  44.4878  47.0413  47.0413  47.9050  49.1036  50.2236  50.2236
    50.7202  53.0399  53.0995  55.6853

          k = 0.0476-0.0476-0.1428 (   828 PWs)   bands (ev):

     8.8560   8.8640  10.8729  10.8732  10.9310  10.9310  11.1684  11.1811
    11.5887  11.5887  12.0740  12.0883  12.5490  12.5538  12.9224  12.9225
    13.4932  13.5033  13.6039  13.6061  13.7272  13.7272  19.5313  19.5313
    21.1573  21.1573  28.2209  28.2216  28.4577  28.4630  28.9410  28.9422
    34.9472  34.9615  35.4172  35.4456  38.0985  38.1282  42.2210  42.2210
    44.7679  44.7839  45.3911  45.3912  49.4895  49.5119  50.9163  50.9240
    52.2069  52.2070  53.7225  53.7243

          k = 0.0952-0.0476 0.0952 (   822 PWs)   bands (ev):

     8.3263  10.2264  10.2264  10.5128  11.1181  11.1641  11.1642  11.5661
    11.7788  11.7788  11.9119  12.1371  12.2630  12.7415  12.7415  12.7580
    13.0611  13.6164  13.6854  13.7010  13.7014  15.8223  15.8223  18.6340
    20.8149  23.9161  23.9161  27.9560  28.0691  31.1494  31.1494  32.1356
    32.1357  34.0320  35.2575  36.9258  39.3423  39.3424  40.1688  43.0569
    43.7577  44.8024  46.4829  46.4829  49.2171  49.2172  50.4372  50.6175
    50.9455  51.6422  52.3289  52.9473

          k =-0.0952 0.0476 0.0952 (   822 PWs)   bands (ev):

     8.3263  10.2264  10.2264  10.5128  11.1181  11.1641  11.1642  11.5661
    11.7788  11.7788  11.9119  12.1371  12.2630  12.7415  12.7415  12.7580
    13.0611  13.6164  13.6854  13.7010  13.7014  15.8223  15.8223  18.6340
    20.8149  23.9161  23.9161  27.9560  28.0691  31.1494  31.1494  32.1356
    32.1357  34.0320  35.2575  36.9258  39.3423  39.3424  40.1688  43.0570
    43.7578  44.8024  46.4829  46.4829  49.2171  49.2172  50.4372  50.6175
    50.9455  51.6422  52.3289  52.9473

          k = 0.0952-0.0476-0.1428 (   810 PWs)   bands (ev):

     9.4075   9.4124  10.4471  10.4485  11.3315  11.3319  11.4750  11.4853
    11.7833  11.7877  11.9020  11.9114  12.4106  12.4141  12.6221  12.6243
    13.3564  13.3604  13.5843  13.5884  14.2779  14.2795  17.1963  17.2041
    21.8281  21.8342  25.6754  25.6798  29.4483  29.4521  33.0543  33.0559
    33.2671  33.2705  36.9045  36.9376  40.1501  40.1573  40.4603  40.4662
    45.2128  45.2155  45.6989  45.7149  47.7190  47.7276  50.5914  50.6047
    51.8075  51.8153  53.9204  53.9344

          k = 0.0952-0.0952 0.0952 (   814 PWs)   bands (ev):

     8.8704  10.0614  10.0615  10.0615  11.5228  11.5229  11.5229  12.0367
    12.0960  12.0960  12.0986  12.1060  12.1060  12.3872  12.3872  12.3873
    13.4642  13.4642  13.8293  13.8293  13.8293  16.2003  16.2003  16.2003
    21.4228  21.4228  21.4228  25.1641  32.5156  32.5157  32.5157  35.2603
    35.2604  35.2604  37.2904  37.2904  37.2905  37.8044  39.9705  39.9706
    44.4672  44.4673  47.7955  48.0871  48.0872  48.0875  48.1626  48.1626
    48.1627  52.4712  52.4713  52.4713

          k = 0.0952-0.0952-0.1428 (   818 PWs)   bands (ev):

     9.4962   9.4975   9.9929   9.9930  11.6429  11.6429  11.9258  11.9336
    12.1460  12.1471  12.2658  12.2670  12.2777  12.2858  12.3813  12.3815
    13.7492  13.7500  13.7576  13.7579  14.1682  14.1686  16.4842  16.4842
    20.3937  20.3937  22.9790  22.9835  33.4312  33.4313  34.6435  34.6436
    36.3378  36.3517  37.2603  37.2677  39.0005  39.0240  39.4548  39.4548
    44.6764  44.6765  44.9194  44.9311  46.0380  46.0412  48.5726  48.5726
    49.6292  49.6341  53.0142  53.0145

 ------ SPIN DOWN ----------


          k = 0.0000 0.0000 0.0000 (   799 PWs)   bands (ev):

     5.3813  10.1830  10.1830  10.1830  10.8926  10.8927  10.8927  12.8348
    12.8348  12.8348  13.9140  13.9140  14.6664  14.6664  14.6664  14.9516
    14.9516  14.9516  14.9517  14.9517  14.9517  17.0011  17.0011  17.0011
    24.1298  24.1298  24.1298  29.5662  29.5663  29.5663  29.5664  29.5664
    29.5664  34.8315  34.8315  34.8316  38.1543  38.1545  38.1545  38.3019
    42.4579  42.4579  42.4579  46.1715  46.1715  46.1715  48.0318  55.3801
    55.3801  55.3801  58.3759  59.5115

          k = 0.0000 0.0000 0.0476 (   807 PWs)   bands (ev):

     5.7475  10.1586  10.3773  10.3773  11.0120  11.0165  11.0166  12.6927
    12.9413  12.9413  13.7862  13.9627  14.1076  14.1077  14.4992  14.4992
    14.6144  14.7589  14.7589  14.9520  14.9520  15.5492  18.1462  18.1462
    24.2107  24.2107  26.2757  27.8977  27.8977  28.4843  28.4843  30.1433
    30.1434  34.9347  36.9203  36.9203  37.7357  38.2835  40.0883  40.0884
    40.3107  40.3107  40.8619  47.5368  48.1236  48.1236  49.2408  51.5747
    56.5003  56.5003  56.6199  56.6200

          k = 0.0000 0.0000 0.0952 (   820 PWs)   bands (ev):

     6.8014   9.7217  10.8389  10.8389  11.3452  11.3943  11.3944  12.3142
    12.9602  12.9604  13.2512  13.2512  13.4651  13.6857  14.0869  14.0869
    14.0975  14.2837  14.2837  14.4736  14.9526  14.9526  20.1880  20.1881
    24.4832  24.4832  25.1960  25.1960  26.7877  26.7878  30.4700  31.7581
    31.7581  35.2604  36.7096  37.1179  37.1179  38.2739  38.8402  40.8882
    40.8883  44.2326  44.2327  44.3853  50.9045  50.9714  50.9714  50.9967
    50.9967  54.9538  56.2408  56.2409

          k =-0.0000-0.0000-0.1428 (   820 PWs)   bands (ev):

     8.3400   8.3499  11.1307  11.1307  11.8107  11.8257  12.0331  12.0333
    12.0474  12.0475  13.1878  13.2093  13.7217  13.7217  13.7327  13.7327
    13.8182  13.8183  14.2800  14.2881  14.9529  14.9529  22.5589  22.5589
    22.5838  22.5838  24.8062  24.8062  25.9023  25.9023  34.1573  34.1573
    34.1743  34.1743  34.8865  34.9236  35.8387  35.8489  40.4511  40.5096
    45.6134  45.6134  45.6648  45.6648  47.7116  47.7117  52.5197  52.5197
    54.0596  54.0596  54.1059  54.1059

          k = 0.0000 0.0476 0.0476 (   806 PWs)   bands (ev):

     6.1062  10.3696  10.3696  10.5594  11.1159  11.1263  11.1265  12.6191
    12.9917  12.9961  13.7061  13.7428  13.7476  13.7647  13.9631  14.3607
    14.4868  14.4868  14.7577  14.7577  14.8286  16.7267  16.7267  18.9753
    24.1723  25.2415  26.4497  26.4497  28.3900  28.3900  28.9907  28.9909
    30.6800  36.1267  36.1588  37.1182  37.1183  37.3664  40.2537  40.2537
    41.2046  42.7123  43.5168  45.1944  46.4517  49.9707  50.4008  53.2971
    53.6702  55.3368  55.3371  56.2641

          k = 0.0000 0.0476 0.0952 (   822 PWs)   bands (ev):

     7.1361   9.9723  10.8860  11.0044  11.3994  11.4321  11.4735  12.3065
    12.6837  12.8528  13.0459  13.0881  13.2674  13.5887  14.0109  14.0962
    14.1664  14.2530  14.2821  14.7547  14.7642  15.1544  18.3658  20.7974
    22.2909  24.8505  25.6685  26.6815  27.5402  29.7301  29.9767  30.0413
    31.1278  33.8180  34.5247  37.7410  38.6888  40.3580  40.5331  40.8870
    41.1381  44.1417  45.2581  47.1468  47.7271  48.5941  49.9006  51.2800
    52.9188  53.1886  55.0879  56.5229

          k =-0.0000 0.0476-0.1428 (   826 PWs)   bands (ev):

     8.6339   8.6433  11.2737  11.2749  11.8533  11.8673  11.8721  11.8835
    12.0506  12.0645  12.9096  12.9263  13.7250  13.7362  13.8025  13.8049
    13.8081  13.8101  14.5094  14.5099  14.7521  14.7545  20.1716  20.1842
    23.0714  23.0934  25.5883  25.6062  28.4373  28.4438  31.6233  31.6298
    32.0909  32.0952  35.8497  35.8911  38.8465  38.8488  42.3668  42.4035
    43.1185  43.1332  45.8875  45.9360  50.1498  50.1914  50.2974  50.3175
    52.5414  52.5578  53.4065  53.4192

          k = 0.0000 0.0952 0.0952 (   824 PWs)   bands (ev):

     8.0863  10.6106  10.6106  11.3681  11.4502  11.6879  11.6882  12.2086
    12.3549  12.3549  12.5285  12.9264  13.4114  13.4850  13.7835  13.9222
    13.9223  14.2861  14.2862  14.4763  14.5532  16.2970  16.2970  19.6184
    22.3398  25.3713  26.9571  26.9571  28.0113  28.0114  31.1316  31.7434
    31.7450  31.8204  33.6715  36.8910  41.4792  41.8818  41.8819  43.1310
    43.3095  43.8315  43.8316  47.3303  47.3853  48.5453  48.5455  51.7583
    52.0852  52.1535  53.4534  55.2717

          k =-0.0000 0.0952-0.1428 (   814 PWs)   bands (ev):

     9.4331   9.4411  11.2238  11.2324  11.8536  11.8545  11.9632  11.9766
    12.0784  12.0916  12.6026  12.6131  13.5777  13.5780  13.6505  13.6522
    13.7726  13.7841  14.3253  14.3323  15.1776  15.1797  17.6830  17.6925
    24.4430  24.4593  26.3852  26.4000  28.8261  28.8331  29.6413  29.6436
    33.0344  33.0390  36.8150  36.8555  40.3775  40.3845  43.0103  43.0174
    43.2509  43.2541  46.6782  46.7176  48.0184  48.0429  50.3856  50.4077
    51.8956  51.9301  53.4934  53.5019

          k =-0.0000-0.1428-0.1428 (   840 PWs)   bands (ev):

    10.4415  10.4485  10.4485  10.4556  12.0511  12.0640  12.0640  12.0768
    12.3009  12.3049  12.3049  12.3089  13.4336  13.4350  13.4350  13.4364
    13.9504  13.9609  13.9609  13.9713  16.1212  16.1251  16.1251  16.1289
    26.4054  26.4161  26.4162  26.4268  27.7074  27.7165  27.7165  27.7258
    37.9738  37.9846  37.9846  37.9958  38.4692  38.4821  38.4822  38.4939
    47.0740  47.0745  47.0746  47.0756  49.1806  49.2029  49.2030  49.2253
    51.9400  51.9429  51.9430  51.9458

          k = 0.0476 0.0476 0.0476 (   820 PWs)   bands (ev):

     6.4549  10.5575  10.5575  10.5575  11.2175  11.2176  11.2176  12.5641
    13.0167  13.0167  13.4061  13.4061  13.4061  13.8754  13.8754  14.1675
    14.1676  14.1676  14.8289  14.8289  14.8290  17.3806  17.3806  17.3806
    25.4697  25.4697  25.4697  26.7793  26.7793  26.7794  31.2063  31.2065
    31.2065  33.5649  36.2804  36.2804  36.2805  39.1105  41.2099  41.2099
    42.9160  42.9161  42.9161  46.5216  47.6269  47.6269  51.8371  51.8371
    55.2027  55.2029  55.2029  55.5381

          k = 0.0476 0.0476 0.0952 (   819 PWs)   bands (ev):

     7.4523  10.1711  11.0172  11.0173  11.4590  11.4592  11.5150  12.3168
    12.6850  12.6850  12.8504  13.0486  13.1385  13.7801  13.8140  13.8772
    13.8778  14.1512  14.7168  14.7465  14.7466  15.4375  18.7093  18.7093
    22.9289  22.9290  26.7767  27.4063  27.4064  30.4474  30.4474  30.8744
    31.0503  32.7117  36.7388  37.6976  37.9457  38.8394  38.8394  42.3868
    43.6039  44.5054  47.0857  47.0857  47.9468  49.0491  50.2125  50.2126
    50.7273  52.9690  53.0595  55.8002

          k = 0.0476 0.0476-0.1428 (   828 PWs)   bands (ev):

     8.8903   8.8990  11.4450  11.4450  11.5123  11.5126  11.9186  11.9325
    12.3026  12.3027  12.8230  12.8388  13.4000  13.4040  13.6862  13.6863
    14.2976  14.3083  14.4657  14.4668  14.6989  14.6989  19.7887  19.7887
    21.4613  21.4614  28.3357  28.3365  28.5998  28.6045  29.0559  29.0573
    35.0167  35.0307  35.3897  35.4191  38.1757  38.2056  42.2023  42.2023
    44.8543  44.8717  45.3800  45.3801  49.4099  49.4323  50.8704  50.8781
    52.2404  52.2405  53.9019  53.9053

          k = 0.0476 0.0952 0.0952 (   822 PWs)   bands (ev):

     8.3384  10.6192  10.6192  11.1312  11.6251  11.7660  11.7661  12.2927
    12.4989  12.4989  12.6237  12.9379  13.0873  13.5405  13.5410  13.5437
    13.9046  14.4654  14.6138  14.6142  14.6315  16.3757  16.3758  18.9088
    21.1589  24.1332  24.1332  28.1168  28.1979  31.2131  31.2131  32.2284
    32.2285  34.0868  35.2829  36.9509  39.3570  39.3571  40.0925  43.1707
    43.7492  44.7480  46.4768  46.4768  49.2720  49.2721  50.3687  50.6010
    50.9218  51.7148  52.3945  52.8743

          k = 0.0476 0.0952-0.1428 (   810 PWs)   bands (ev):

     9.5562   9.5627  10.9813  10.9842  11.8853  11.8867  12.1202  12.1319
    12.4766  12.4820  12.6617  12.6722  13.2152  13.2179  13.3968  13.3987
    14.2208  14.2266  14.5198  14.5245  15.0707  15.0728  17.6076  17.6151
    22.1287  22.1342  25.8758  25.8794  29.5484  29.5531  33.1115  33.1120
    33.3357  33.3401  36.9176  36.9503  40.1346  40.1413  40.4827  40.4890
    45.2001  45.2024  45.6901  45.7070  47.6993  47.7090  50.6296  50.6428
    51.7470  51.7544  54.0021  54.0157

          k = 0.0476-0.1428-0.1428 (   820 PWs)   bands (ev):

    10.3326  10.3366  10.3366  10.3404  12.2876  12.2933  12.2933  12.2989
    12.5068  12.5137  12.5137  12.5207  13.1580  13.1610  13.1610  13.1641
    14.2459  14.2531  14.2531  14.2603  15.9954  15.9996  15.9996  16.0038
    23.7195  23.7234  23.7234  23.7274  31.0684  31.0708  31.0708  31.0733
    38.2538  38.2602  38.2602  38.2731  38.2986  38.3129  38.3129  38.3202
    46.6061  46.6061  46.6062  46.6071  46.7942  46.8072  46.8072  46.8194
    54.8879  54.8974  54.8975  55.1133

          k = 0.0952 0.0952 0.0952 (   814 PWs)   bands (ev):

     9.0037  10.5711  10.5713  10.5713  12.0817  12.0818  12.0818  12.5596
    12.7775  12.7775  12.7779  12.9051  12.9051  13.1783  13.1783  13.1784
    14.3452  14.3452  14.7569  14.7569  14.7570  16.6269  16.6270  16.6270
    21.7614  21.7614  21.7615  25.3895  32.5620  32.5620  32.5620  35.3219
    35.3220  35.3220  37.3031  37.3031  37.3032  37.6332  40.0568  40.0568
    44.4763  44.4763  47.8107  48.0355  48.0355  48.0359  48.1638  48.1640
    48.1640  52.5023  52.5025  52.5025

          k = 0.0952 0.0952-0.1428 (   818 PWs)   bands (ev):

     9.8276   9.8307  10.5309  10.5310  12.2744  12.2745  12.5842  12.5919
    12.8307  12.8404  12.9383  12.9390  12.9812  12.9812  13.0458  13.0458
    14.6580  14.6592  14.6860  14.6862  14.8835  14.8852  16.8160  16.8160
    20.8308  20.8308  23.2688  23.2727  33.4389  33.4389  34.7298  34.7299
    36.2284  36.2431  37.3330  37.3399  39.0811  39.1044  39.4295  39.4295
    44.7028  44.7028  44.8964  44.9083  46.0458  46.0496  48.5323  48.5323
    49.6828  49.6876  53.1230  53.1233

          k = 0.0952-0.1428-0.1428 (   832 PWs)   bands (ev):

    10.1424  10.1433  10.1433  10.1440  12.6201  12.6221  12.6221  12.6240
    12.8528  12.8549  12.8549  12.8570  13.2632  13.2684  13.2684  13.2737
    14.5920  14.5958  14.5958  14.5997  15.5037  15.5083  15.5083  15.5129
    21.4970  21.5002  21.5002  21.5034  35.1413  35.1442  35.1443  35.1473
    38.1976  38.2031  38.2031  38.2087  39.0210  39.0269  39.0270  39.0324
    44.1434  44.1495  44.1495  44.1555  45.1706  45.1723  45.1724  45.1741
    50.5387  50.5411  50.5411  50.5437

          k =-0.1428-0.1428-0.1428 (   840 PWs)   bands (ev):

    10.0578  10.0579  10.0579  10.0579  12.7404  12.7404  12.7404  12.7405
    12.7405  12.7405  12.7405  12.7405  14.2002  14.2002  14.2002  14.2004
    14.7286  14.7286  14.7287  14.7287  14.7287  14.7288  14.7288  14.7288
    20.7085  20.7085  20.7085  20.7086  36.7779  36.7782  36.7782  36.7782
    39.6631  39.6631  39.6631  39.6631  39.6631  39.6633  39.6633  39.6633
    42.8572  42.8572  42.8572  42.8573  42.8573  42.8573  42.8574  42.8574
    48.9191  48.9191  48.9191  48.9192

          k =-0.0476 0.0000 0.0476 (   806 PWs)   bands (ev):

     6.1062  10.3696  10.3696  10.5594  11.1159  11.1263  11.1265  12.6191
    12.9917  12.9961  13.7061  13.7428  13.7476  13.7647  13.9631  14.3607
    14.4868  14.4868  14.7577  14.7577  14.8286  16.7267  16.7267  18.9753
    24.1723  25.2414  26.4497  26.4498  28.3900  28.3900  28.9907  28.9909
    30.6800  36.1267  36.1588  37.1182  37.1183  37.3664  40.2535  40.2538
    41.2046  42.7123  43.5168  45.1944  46.4517  49.9707  50.4008  53.2971
    53.6702  55.3368  55.3370  56.2641

          k =-0.0476 0.0000 0.0952 (   822 PWs)   bands (ev):

     7.1361   9.9723  10.8860  11.0044  11.3994  11.4321  11.4735  12.3065
    12.6837  12.8528  13.0459  13.0881  13.2674  13.5887  14.0109  14.0962
    14.1664  14.2530  14.2821  14.7547  14.7642  15.1544  18.3658  20.7974
    22.2909  24.8505  25.6685  26.6815  27.5402  29.7301  29.9767  30.0413
    31.1278  33.8180  34.5247  37.7410  38.6888  40.3580  40.5331  40.8870
    41.1381  44.1417  45.2581  47.1468  47.7271  48.5941  49.9005  51.2800
    52.9187  53.1886  55.0879  56.5229

          k =-0.0952 0.0000 0.0952 (   824 PWs)   bands (ev):

     8.0863  10.6106  10.6106  11.3681  11.4502  11.6879  11.6882  12.2086
    12.3549  12.3549  12.5285  12.9264  13.4114  13.4850  13.7835  13.9222
    13.9223  14.2861  14.2862  14.4763  14.5532  16.2970  16.2970  19.6184
    22.3398  25.3713  26.9570  26.9571  28.0112  28.0114  31.1316  31.7434
    31.7449  31.8204  33.6715  36.8910  41.4792  41.8818  41.8819  43.1310
    43.3095  43.8315  43.8316  47.3303  47.3853  48.5453  48.5455  51.7582
    52.0852  52.1535  53.4534  55.2723

          k = 0.0476-0.0476 0.0476 (   820 PWs)   bands (ev):

     6.4549  10.5575  10.5575  10.5575  11.2175  11.2176  11.2176  12.5641
    13.0167  13.0167  13.4061  13.4061  13.4061  13.8754  13.8754  14.1675
    14.1676  14.1676  14.8289  14.8289  14.8290  17.3806  17.3806  17.3806
    25.4697  25.4697  25.4697  26.7793  26.7793  26.7794  31.2064  31.2064
    31.2065  33.5648  36.2804  36.2805  36.2805  39.1105  41.2099  41.2099
    42.9160  42.9161  42.9161  46.5216  47.6269  47.6270  51.8371  51.8371
    55.2027  55.2029  55.2029  55.5381

          k = 0.0476-0.0476 0.0952 (   819 PWs)   bands (ev):

     7.4523  10.1711  11.0172  11.0173  11.4590  11.4592  11.5150  12.3168
    12.6850  12.6851  12.8504  13.0486  13.1385  13.7801  13.8140  13.8772
    13.8778  14.1512  14.7168  14.7465  14.7466  15.4375  18.7093  18.7093
    22.9289  22.9290  26.7767  27.4063  27.4063  30.4474  30.4474  30.8744
    31.0503  32.7117  36.7388  37.6976  37.9457  38.8394  38.8395  42.3868
    43.6038  44.5054  47.0856  47.0857  47.9468  49.0492  50.2125  50.2126
    50.7273  52.9690  53.0595  55.8002

          k =-0.0952 0.0476 0.0476 (   819 PWs)   bands (ev):

     7.4523  10.1711  11.0172  11.0173  11.4590  11.4592  11.5150  12.3168
    12.6850  12.6851  12.8504  13.0486  13.1385  13.7801  13.8140  13.8772
    13.8778  14.1512  14.7168  14.7465  14.7466  15.4375  18.7093  18.7093
    22.9289  22.9290  26.7767  27.4063  27.4063  30.4474  30.4475  30.8744
    31.0503  32.7117  36.7388  37.6976  37.9457  38.8394  38.8394  42.3868
    43.6039  44.5054  47.0856  47.0857  47.9468  49.0492  50.2125  50.2125
    50.7273  52.9690  53.0595  55.8002

          k = 0.0476-0.0476-0.1428 (   828 PWs)   bands (ev):

     8.8903   8.8990  11.4450  11.4450  11.5123  11.5126  11.9186  11.9325
    12.3026  12.3027  12.8230  12.8388  13.4000  13.4040  13.6862  13.6863
    14.2976  14.3083  14.4657  14.4668  14.6989  14.6989  19.7887  19.7887
    21.4614  21.4614  28.3358  28.3365  28.5998  28.6045  29.0559  29.0572
    35.0167  35.0308  35.3897  35.4191  38.1757  38.2056  42.2022  42.2023
    44.8543  44.8717  45.3800  45.3800  49.4099  49.4323  50.8704  50.8781
    52.2404  52.2405  53.9020  53.9053

          k = 0.0952-0.0476 0.0952 (   822 PWs)   bands (ev):

     8.3384  10.6191  10.6192  11.1312  11.6251  11.7660  11.7661  12.2927
    12.4989  12.4989  12.6238  12.9379  13.0873  13.5405  13.5410  13.5437
    13.9046  14.4654  14.6138  14.6142  14.6315  16.3757  16.3758  18.9088
    21.1589  24.1332  24.1332  28.1168  28.1979  31.2131  31.2131  32.2284
    32.2285  34.0868  35.2829  36.9509  39.3570  39.3571  40.0925  43.1707
    43.7492  44.7480  46.4768  46.4768  49.2720  49.2721  50.3687  50.6010
    50.9218  51.7148  52.3945  52.8741

          k =-0.0952 0.0476 0.0952 (   822 PWs)   bands (ev):

     8.3384  10.6192  10.6192  11.1312  11.6251  11.7660  11.7661  12.2928
    12.4989  12.4989  12.6237  12.9379  13.0873  13.5406  13.5410  13.5437
    13.9046  14.4654  14.6138  14.6142  14.6315  16.3757  16.3757  18.9088
    21.1589  24.1332  24.1332  28.1168  28.1979  31.2130  31.2131  32.2284
    32.2284  34.0868  35.2829  36.9509  39.3570  39.3571  40.0925  43.1707
    43.7492  44.7480  46.4768  46.4768  49.2720  49.2721  50.3687  50.6010
    50.9218  51.7148  52.3945  52.8742

          k = 0.0952-0.0476-0.1428 (   810 PWs)   bands (ev):

     9.5562   9.5627  10.9813  10.9842  11.8853  11.8867  12.1202  12.1320
    12.4766  12.4820  12.6617  12.6722  13.2152  13.2179  13.3968  13.3987
    14.2208  14.2266  14.5198  14.5245  15.0707  15.0728  17.6076  17.6151
    22.1287  22.1342  25.8758  25.8794  29.5484  29.5531  33.1115  33.1120
    33.3357  33.3401  36.9176  36.9503  40.1346  40.1413  40.4827  40.4891
    45.2001  45.2024  45.6901  45.7070  47.6993  47.7090  50.6296  50.6428
    51.7470  51.7544  54.0021  54.0157

          k = 0.0952-0.0952 0.0952 (   814 PWs)   bands (ev):

     9.0036  10.5711  10.5713  10.5713  12.0817  12.0818  12.0818  12.5596
    12.7775  12.7775  12.7779  12.9051  12.9051  13.1783  13.1783  13.1784
    14.3452  14.3452  14.7569  14.7569  14.7570  16.6270  16.6270  16.6270
    21.7614  21.7614  21.7615  25.3895  32.5620  32.5620  32.5621  35.3219
    35.3219  35.3220  37.3030  37.3031  37.3032  37.6332  40.0568  40.0568
    44.4763  44.4763  47.8107  48.0355  48.0355  48.0359  48.1639  48.1639
    48.1640  52.5023  52.5024  52.5024

          k = 0.0952-0.0952-0.1428 (   818 PWs)   bands (ev):

     9.8276   9.8307  10.5309  10.5310  12.2744  12.2745  12.5842  12.5919
    12.8307  12.8404  12.9383  12.9390  12.9812  12.9812  13.0457  13.0458
    14.6580  14.6592  14.6860  14.6862  14.8835  14.8852  16.8160  16.8160
    20.8308  20.8308  23.2688  23.2727  33.4389  33.4389  34.7298  34.7299
    36.2284  36.2431  37.3330  37.3399  39.0811  39.1044  39.4294  39.4295
    44.7028  44.7028  44.8964  44.9083  46.0458  46.0496  48.5323  48.5323
    49.6828  49.6876  53.1229  53.1233

     the Fermi energy is    14.5016 ev

!    total energy              =    -343.62956910 Ry
     Harris-Foulkes estimate   =    -343.62956910 Ry
     estimated scf accuracy    <          1.1E-10 Ry

     The total energy is the sum of the following terms:

     one-electron contribution =      -6.32636718 Ry
     hartree contribution      =      60.33322362 Ry
     xc contribution           =    -120.51597478 Ry
     ewald contribution        =    -277.07200002 Ry
     Dispersion Correction     =      -0.04787229 Ry
     smearing contrib. (-TS)   =      -0.00057845 Ry

     total magnetization       =     2.84 Bohr mag/cell
     absolute magnetization    =     3.25 Bohr mag/cell

     convergence has been achieved in  11 iterations

     Forces acting on atoms (Ry/au):

     atom    1 type  1   force =    -0.00107825   -0.00107825    0.00107852
     atom    2 type  1   force =     0.00107798    0.00107798    0.00107798
     atom    3 type  1   force =    -0.00107825    0.00107852   -0.00107825
     atom    4 type  1   force =     0.00107852   -0.00107825   -0.00107825

     Total force =     0.003735     Total SCF correction =     0.000005


     entering subroutine stress ...

          total   stress  (Ry/bohr**3)                   (kbar)     P=    0.87
   0.00000588   0.00000004   0.00000004          0.87      0.01      0.01
   0.00000004   0.00000588   0.00000004          0.01      0.87      0.01
   0.00000004   0.00000004   0.00000588          0.01      0.01      0.87


     number of scf cycles    =   3
     number of bfgs steps    =   2

     enthalpy old            =    -343.6295686897 Ry
     enthalpy new            =    -343.6295691006 Ry

     CASE: enthalpy_new < enthalpy_old

     new trust radius        =       0.0048910519 bohr
     new conv_thr            =            1.0E-10 Ry

     new unit-cell volume =    290.00395 a.u.^3 (    42.97415 Ang^3 )

CELL_PARAMETERS (alat=  1.88972590)
   3.502696332   0.000008015   0.000008015
   0.000008015   3.502696332   0.000008015
   0.000008015   0.000008015   3.502696332

ATOMIC_POSITIONS (alat)
Ni1      1.755419036   1.755419036   0.003717296
Ni1      0.003708150   0.003708150   0.003708150
Ni1      1.755419036   0.003717296   1.755419036
Ni1      0.003717296   1.755419036   1.755419036



     Writing output data file Ni-ferromag.save
     NEW-OLD atomic charge density approx. for the potential

     Check: negative/imaginary core charge=   -0.000005    0.000000
     extrapolated charge   40.00273, renormalised to   40.00000

     total cpu time spent up to now is      704.2 secs

     Self-consistent Calculation

     iteration #  1     ecut=    30.00 Ry     beta=0.20
     Davidson diagonalization with overlap
     ethr =  1.00E-06,  avg # of iterations =  3.5

     Threshold (ethr) on eigenvalues was too large:
     Diagonalizing with lowered threshold

     Davidson diagonalization with overlap
     ethr =  2.12E-08,  avg # of iterations =  1.0

     total cpu time spent up to now is      741.4 secs

     total energy              =    -343.62961469 Ry
     Harris-Foulkes estimate   =    -343.62674580 Ry
     estimated scf accuracy    <       0.00000852 Ry

     total magnetization       =     2.84 Bohr mag/cell
     absolute magnetization    =     3.25 Bohr mag/cell

     iteration #  2     ecut=    30.00 Ry     beta=0.20
     Davidson diagonalization with overlap
     ethr =  2.13E-08,  avg # of iterations =  1.0

     total cpu time spent up to now is      755.7 secs

     total energy              =    -343.62961617 Ry
     Harris-Foulkes estimate   =    -343.62961642 Ry
     estimated scf accuracy    <       0.00000464 Ry

     total magnetization       =     2.84 Bohr mag/cell
     absolute magnetization    =     3.25 Bohr mag/cell

     iteration #  3     ecut=    30.00 Ry     beta=0.20
     Davidson diagonalization with overlap
     ethr =  1.16E-08,  avg # of iterations =  1.0

     total cpu time spent up to now is      770.0 secs

     total energy              =    -343.62961592 Ry
     Harris-Foulkes estimate   =    -343.62961622 Ry
     estimated scf accuracy    <       0.00000273 Ry

     total magnetization       =     2.84 Bohr mag/cell
     absolute magnetization    =     3.25 Bohr mag/cell

     iteration #  4     ecut=    30.00 Ry     beta=0.20
     Davidson diagonalization with overlap
     ethr =  6.83E-09,  avg # of iterations =  1.0

     total cpu time spent up to now is      784.3 secs

     total energy              =    -343.62961612 Ry
     Harris-Foulkes estimate   =    -343.62961627 Ry
     estimated scf accuracy    <       0.00000076 Ry

     total magnetization       =     2.84 Bohr mag/cell
     absolute magnetization    =     3.25 Bohr mag/cell

     iteration #  5     ecut=    30.00 Ry     beta=0.20
     Davidson diagonalization with overlap
     ethr =  1.89E-09,  avg # of iterations =  1.0

     total cpu time spent up to now is      798.7 secs

     total energy              =    -343.62961611 Ry
     Harris-Foulkes estimate   =    -343.62961618 Ry
     estimated scf accuracy    <       0.00000033 Ry

     total magnetization       =     2.84 Bohr mag/cell
     absolute magnetization    =     3.25 Bohr mag/cell

     iteration #  6     ecut=    30.00 Ry     beta=0.20
     Davidson diagonalization with overlap
     ethr =  8.29E-10,  avg # of iterations =  1.0

     total cpu time spent up to now is      813.0 secs

     total energy              =    -343.62961619 Ry
     Harris-Foulkes estimate   =    -343.62961618 Ry
     estimated scf accuracy    <       0.00000005 Ry

     total magnetization       =     2.84 Bohr mag/cell
     absolute magnetization    =     3.25 Bohr mag/cell

     iteration #  7     ecut=    30.00 Ry     beta=0.20
     Davidson diagonalization with overlap
     ethr =  1.21E-10,  avg # of iterations =  1.0

     total cpu time spent up to now is      827.4 secs

     total energy              =    -343.62961621 Ry
     Harris-Foulkes estimate   =    -343.62961619 Ry
     estimated scf accuracy    <          1.6E-09 Ry

     total magnetization       =     2.84 Bohr mag/cell
     absolute magnetization    =     3.25 Bohr mag/cell

     iteration #  8     ecut=    30.00 Ry     beta=0.20
     Davidson diagonalization with overlap
     ethr =  3.97E-12,  avg # of iterations =  2.0

     total cpu time spent up to now is      845.2 secs

     total energy              =    -343.62961622 Ry
     Harris-Foulkes estimate   =    -343.62961622 Ry
     estimated scf accuracy    <       0.00000003 Ry

     total magnetization       =     2.84 Bohr mag/cell
     absolute magnetization    =     3.25 Bohr mag/cell

     iteration #  9     ecut=    30.00 Ry     beta=0.20
     Davidson diagonalization with overlap
     ethr =  3.97E-12,  avg # of iterations =  2.0

     total cpu time spent up to now is      861.3 secs

     total energy              =    -343.62961623 Ry
     Harris-Foulkes estimate   =    -343.62961622 Ry
     estimated scf accuracy    <          3.8E-09 Ry

     total magnetization       =     2.84 Bohr mag/cell
     absolute magnetization    =     3.25 Bohr mag/cell

     iteration # 10     ecut=    30.00 Ry     beta=0.20
     Davidson diagonalization with overlap
     ethr =  3.97E-12,  avg # of iterations =  1.0

     total cpu time spent up to now is      875.7 secs

     total energy              =    -343.62961623 Ry
     Harris-Foulkes estimate   =    -343.62961623 Ry
     estimated scf accuracy    <          1.2E-09 Ry

     total magnetization       =     2.84 Bohr mag/cell
     absolute magnetization    =     3.25 Bohr mag/cell

     iteration # 11     ecut=    30.00 Ry     beta=0.20
     Davidson diagonalization with overlap
     ethr =  2.99E-12,  avg # of iterations =  1.0

     Magnetic moment per site:
     atom:    1    charge:    3.0038    magn:    0.3347    constr:    0.0000
     atom:    2    charge:    3.0020    magn:    0.3346    constr:    0.0000
     atom:    3    charge:    3.0038    magn:    0.3347    constr:    0.0000
     atom:    4    charge:    3.0038    magn:    0.3347    constr:    0.0000

     total cpu time spent up to now is      890.0 secs

     End of self-consistent calculation

 ------ SPIN UP ------------


          k = 0.0000 0.0000 0.0000 (   799 PWs)   bands (ev):

     5.4348   9.7200   9.7201   9.7201  10.1736  10.1736  10.1736  11.9532
    11.9533  11.9533  13.1326  13.1326  13.8508  13.8508  13.8508  13.9409
    13.9409  13.9409  13.9409  13.9409  13.9409  17.0783  17.0783  17.0783
    23.8223  23.8223  23.8223  29.5777  29.5777  29.5777  29.5779  29.5780
    29.5780  34.6656  34.6656  34.6656  38.0079  38.0080  38.0080  38.5058
    42.4845  42.4848  42.4848  46.0963  46.0966  46.0966  48.1891  55.1873
    55.1875  55.1875  57.8262  59.2094

          k =-0.0000-0.0000 0.0476 (   807 PWs)   bands (ev):

     5.8011   9.7421   9.9043   9.9043  10.2841  10.2999  10.2999  11.8245
    12.0557  12.0557  13.0146  13.1794  13.2863  13.2863  13.6973  13.6973
    13.7648  13.7648  13.8012  13.9412  13.9412  15.4776  18.0377  18.0377
    23.9183  23.9183  26.0719  27.8271  27.8271  28.4548  28.4548  30.1383
    30.1385  34.7813  36.8374  36.8374  37.8727  38.1395  39.9655  39.9656
    40.2656  40.2658  40.9295  47.5137  48.1473  48.1474  49.1662  51.5810
    56.2851  56.2852  56.6903  56.6903

          k =-0.0000-0.0000 0.0952 (   820 PWs)   bands (ev):

     6.8507   9.5126  10.3414  10.3414  10.5919  10.6832  10.6832  11.4802
    12.2299  12.2299  12.3525  12.3525  12.7266  13.3080  13.3133  13.3185
    13.3185  13.3259  13.3259  13.6670  13.9417  13.9417  20.0012  20.0012
    24.2352  24.2352  25.0534  25.0534  26.6873  26.6873  30.3725  31.7187
    31.7190  35.1447  36.7426  37.0439  37.0441  38.3624  38.6910  40.8807
    40.8807  44.1301  44.1302  44.1632  50.9463  51.0639  51.0640  51.0675
    51.0675  55.0566  55.9964  55.9965

          k = 0.0000 0.0000-0.1427 (   820 PWs)   bands (ev):

     8.3499   8.3509  10.6175  10.6175  11.0262  11.0277  11.3293  11.3293
    11.3308  11.3308  12.5482  12.5503  12.8042  12.8042  12.8053  12.8053
    13.0698  13.0699  13.4857  13.4865  13.9420  13.9420  22.3866  22.3866
    22.3892  22.3892  24.6079  24.6079  25.7424  25.7425  34.0973  34.0976
    34.0992  34.0994  34.9212  34.9251  35.7903  35.7912  40.2817  40.2879
    45.6785  45.6785  45.6838  45.6838  47.6347  47.6347  52.3261  52.3261
    54.1880  54.1881  54.1929  54.1931

          k =-0.0000 0.0476 0.0476 (   806 PWs)   bands (ev):

     6.1588   9.9405   9.9405  10.0675  10.4015  10.4015  10.4153  11.7645
    12.1007  12.1177  12.9401  12.9900  12.9984  12.9985  13.1746  13.5685
    13.6931  13.6931  13.7636  13.7636  13.8251  16.4105  16.4105  18.8079
    23.9118  25.1096  26.2590  26.2591  28.3052  28.3052  28.9473  28.9474
    30.6667  36.0526  36.1333  37.0456  37.0456  37.3466  40.1327  40.1327
    41.2833  42.6218  43.5453  45.2484  46.3886  49.8086  50.4728  53.1269
    53.6969  55.3728  55.3728  56.3207

          k =-0.0000 0.0476 0.0952 (   822 PWs)   bands (ev):

     7.1806   9.7487  10.4227  10.4714  10.6833  10.7364  10.7557  11.4833
    11.9912  12.1310  12.2466  12.3641  12.3894  12.8229  13.2445  13.3232
    13.3300  13.3537  13.5060  13.7602  13.7663  14.4438  18.0255  20.5916
    22.0906  24.6205  25.5150  26.5449  27.4126  29.6195  29.9144  29.9672
    31.0280  33.7379  34.4800  37.6969  38.6486  40.4044  40.5834  40.7640
    41.1363  44.0564  45.0500  47.0773  47.8023  48.6092  49.9135  51.3521
    52.9605  53.2767  54.8661  56.2670

          k = 0.0000 0.0476-0.1427 (   826 PWs)   bands (ev):

     8.6314   8.6324  10.7701  10.7701  11.0780  11.0794  11.1970  11.1982
    11.3438  11.3452  12.1750  12.1765  12.8050  12.8062  13.0348  13.0353
    13.0549  13.0549  13.6697  13.6697  13.7577  13.7579  19.8941  19.8954
    22.8863  22.8887  25.4229  25.4247  28.3211  28.3217  31.5100  31.5108
    32.0327  32.0332  35.8408  35.8453  38.8441  38.8445  42.2272  42.2310
    43.1296  43.1311  45.9548  45.9599  50.1000  50.1045  50.3714  50.3736
    52.6298  52.6315  53.2400  53.2414

          k =-0.0000 0.0952 0.0952 (   824 PWs)   bands (ev):

     8.1073  10.3364  10.3364  10.7029  10.9515  10.9515  10.9650  11.4134
    11.6606  11.6606  11.8152  12.1338  12.4951  12.7367  13.0285  13.1837
    13.1837  13.3239  13.3239  13.4940  13.7094  15.6902  15.6902  19.3090
    22.1188  25.1709  26.7886  26.7886  27.9078  27.9079  30.9986  31.6539
    31.6539  31.7491  33.6166  36.8532  41.5404  41.8978  41.8978  43.0939
    43.4248  43.7862  43.7862  47.2060  47.3536  48.4974  48.4974  51.6954
    52.1959  52.2062  53.2463  55.3677

          k = 0.0000 0.0952-0.1427 (   814 PWs)   bands (ev):

     9.3743   9.3751  10.8071  10.8080  11.2052  11.2065  11.2133  11.2134
    11.3625  11.3638  11.8692  11.8702  12.8422  12.8422  12.8425  12.8437
    12.9090  12.9092  13.3585  13.3592  14.3710  14.3712  17.2214  17.2225
    24.2433  24.2451  26.2382  26.2396  28.6648  28.6657  29.5501  29.5503
    32.9624  32.9628  36.8032  36.8075  40.3792  40.3801  43.0655  43.0664
    43.2312  43.2316  46.7552  46.7593  47.9441  47.9466  50.4457  50.4480
    51.7867  51.7904  53.5798  53.5808

          k = 0.0000-0.1427-0.1427 (   840 PWs)   bands (ev):

    10.2275  10.2281  10.2282  10.2288  11.3239  11.3251  11.3252  11.3264
    11.6340  11.6344  11.6344  11.6347  12.6959  12.6961  12.6961  12.6962
    13.0093  13.0104  13.0104  13.0115  15.4411  15.4416  15.4416  15.4421
    26.2182  26.2194  26.2195  26.2207  27.5897  27.5905  27.5906  27.5915
    37.9070  37.9081  37.9083  37.9094  38.5119  38.5133  38.5134  38.5147
    47.1924  47.1924  47.1925  47.1925  49.2087  49.2109  49.2111  49.2134
    51.8383  51.8384  51.8386  51.8388

          k = 0.0476 0.0476 0.0476 (   820 PWs)   bands (ev):

     6.5046  10.1015  10.1015  10.1015  10.5160  10.5160  10.5160  11.7295
    12.1374  12.1374  12.6943  12.6943  12.6943  13.0878  13.0878  13.3350
    13.3350  13.3350  13.8792  13.8792  13.8792  17.0379  17.0379  17.0379
    25.3363  25.3363  25.3363  26.6039  26.6039  26.6039  31.1823  31.1823
    31.1823  33.4960  36.1834  36.1835  36.1835  39.2641  41.1550  41.1550
    42.8288  42.8289  42.8289  46.6065  47.6673  47.6673  51.6670  51.6670
    55.1953  55.2465  55.2465  55.2465

          k = 0.0476 0.0476 0.0952 (   819 PWs)   bands (ev):

     7.4863   9.9075  10.4848  10.4848  10.8017  10.8297  10.8297  11.5199
    11.9816  11.9816  12.1771  12.2166  12.2769  12.9326  13.0033  13.0890
    13.0890  13.3274  13.7819  13.7819  13.8141  14.8056  18.3808  18.3808
    22.7169  22.7169  26.6307  27.2552  27.2552  30.3703  30.3703  30.7581
    30.9606  32.6629  36.6621  37.7900  37.8662  38.8069  38.8069  42.3769
    43.5203  44.4852  47.0385  47.0385  47.9022  49.1010  50.2207  50.2207
    50.7174  53.0370  53.0965  55.6822

          k = 0.0476 0.0476-0.1427 (   828 PWs)   bands (ev):

     8.8586   8.8594  10.8722  10.8722  10.9300  10.9301  11.1729  11.1743
    11.5875  11.5875  12.0792  12.0807  12.5500  12.5505  12.9213  12.9213
    13.4963  13.4974  13.6035  13.6037  13.7258  13.7258  19.5297  19.5297
    21.1556  21.1556  28.2197  28.2197  28.4581  28.4587  28.9388  28.9388
    34.9513  34.9528  35.4278  35.4309  38.1093  38.1125  42.2185  42.2185
    44.7721  44.7738  45.3886  45.3886  49.4968  49.4992  50.9170  50.9178
    52.2038  52.2039  53.7215  53.7216

          k = 0.0476 0.0952 0.0952 (   822 PWs)   bands (ev):

     8.3253  10.2255  10.2255  10.5119  11.1171  11.1632  11.1632  11.5650
    11.7776  11.7776  11.9109  12.1358  12.2618  12.7404  12.7404  12.7568
    13.0597  13.6150  13.6844  13.6996  13.6996  15.8208  15.8208  18.6324
    20.8132  23.9143  23.9143  27.9559  28.0649  31.1473  31.1474  32.1334
    32.1334  34.0297  35.2554  36.9236  39.3400  39.3400  40.1665  43.0542
    43.7554  44.7999  46.4801  46.4801  49.2143  49.2143  50.4344  50.6145
    50.9428  51.6391  52.3258  52.9443

          k = 0.0476 0.0952-0.1427 (   810 PWs)   bands (ev):

     9.4087   9.4092  10.4468  10.4469  11.3308  11.3308  11.4784  11.4796
    11.7842  11.7847  11.9049  11.9059  12.4110  12.4114  12.6219  12.6222
    13.3569  13.3573  13.5847  13.5852  14.2772  14.2774  17.1983  17.1991
    21.8291  21.8298  25.6754  25.6759  29.4478  29.4482  33.0530  33.0531
    33.2662  33.2666  36.9169  36.9205  40.1509  40.1517  40.4605  40.4611
    45.2115  45.2118  45.7035  45.7052  47.7200  47.7210  50.5945  50.5959
    51.8080  51.8089  53.9330  53.9341

          k = 0.0476-0.1427-0.1427 (   820 PWs)   bands (ev):

     9.9785   9.9787   9.9787   9.9789  11.7219  11.7222  11.7222  11.7226
    11.8083  11.8091  11.8091  11.8098  12.3823  12.3826  12.3827  12.3830
    13.3391  13.3397  13.3397  13.3404  15.3519  15.3524  15.3524  15.3529
    23.4633  23.4638  23.4639  23.4644  30.9858  30.9860  30.9860  30.9862
    38.1876  38.1886  38.1887  38.1897  38.3551  38.3563  38.3564  38.3576
    46.6724  46.6724  46.6725  46.6726  46.7772  46.7784  46.7786  46.7798
    54.8296  54.8306  54.8310  54.8318

          k = 0.0952 0.0952 0.0952 (   814 PWs)   bands (ev):

     8.8695  10.0605  10.0605  10.0606  11.5219  11.5219  11.5219  12.0358
    12.0970  12.0970  12.0970  12.1027  12.1027  12.3861  12.3861  12.3861
    13.4628  13.4628  13.8280  13.8280  13.8280  16.1988  16.1988  16.1988
    21.4210  21.4210  21.4210  25.1621  32.5134  32.5134  32.5134  35.2580
    35.2581  35.2581  37.2881  37.2882  37.2882  37.8025  39.9680  39.9680
    44.4647  44.4647  47.7932  48.0845  48.0845  48.0845  48.1598  48.1598
    48.1598  52.4681  52.4681  52.4681

          k = 0.0952 0.0952-0.1427 (   818 PWs)   bands (ev):

     9.4958   9.4960   9.9920   9.9920  11.6419  11.6419  11.9282  11.9290
    12.1454  12.1455  12.2658  12.2659  12.2796  12.2804  12.3802  12.3802
    13.7483  13.7484  13.7563  13.7563  14.1670  14.1670  16.4827  16.4828
    20.3920  20.3920  22.9792  22.9797  33.4291  33.4291  34.6411  34.6411
    36.3420  36.3435  37.2611  37.2619  39.0084  39.0109  39.4523  39.4524
    44.6738  44.6739  44.9221  44.9234  46.0368  46.0371  48.5699  48.5699
    49.6286  49.6291  53.0116  53.0116

          k = 0.0952-0.1427-0.1427 (   832 PWs)   bands (ev):

     9.6716   9.6716   9.6716   9.6716  11.8879  11.8881  11.8881  11.8883
    12.0777  12.0779  12.0779  12.0782  12.8267  12.8272  12.8272  12.8277
    13.6760  13.6763  13.6763  13.6767  14.9745  14.9750  14.9751  14.9757
    21.1052  21.1056  21.1057  21.1061  35.1680  35.1682  35.1683  35.1685
    38.2308  38.2314  38.2316  38.2322  38.9542  38.9548  38.9549  38.9555
    44.1144  44.1149  44.1151  44.1156  45.1771  45.1772  45.1773  45.1774
    50.4473  50.4476  50.4476  50.4478

          k =-0.1427-0.1427-0.1427 (   840 PWs)   bands (ev):

     9.5556   9.5556   9.5556   9.5556  11.9663  11.9663  11.9663  11.9663
    11.9663  11.9664  11.9664  11.9664  13.8039  13.8039  13.8039  13.8039
    13.8039  13.8039  13.8039  13.8039  14.2983  14.2984  14.2984  14.2984
    20.2244  20.2245  20.2245  20.2246  36.9603  36.9604  36.9604  36.9606
    39.5900  39.5900  39.5900  39.5901  39.5902  39.5902  39.5903  39.5903
    42.8246  42.8246  42.8246  42.8247  42.8247  42.8247  42.8248  42.8248
    48.8017  48.8017  48.8017  48.8018

          k =-0.0476 0.0000 0.0476 (   806 PWs)   bands (ev):

     6.1588   9.9405   9.9405  10.0675  10.4015  10.4015  10.4153  11.7645
    12.1007  12.1178  12.9401  12.9900  12.9984  12.9985  13.1746  13.5685
    13.6931  13.6931  13.7636  13.7636  13.8251  16.4105  16.4105  18.8079
    23.9118  25.1098  26.2591  26.2591  28.3052  28.3052  28.9473  28.9473
    30.6665  36.0524  36.1334  37.0456  37.0456  37.3468  40.1327  40.1328
    41.2831  42.6221  43.5451  45.2483  46.3884  49.8085  50.4730  53.1270
    53.6971  55.3730  55.3730  56.3206

          k =-0.0476-0.0000 0.0952 (   822 PWs)   bands (ev):

     7.1806   9.7487  10.4227  10.4714  10.6833  10.7365  10.7557  11.4833
    11.9912  12.1310  12.2466  12.3641  12.3894  12.8229  13.2445  13.3232
    13.3300  13.3537  13.5060  13.7602  13.7663  14.4437  18.0255  20.5916
    22.0907  24.6206  25.5149  26.5449  27.4127  29.6195  29.9144  29.9670
    31.0280  33.7380  34.4801  37.6970  38.6484  40.4043  40.5833  40.7641
    41.1363  44.0565  45.0498  47.0775  47.8022  48.6090  49.9137  51.3521
    52.9607  53.2768  54.8660  56.2670

          k =-0.0952 0.0000 0.0952 (   824 PWs)   bands (ev):

     8.1074  10.3364  10.3364  10.7029  10.9515  10.9515  10.9650  11.4134
    11.6605  11.6605  11.8152  12.1338  12.4950  12.7367  13.0284  13.1837
    13.1837  13.3239  13.3239  13.4940  13.7094  15.6901  15.6901  19.3091
    22.1189  25.1709  26.7885  26.7885  27.9078  27.9078  30.9987  31.6540
    31.6540  31.7492  33.6164  36.8530  41.5403  41.8979  41.8979  43.0938
    43.4246  43.7863  43.7864  47.2058  47.3534  48.4976  48.4976  51.6957
    52.1958  52.2062  53.2461  55.3680

          k = 0.0476-0.0476 0.0476 (   820 PWs)   bands (ev):

     6.5046  10.1015  10.1015  10.1015  10.5160  10.5160  10.5160  11.7295
    12.1374  12.1374  12.6943  12.6943  12.6943  13.0877  13.0877  13.3350
    13.3350  13.3350  13.8792  13.8792  13.8792  17.0379  17.0379  17.0379
    25.3363  25.3365  25.3365  26.6039  26.6040  26.6040  31.1821  31.1821
    31.1823  33.4963  36.1833  36.1833  36.1835  39.2640  41.1547  41.1550
    42.8289  42.8291  42.8292  46.6064  47.6671  47.6674  51.6668  51.6670
    55.1953  55.2465  55.2465  55.2467

          k = 0.0476-0.0476 0.0952 (   819 PWs)   bands (ev):

     7.4863   9.9075  10.4848  10.4848  10.8017  10.8297  10.8297  11.5199
    11.9816  11.9816  12.1771  12.2167  12.2769  12.9326  13.0033  13.0890
    13.0890  13.3274  13.7819  13.7819  13.8141  14.8056  18.3807  18.3808
    22.7168  22.7169  26.6308  27.2553  27.2553  30.3702  30.3703  30.7584
    30.9606  32.6627  36.6620  37.7898  37.8660  38.8066  38.8069  42.3769
    43.5207  44.4851  47.0386  47.0388  47.9022  49.1008  50.2207  50.2208
    50.7173  53.0371  53.0965  55.6820

          k =-0.0952 0.0476 0.0476 (   819 PWs)   bands (ev):

     7.4863   9.9075  10.4848  10.4848  10.8017  10.8297  10.8298  11.5200
    11.9816  11.9816  12.1771  12.2166  12.2769  12.9326  13.0033  13.0890
    13.0890  13.3274  13.7819  13.7819  13.8141  14.8056  18.3807  18.3807
    22.7169  22.7169  26.6305  27.2553  27.2553  30.3701  30.3701  30.7584
    30.9607  32.6629  36.6622  37.7899  37.8662  38.8067  38.8067  42.3768
    43.5205  44.4848  47.0388  47.0388  47.9020  49.1009  50.2208  50.2208
    50.7173  53.0372  53.0967  55.6823

          k = 0.0476-0.0476-0.1427 (   828 PWs)   bands (ev):

     8.8586   8.8594  10.8722  10.8722  10.9300  10.9301  11.1729  11.1743
    11.5875  11.5875  12.0792  12.0807  12.5499  12.5505  12.9212  12.9213
    13.4964  13.4974  13.6035  13.6037  13.7258  13.7258  19.5297  19.5297
    21.1555  21.1556  28.2197  28.2198  28.4583  28.4588  28.9388  28.9389
    34.9511  34.9526  35.4278  35.4308  38.1092  38.1124  42.2183  42.2186
    44.7723  44.7740  45.3885  45.3887  49.4969  49.4993  50.9169  50.9177
    52.2037  52.2040  53.7215  53.7216

          k = 0.0952-0.0476 0.0952 (   822 PWs)   bands (ev):

     8.3254  10.2255  10.2255  10.5119  11.1172  11.1632  11.1632  11.5650
    11.7776  11.7776  11.9108  12.1358  12.2619  12.7404  12.7404  12.7568
    13.0597  13.6150  13.6844  13.6996  13.6996  15.8208  15.8209  18.6324
    20.8131  23.9144  23.9144  27.9562  28.0651  31.1473  31.1473  32.1334
    32.1334  34.0297  35.2551  36.9236  39.3398  39.3398  40.1664  43.0541
    43.7553  44.7999  46.4802  46.4802  49.2145  49.2145  50.4346  50.6147
    50.9426  51.6392  52.3259  52.9444

          k =-0.0952 0.0476 0.0952 (   822 PWs)   bands (ev):

     8.3254  10.2255  10.2255  10.5119  11.1172  11.1632  11.1632  11.5650
    11.7776  11.7776  11.9109  12.1358  12.2618  12.7404  12.7404  12.7568
    13.0597  13.6150  13.6844  13.6996  13.6996  15.8208  15.8208  18.6325
    20.8132  23.9142  23.9144  27.9561  28.0650  31.1472  31.1474  32.1334
    32.1335  34.0295  35.2553  36.9234  39.3399  39.3400  40.1664  43.0540
    43.7552  44.7998  46.4803  46.4803  49.2144  49.2145  50.4345  50.6144
    50.9427  51.6390  52.3262  52.9445

          k = 0.0952-0.0476-0.1427 (   810 PWs)   bands (ev):

     9.4087   9.4093  10.4468  10.4470  11.3308  11.3308  11.4785  11.4796
    11.7842  11.7847  11.9049  11.9059  12.4110  12.4114  12.6219  12.6222
    13.3569  13.3573  13.5847  13.5852  14.2772  14.2774  17.1982  17.1991
    21.8290  21.8297  25.6756  25.6760  29.4479  29.4483  33.0528  33.0530
    33.2663  33.2667  36.9169  36.9205  40.1508  40.1517  40.4603  40.4609
    45.2114  45.2117  45.7034  45.7052  47.7202  47.7211  50.5946  50.5960
    51.8083  51.8091  53.9329  53.9344

          k = 0.0952-0.0952 0.0952 (   814 PWs)   bands (ev):

     8.8695  10.0605  10.0606  10.0606  11.5219  11.5219  11.5219  12.0358
    12.0969  12.0970  12.0970  12.1027  12.1027  12.3860  12.3860  12.3860
    13.4628  13.4628  13.8279  13.8279  13.8280  16.1988  16.1988  16.1988
    21.4209  21.4211  21.4211  25.1623  32.5135  32.5136  32.5136  35.2579
    35.2579  35.2581  37.2880  37.2880  37.2882  37.8023  39.9677  39.9679
    44.4645  44.4646  47.7931  48.0845  48.0846  48.0847  48.1598  48.1598
    48.1600  52.4683  52.4685  52.4685

          k = 0.0952-0.0952-0.1427 (   818 PWs)   bands (ev):

     9.4958   9.4960   9.9920   9.9920  11.6419  11.6419  11.9282  11.9290
    12.1454  12.1455  12.2658  12.2659  12.2796  12.2805  12.3801  12.3802
    13.7483  13.7484  13.7562  13.7563  14.1670  14.1670  16.4827  16.4828
    20.3919  20.3920  22.9793  22.9797  33.4291  33.4293  34.6412  34.6413
    36.3419  36.3434  37.2610  37.2617  39.0084  39.0109  39.4522  39.4525
    44.6737  44.6740  44.9221  44.9233  46.0366  46.0370  48.5700  48.5701
    49.6286  49.6291  53.0117  53.0118

 ------ SPIN DOWN ----------


          k = 0.0000 0.0000 0.0000 (   799 PWs)   bands (ev):

     5.3805  10.1821  10.1822  10.1822  10.8918  10.8918  10.8918  12.8336
    12.8337  12.8337  13.9129  13.9129  14.6650  14.6651  14.6651  14.9504
    14.9504  14.9504  14.9504  14.9504  14.9504  16.9996  16.9996  16.9996
    24.1279  24.1280  24.1280  29.5641  29.5641  29.5642  29.5643  29.5644
    29.5644  34.8293  34.8293  34.8293  38.1518  38.1520  38.1520  38.2998
    42.4550  42.4554  42.4554  46.1685  46.1688  46.1688  48.0295  55.3764
    55.3766  55.3766  58.3745  59.5084

          k =-0.0000-0.0000 0.0476 (   807 PWs)   bands (ev):

     5.7467  10.1577  10.3764  10.3764  11.0111  11.0156  11.0156  12.6916
    12.9401  12.9402  13.7853  13.9618  14.1062  14.1062  14.4979  14.4979
    14.6131  14.7576  14.7576  14.9506  14.9506  15.5478  18.1447  18.1447
    24.2089  24.2089  26.2738  27.8957  27.8957  28.4822  28.4823  30.1411
    30.1413  34.9325  36.9180  36.9180  37.7335  38.2811  40.0865  40.0866
    40.3073  40.3075  40.8595  47.5341  48.1209  48.1210  49.2377  51.5720
    56.4965  56.4967  56.6169  56.6169

          k =-0.0000-0.0000 0.0952 (   820 PWs)   bands (ev):

     6.8005   9.7208  10.8380  10.8380  11.3443  11.3935  11.3935  12.3131
    12.9592  12.9592  13.2501  13.2501  13.4643  13.6839  14.0857  14.0858
    14.0963  14.2823  14.2823  14.4723  14.9512  14.9512  20.1864  20.1864
    24.4814  24.4814  25.1941  25.1941  26.7857  26.7857  30.4680  31.7558
    31.7560  35.2582  36.7074  37.1153  37.1155  38.2718  38.8376  40.8858
    40.8858  44.2298  44.2299  44.3820  50.9018  50.9687  50.9689  50.9938
    50.9938  54.9509  56.2382  56.2382

          k = 0.0000 0.0000-0.1427 (   820 PWs)   bands (ev):

     8.3435   8.3445  11.1298  11.1298  11.8166  11.8182  12.0384  12.0384
    12.0400  12.0400  13.1962  13.1985  13.7259  13.7259  13.7271  13.7271
    13.8160  13.8160  14.2823  14.2832  14.9515  14.9515  22.5682  22.5682
    22.5709  22.5709  24.8045  24.8045  25.9001  25.9002  34.1624  34.1627
    34.1643  34.1645  34.9010  34.9050  35.8411  35.8422  40.4744  40.4806
    45.6337  45.6337  45.6392  45.6392  47.7088  47.7089  52.5168  52.5169
    54.0775  54.0776  54.0824  54.0825

          k =-0.0000 0.0476 0.0476 (   806 PWs)   bands (ev):

     6.1053  10.3687  10.3687  10.5585  11.1150  11.1255  11.1255  12.6179
    12.9906  12.9950  13.7050  13.7463  13.7464  13.7588  13.9619  14.3594
    14.4855  14.4855  14.7564  14.7564  14.8272  16.7252  16.7252  18.9737
    24.1704  25.2395  26.4477  26.4478  28.3881  28.3882  28.9885  28.9885
    30.6779  36.1246  36.1565  37.1159  37.1160  37.3640  40.2510  40.2511
    41.2023  42.7095  43.5143  45.1919  46.4490  49.9675  50.3980  53.2938
    53.6676  55.3338  55.3339  56.2610

          k =-0.0000 0.0476 0.0952 (   822 PWs)   bands (ev):

     7.1352   9.9713  10.8851  11.0034  11.3984  11.4312  11.4726  12.3053
    12.6826  12.8518  13.0456  13.0860  13.2663  13.5874  14.0097  14.0952
    14.1652  14.2515  14.2807  14.7535  14.7627  15.1530  18.3643  20.7958
    22.2891  24.8487  25.6666  26.6796  27.5382  29.7279  29.9761  30.0379
    31.1255  33.8158  34.5224  37.7386  38.6865  40.3557  40.5308  40.8843
    41.1356  44.1389  45.2549  47.1440  47.7246  48.5915  49.8975  51.2772
    52.9158  53.1859  55.0850  56.5203

          k = 0.0000 0.0476-0.1427 (   826 PWs)   bands (ev):

     8.6371   8.6381  11.2733  11.2735  11.8611  11.8627  11.8738  11.8749
    12.0557  12.0572  12.9159  12.9177  13.7294  13.7306  13.8045  13.8047
    13.8051  13.8054  14.5083  14.5083  14.7518  14.7521  20.1756  20.1769
    23.0794  23.0818  25.5944  25.5963  28.4382  28.4389  31.6240  31.6246
    32.0906  32.0910  35.8659  35.8704  38.8452  38.8454  42.3803  42.3843
    43.1225  43.1241  45.9066  45.9117  50.1655  50.1699  50.3036  50.3058
    52.5460  52.5478  53.4093  53.4107

          k =-0.0000 0.0952 0.0952 (   824 PWs)   bands (ev):

     8.0853  10.6097  10.6097  11.3672  11.4492  11.6872  11.6872  12.2073
    12.3538  12.3538  12.5274  12.9251  13.4104  13.4838  13.7821  13.9211
    13.9211  14.2848  14.2848  14.4748  14.5518  16.2955  16.2955  19.6167
    22.3381  25.3694  26.9554  26.9554  28.0090  28.0091  31.1294  31.7427
    31.7428  31.8166  33.6692  36.8888  41.4768  41.8794  41.8794  43.1284
    43.3071  43.8287  43.8288  47.3274  47.3827  48.5425  48.5426  51.7550
    52.0828  52.1506  53.4504  55.2702

          k = 0.0000 0.0952-0.1427 (   814 PWs)   bands (ev):

     9.4357   9.4365  11.2266  11.2276  11.8534  11.8535  11.9681  11.9695
    12.0830  12.0844  12.6061  12.6073  13.5767  13.5767  13.6505  13.6507
    13.7762  13.7774  14.3270  14.3278  15.1771  15.1774  17.6857  17.6867
    24.4485  24.4502  26.3900  26.3916  28.8270  28.8278  29.6402  29.6405
    33.0342  33.0347  36.8308  36.8351  40.3781  40.3789  43.0110  43.0118
    43.2496  43.2500  46.6932  46.6974  48.0264  48.0291  50.3928  50.3951
    51.9078  51.9115  53.4943  53.4953

          k = 0.0000-0.1427-0.1427 (   840 PWs)   bands (ev):

    10.4468  10.4475  10.4475  10.4483  12.0617  12.0631  12.0631  12.0645
    12.3033  12.3037  12.3037  12.3041  13.4337  13.4339  13.4339  13.4340
    13.9584  13.9595  13.9595  13.9606  16.1232  16.1236  16.1236  16.1240
    26.4133  26.4145  26.4145  26.4156  27.7132  27.7142  27.7143  27.7152
    37.9813  37.9823  37.9825  37.9836  38.4780  38.4793  38.4794  38.4806
    47.0722  47.0722  47.0723  47.0723  49.1977  49.2000  49.2001  49.2025
    51.9393  51.9396  51.9398  51.9400

          k = 0.0476 0.0476 0.0476 (   820 PWs)   bands (ev):

     6.4540  10.5566  10.5566  10.5566  11.2167  11.2167  11.2167  12.5630
    13.0156  13.0156  13.4049  13.4049  13.4049  13.8742  13.8742  14.1662
    14.1662  14.1662  14.8276  14.8276  14.8276  17.3791  17.3791  17.3791
    25.4678  25.4678  25.4678  26.7773  26.7773  26.7773  31.2043  31.2043
    31.2043  33.5624  36.2782  36.2783  36.2783  39.1084  41.2075  41.2075
    42.9132  42.9133  42.9133  46.5191  47.6243  47.6243  51.8338  51.8338
    55.1997  55.1998  55.1998  55.5357

          k = 0.0476 0.0476 0.0952 (   819 PWs)   bands (ev):

     7.4514  10.1701  11.0163  11.0163  11.4582  11.4582  11.5141  12.3156
    12.6840  12.6840  12.8495  13.0472  13.1373  13.7790  13.8133  13.8760
    13.8760  14.1499  14.7155  14.7452  14.7452  15.4361  18.7078  18.7078
    22.9271  22.9271  26.7749  27.4043  27.4043  30.4453  30.4453  30.8722
    31.0480  32.7095  36.7366  37.6955  37.9434  38.8371  38.8371  42.3843
    43.6009  44.5028  47.0828  47.0828  47.9441  49.0465  50.2096  50.2096
    50.7244  52.9660  53.0565  55.7973

          k = 0.0476 0.0476-0.1427 (   828 PWs)   bands (ev):

     8.8932   8.8941  11.4441  11.4441  11.5115  11.5115  11.9238  11.9253
    12.3015  12.3015  12.8289  12.8306  13.4007  13.4011  13.6851  13.6851
    14.3011  14.3022  14.4649  14.4650  14.6975  14.6975  19.7871  19.7871
    21.4596  21.4596  28.3345  28.3345  28.6001  28.6005  29.0537  29.0538
    35.0207  35.0222  35.4007  35.4039  38.1866  38.1898  42.1998  42.1998
    44.8591  44.8610  45.3774  45.3775  49.4172  49.4196  50.8711  50.8719
    52.2373  52.2374  53.9024  53.9024

          k = 0.0476 0.0952 0.0952 (   822 PWs)   bands (ev):

     8.3374  10.6182  10.6182  11.1303  11.6242  11.7651  11.7651  12.2916
    12.4978  12.4978  12.6227  12.9366  13.0861  13.5399  13.5399  13.5421
    13.9032  14.4641  14.6129  14.6129  14.6297  16.3743  16.3743  18.9073
    21.1571  24.1314  24.1314  28.1178  28.1927  31.2110  31.2110  32.2261
    32.2261  34.0845  35.2808  36.9487  39.3547  39.3547  40.0902  43.1679
    43.7468  44.7455  46.4740  46.4740  49.2692  49.2692  50.3659  50.5980
    50.9190  51.7116  52.3915  52.8711

          k = 0.0476 0.0952-0.1427 (   810 PWs)   bands (ev):

     9.5581   9.5588  10.9817  10.9820  11.8850  11.8851  12.1245  12.1257
    12.4779  12.4785  12.6652  12.6664  13.2153  13.2156  13.3966  13.3968
    14.2221  14.2227  14.5206  14.5211  15.0703  15.0705  17.6094  17.6102
    22.1294  22.1300  25.8755  25.8759  29.5483  29.5488  33.1097  33.1098
    33.3352  33.3357  36.9299  36.9334  40.1351  40.1358  40.4830  40.4837
    45.1986  45.1988  45.6950  45.6968  47.7008  47.7019  50.6326  50.6340
    51.7473  51.7481  54.0123  54.0154

          k = 0.0476-0.1427-0.1427 (   820 PWs)   bands (ev):

    10.3352  10.3356  10.3356  10.3360  12.2917  12.2923  12.2923  12.2929
    12.5118  12.5125  12.5125  12.5132  13.1596  13.1599  13.1599  13.1602
    14.2510  14.2518  14.2518  14.2526  15.9977  15.9981  15.9982  15.9986
    23.7212  23.7216  23.7216  23.7220  31.0683  31.0686  31.0687  31.0690
    38.2600  38.2609  38.2610  38.2620  38.3060  38.3071  38.3072  38.3083
    46.6039  46.6040  46.6041  46.6041  46.8027  46.8040  46.8041  46.8054
    54.8939  54.8949  54.8951  55.1095

          k = 0.0952 0.0952 0.0952 (   814 PWs)   bands (ev):

     9.0027  10.5703  10.5703  10.5703  12.0808  12.0808  12.0808  12.5586
    12.7766  12.7766  12.7766  12.9038  12.9038  13.1772  13.1772  13.1772
    14.3438  14.3438  14.7556  14.7556  14.7556  16.6255  16.6255  16.6255
    21.7597  21.7597  21.7597  25.3875  32.5597  32.5598  32.5598  35.3196
    35.3196  35.3196  37.3008  37.3009  37.3009  37.6312  40.0543  40.0543
    44.4738  44.4738  47.8084  48.0328  48.0329  48.0329  48.1611  48.1611
    48.1611  52.4992  52.4992  52.4992

          k = 0.0952 0.0952-0.1427 (   818 PWs)   bands (ev):

     9.8281   9.8284  10.5301  10.5301  12.2734  12.2734  12.5866  12.5874
    12.8339  12.8350  12.9376  12.9377  12.9799  12.9799  13.0446  13.0447
    14.6572  14.6574  14.6848  14.6848  14.8828  14.8830  16.8145  16.8146
    20.8290  20.8291  23.2687  23.2691  33.4367  33.4368  34.7273  34.7274
    36.2329  36.2345  37.3337  37.3344  39.0889  39.0914  39.4270  39.4270
    44.7002  44.7002  44.8991  44.9004  46.0449  46.0453  48.5295  48.5296
    49.6821  49.6826  53.1204  53.1204

          k = 0.0952-0.1427-0.1427 (   832 PWs)   bands (ev):

    10.1422  10.1423  10.1423  10.1424  12.6208  12.6210  12.6210  12.6212
    12.8536  12.8538  12.8538  12.8540  13.2667  13.2672  13.2673  13.2678
    14.5941  14.5945  14.5945  14.5949  15.5064  15.5069  15.5069  15.5074
    21.4981  21.4984  21.4984  21.4988  35.1417  35.1421  35.1422  35.1425
    38.2001  38.2007  38.2008  38.2014  39.0236  39.0241  39.0243  39.0248
    44.1462  44.1468  44.1469  44.1475  45.1695  45.1697  45.1698  45.1700
    50.5381  50.5384  50.5384  50.5386

          k =-0.1427-0.1427-0.1427 (   840 PWs)   bands (ev):

    10.0570  10.0570  10.0570  10.0570  12.7393  12.7393  12.7393  12.7394
    12.7394  12.7394  12.7394  12.7394  14.1991  14.1992  14.1992  14.1992
    14.7273  14.7273  14.7273  14.7273  14.7273  14.7273  14.7273  14.7273
    20.7067  20.7068  20.7068  20.7069  36.7759  36.7762  36.7762  36.7763
    39.6603  39.6603  39.6604  39.6605  39.6605  39.6605  39.6607  39.6607
    42.8547  42.8547  42.8547  42.8547  42.8548  42.8548  42.8549  42.8549
    48.9164  48.9164  48.9164  48.9165

          k =-0.0476 0.0000 0.0476 (   806 PWs)   bands (ev):

     6.1053  10.3687  10.3687  10.5585  11.1150  11.1255  11.1255  12.6179
    12.9906  12.9950  13.7050  13.7463  13.7464  13.7588  13.9618  14.3593
    14.4855  14.4855  14.7564  14.7564  14.8272  16.7252  16.7252  18.9737
    24.1705  25.2396  26.4478  26.4478  28.3881  28.3882  28.9885  28.9885
    30.6776  36.1247  36.1563  37.1160  37.1160  37.3642  40.2510  40.2511
    41.2022  42.7098  43.5141  45.1918  46.4488  49.9673  50.3982  53.2939
    53.6676  55.3341  55.3341  56.2609

          k =-0.0476-0.0000 0.0952 (   822 PWs)   bands (ev):

     7.1352   9.9713  10.8851  11.0035  11.3985  11.4312  11.4726  12.3053
    12.6826  12.8518  13.0456  13.0860  13.2663  13.5874  14.0096  14.0952
    14.1652  14.2515  14.2807  14.7535  14.7627  15.1530  18.3642  20.7958
    22.2892  24.8487  25.6666  26.6797  27.5382  29.7279  29.9760  30.0377
    31.1256  33.8159  34.5225  37.7387  38.6863  40.3555  40.5307  40.8844
    41.1357  44.1390  45.2548  47.1443  47.7244  48.5913  49.8977  51.2771
    52.9160  53.1861  55.0849  56.5202

          k =-0.0952 0.0000 0.0952 (   824 PWs)   bands (ev):

     8.0854  10.6096  10.6096  11.3672  11.4492  11.6872  11.6872  12.2073
    12.3538  12.3538  12.5274  12.9251  13.4104  13.4838  13.7821  13.9212
    13.9212  14.2848  14.2848  14.4748  14.5518  16.2955  16.2955  19.6168
    22.3382  25.3695  26.9553  26.9554  28.0090  28.0091  31.1295  31.7428
    31.7428  31.8167  33.6690  36.8886  41.4767  41.8795  41.8795  43.1283
    43.3070  43.8289  43.8290  47.3272  47.3825  48.5427  48.5427  51.7554
    52.0827  52.1504  53.4502  55.2704

          k = 0.0476-0.0476 0.0476 (   820 PWs)   bands (ev):

     6.4540  10.5566  10.5566  10.5566  11.2167  11.2167  11.2167  12.5630
    13.0156  13.0157  13.4049  13.4049  13.4049  13.8742  13.8742  14.1662
    14.1662  14.1662  14.8276  14.8276  14.8276  17.3791  17.3791  17.3791
    25.4678  25.4680  25.4680  26.7773  26.7774  26.7774  31.2041  31.2041
    31.2043  33.5627  36.2781  36.2781  36.2783  39.1083  41.2072  41.2074
    42.9133  42.9135  42.9136  46.5190  47.6241  47.6244  51.8336  51.8338
    55.1997  55.1998  55.1999  55.5357

          k = 0.0476-0.0476 0.0952 (   819 PWs)   bands (ev):

     7.4514  10.1701  11.0163  11.0164  11.4582  11.4582  11.5141  12.3156
    12.6840  12.6840  12.8495  13.0472  13.1373  13.7789  13.8133  13.8760
    13.8760  14.1498  14.7155  14.7452  14.7452  15.4361  18.7077  18.7078
    22.9271  22.9272  26.7750  27.4043  27.4044  30.4452  30.4453  30.8724
    31.0480  32.7093  36.7364  37.6954  37.9431  38.8369  38.8371  42.3843
    43.6013  44.5027  47.0829  47.0831  47.9440  49.0464  50.2096  50.2097
    50.7244  52.9662  53.0565  55.7971

          k =-0.0952 0.0476 0.0476 (   819 PWs)   bands (ev):

     7.4514  10.1701  11.0163  11.0164  11.4582  11.4582  11.5141  12.3156
    12.6840  12.6840  12.8495  13.0472  13.1374  13.7790  13.8133  13.8760
    13.8760  14.1498  14.7155  14.7452  14.7452  15.4361  18.7077  18.7078
    22.9272  22.9272  26.7747  27.4044  27.4044  30.4451  30.4451  30.8724
    31.0481  32.7095  36.7366  37.6955  37.9433  38.8369  38.8370  42.3842
    43.6011  44.5024  47.0831  47.0832  47.9438  49.0465  50.2097  50.2097
    50.7243  52.9663  53.0567  55.7973

          k = 0.0476-0.0476-0.1427 (   828 PWs)   bands (ev):

     8.8932   8.8942  11.4441  11.4441  11.5116  11.5116  11.9238  11.9253
    12.3015  12.3015  12.8289  12.8306  13.4007  13.4011  13.6851  13.6851
    14.3011  14.3022  14.4649  14.4650  14.6975  14.6975  19.7871  19.7871
    21.4595  21.4596  28.3345  28.3346  28.6002  28.6007  29.0537  29.0539
    35.0205  35.0220  35.4007  35.4039  38.1865  38.1897  42.1996  42.1999
    44.8594  44.8612  45.3773  45.3775  49.4173  49.4197  50.8710  50.8718
    52.2372  52.2375  53.9023  53.9025

          k = 0.0952-0.0476 0.0952 (   822 PWs)   bands (ev):

     8.3375  10.6182  10.6182  11.1303  11.6242  11.7651  11.7651  12.2917
    12.4978  12.4978  12.6227  12.9366  13.0861  13.5399  13.5399  13.5421
    13.9032  14.4641  14.6129  14.6129  14.6297  16.3743  16.3743  18.9072
    21.1570  24.1314  24.1314  28.1180  28.1929  31.2110  31.2110  32.2261
    32.2261  34.0845  35.2805  36.9487  39.3545  39.3545  40.0901  43.1679
    43.7467  44.7455  46.4741  46.4741  49.2694  49.2694  50.3661  50.5982
    50.9188  51.7118  52.3916  52.8713

          k =-0.0952 0.0476 0.0952 (   822 PWs)   bands (ev):

     8.3375  10.6182  10.6182  11.1303  11.6242  11.7651  11.7652  12.2917
    12.4978  12.4978  12.6227  12.9367  13.0861  13.5399  13.5399  13.5421
    13.9032  14.4641  14.6129  14.6129  14.6297  16.3742  16.3743  18.9073
    21.1571  24.1312  24.1314  28.1180  28.1928  31.2109  31.2111  32.2261
    32.2262  34.0843  35.2807  36.9485  39.3546  39.3548  40.0900  43.1677
    43.7466  44.7454  46.4742  46.4742  49.2694  49.2695  50.3660  50.5979
    50.9190  51.7115  52.3918  52.8713

          k = 0.0952-0.0476-0.1427 (   810 PWs)   bands (ev):

     9.5582   9.5588  10.9817  10.9820  11.8850  11.8851  12.1245  12.1257
    12.4779  12.4785  12.6652  12.6664  13.2153  13.2156  13.3965  13.3967
    14.2221  14.2227  14.5206  14.5211  15.0703  15.0705  17.6094  17.6102
    22.1293  22.1299  25.8756  25.8760  29.5484  29.5489  33.1095  33.1097
    33.3353  33.3358  36.9299  36.9334  40.1351  40.1358  40.4829  40.4836
    45.1985  45.1988  45.6950  45.6968  47.7009  47.7020  50.6327  50.6342
    51.7475  51.7483  54.0123  54.0153

          k = 0.0952-0.0952 0.0952 (   814 PWs)   bands (ev):

     9.0027  10.5703  10.5703  10.5703  12.0808  12.0808  12.0808  12.5586
    12.7766  12.7766  12.7766  12.9037  12.9038  13.1772  13.1772  13.1772
    14.3438  14.3439  14.7556  14.7556  14.7556  16.6255  16.6255  16.6256
    21.7596  21.7597  21.7597  25.3877  32.5599  32.5599  32.5600  35.3194
    35.3195  35.3197  37.3007  37.3007  37.3009  37.6311  40.0540  40.0542
    44.4736  44.4737  47.8083  48.0329  48.0329  48.0331  48.1610  48.1611
    48.1613  52.4994  52.4996  52.4996

          k = 0.0952-0.0952-0.1427 (   818 PWs)   bands (ev):

     9.8281   9.8284  10.5301  10.5301  12.2734  12.2735  12.5866  12.5874
    12.8339  12.8350  12.9376  12.9376  12.9799  12.9799  13.0446  13.0446
    14.6572  14.6574  14.6848  14.6848  14.8828  14.8830  16.8145  16.8146
    20.8289  20.8291  23.2688  23.2692  33.4368  33.4369  34.7274  34.7275
    36.2328  36.2344  37.3335  37.3342  39.0889  39.0913  39.4268  39.4271
    44.7001  44.7003  44.8992  44.9004  46.0448  46.0452  48.5297  48.5298
    49.6821  49.6826  53.1205  53.1206

     the Fermi energy is    14.5002 ev

!    total energy              =    -343.62961624 Ry
     Harris-Foulkes estimate   =    -343.62961623 Ry
     estimated scf accuracy    <          2.0E-13 Ry

     The total energy is the sum of the following terms:

     one-electron contribution =      -6.33327267 Ry
     hartree contribution      =      60.33500012 Ry
     xc contribution           =    -120.51581292 Ry
     ewald contribution        =    -277.06708678 Ry
     Dispersion Correction     =      -0.04786744 Ry
     smearing contrib. (-TS)   =      -0.00057655 Ry

     total magnetization       =     2.84 Bohr mag/cell
     absolute magnetization    =     3.25 Bohr mag/cell

     convergence has been achieved in  11 iterations

     Forces acting on atoms (Ry/au):

     atom    1 type  1   force =    -0.00011015   -0.00011015    0.00011008
     atom    2 type  1   force =     0.00011022    0.00011022    0.00011022
     atom    3 type  1   force =    -0.00011015    0.00011008   -0.00011015
     atom    4 type  1   force =     0.00011008   -0.00011015   -0.00011015

     Total force =     0.000382     Total SCF correction =     0.000003


     entering subroutine stress ...

          total   stress  (Ry/bohr**3)                   (kbar)     P=    0.79
   0.00000538  -0.00000004  -0.00000004          0.79     -0.01     -0.01
  -0.00000004   0.00000538  -0.00000004         -0.01      0.79     -0.01
  -0.00000004  -0.00000004   0.00000538         -0.01     -0.01      0.79


     number of scf cycles    =   4
     number of bfgs steps    =   3

     enthalpy old            =    -343.6295691006 Ry
     enthalpy new            =    -343.6296162423 Ry

     CASE: enthalpy_new < enthalpy_old

     new trust radius        =       0.0005645322 bohr
     new conv_thr            =            1.0E-10 Ry

     new unit-cell volume =    290.10901 a.u.^3 (    42.98972 Ang^3 )

CELL_PARAMETERS (alat=  1.88972590)
   3.503119248   0.000004259   0.000004259
   0.000004259   3.503119248   0.000004259
   0.000004259   0.000004259   3.503119248

ATOMIC_POSITIONS (alat)
Ni1      1.755456618   1.755456618   0.003886443
Ni1      0.003881086   0.003881086   0.003881086
Ni1      1.755456618   0.003886443   1.755456618
Ni1      0.003886443   1.755456618   1.755456618



     Writing output data file Ni-ferromag.save
     NEW-OLD atomic charge density approx. for the potential

     Check: negative/imaginary core charge=   -0.000005    0.000000
     extrapolated charge   40.01448, renormalised to   40.00000

     total cpu time spent up to now is      915.0 secs

     Self-consistent Calculation

     iteration #  1     ecut=    30.00 Ry     beta=0.20
     Davidson diagonalization with overlap
     ethr =  1.00E-06,  avg # of iterations =  2.0

     total cpu time spent up to now is      936.9 secs

     total energy              =    -343.62956860 Ry
     Harris-Foulkes estimate   =    -343.61439008 Ry
     estimated scf accuracy    <       0.00006733 Ry

     total magnetization       =     2.84 Bohr mag/cell
     absolute magnetization    =     3.26 Bohr mag/cell

     iteration #  2     ecut=    30.00 Ry     beta=0.20
     Davidson diagonalization with overlap
     ethr =  1.68E-07,  avg # of iterations =  1.5

     total cpu time spent up to now is      951.6 secs

     total energy              =    -343.62961165 Ry
     Harris-Foulkes estimate   =    -343.62961681 Ry
     estimated scf accuracy    <       0.00002678 Ry

     total magnetization       =     2.83 Bohr mag/cell
     absolute magnetization    =     3.25 Bohr mag/cell

     iteration #  3     ecut=    30.00 Ry     beta=0.20
     Davidson diagonalization with overlap
     ethr =  6.69E-08,  avg # of iterations =  1.0

     total cpu time spent up to now is      965.9 secs

     total energy              =    -343.62960671 Ry
     Harris-Foulkes estimate   =    -343.62961252 Ry
     estimated scf accuracy    <       0.00000922 Ry

     total magnetization       =     2.84 Bohr mag/cell
     absolute magnetization    =     3.25 Bohr mag/cell

     iteration #  4     ecut=    30.00 Ry     beta=0.20
     Davidson diagonalization with overlap
     ethr =  2.31E-08,  avg # of iterations =  1.1

     total cpu time spent up to now is      980.3 secs

     total energy              =    -343.62961140 Ry
     Harris-Foulkes estimate   =    -343.62961135 Ry
     estimated scf accuracy    <       0.00000451 Ry

     total magnetization       =     2.84 Bohr mag/cell
     absolute magnetization    =     3.25 Bohr mag/cell

     iteration #  5     ecut=    30.00 Ry     beta=0.20
     Davidson diagonalization with overlap
     ethr =  1.13E-08,  avg # of iterations =  1.0

     total cpu time spent up to now is      994.7 secs

     total energy              =    -343.62961092 Ry
     Harris-Foulkes estimate   =    -343.62961141 Ry
     estimated scf accuracy    <       0.00000471 Ry

     total magnetization       =     2.84 Bohr mag/cell
     absolute magnetization    =     3.25 Bohr mag/cell

     iteration #  6     ecut=    30.00 Ry     beta=0.20
     Davidson diagonalization with overlap
     ethr =  1.13E-08,  avg # of iterations =  1.0

     total cpu time spent up to now is     1009.0 secs

     total energy              =    -343.62961004 Ry
     Harris-Foulkes estimate   =    -343.62961096 Ry
     estimated scf accuracy    <       0.00000291 Ry

     total magnetization       =     2.84 Bohr mag/cell
     absolute magnetization    =     3.25 Bohr mag/cell

     iteration #  7     ecut=    30.00 Ry     beta=0.20
     Davidson diagonalization with overlap
     ethr =  7.26E-09,  avg # of iterations =  1.0

     total cpu time spent up to now is     1023.3 secs

     total energy              =    -343.62961027 Ry
     Harris-Foulkes estimate   =    -343.62961030 Ry
     estimated scf accuracy    <       0.00000023 Ry

     total magnetization       =     2.84 Bohr mag/cell
     absolute magnetization    =     3.25 Bohr mag/cell

     iteration #  8     ecut=    30.00 Ry     beta=0.20
     Davidson diagonalization with overlap
     ethr =  5.76E-10,  avg # of iterations =  1.0

     total cpu time spent up to now is     1037.6 secs

     total energy              =    -343.62961027 Ry
     Harris-Foulkes estimate   =    -343.62961027 Ry
     estimated scf accuracy    <       0.00000011 Ry

     total magnetization       =     2.84 Bohr mag/cell
     absolute magnetization    =     3.25 Bohr mag/cell

     iteration #  9     ecut=    30.00 Ry     beta=0.20
     Davidson diagonalization with overlap
     ethr =  2.78E-10,  avg # of iterations =  1.0

     total cpu time spent up to now is     1051.9 secs

     total energy              =    -343.62961025 Ry
     Harris-Foulkes estimate   =    -343.62961027 Ry
     estimated scf accuracy    <       0.00000011 Ry

     total magnetization       =     2.84 Bohr mag/cell
     absolute magnetization    =     3.25 Bohr mag/cell

     iteration # 10     ecut=    30.00 Ry     beta=0.20
     Davidson diagonalization with overlap
     ethr =  2.73E-10,  avg # of iterations =  1.0

     total cpu time spent up to now is     1066.2 secs

     total energy              =    -343.62961024 Ry
     Harris-Foulkes estimate   =    -343.62961026 Ry
     estimated scf accuracy    <       0.00000005 Ry

     total magnetization       =     2.84 Bohr mag/cell
     absolute magnetization    =     3.25 Bohr mag/cell

     iteration # 11     ecut=    30.00 Ry     beta=0.20
     Davidson diagonalization with overlap
     ethr =  1.26E-10,  avg # of iterations =  1.0

     Magnetic moment per site:
     atom:    1    charge:    3.0048    magn:    0.3349    constr:    0.0000
     atom:    2    charge:    3.0030    magn:    0.3347    constr:    0.0000
     atom:    3    charge:    3.0048    magn:    0.3349    constr:    0.0000
     atom:    4    charge:    3.0048    magn:    0.3349    constr:    0.0000

     total cpu time spent up to now is     1080.5 secs

     End of self-consistent calculation

 ------ SPIN UP ------------


          k = 0.0000 0.0000 0.0000 (   799 PWs)   bands (ev):

     5.4304   9.7152   9.7153   9.7153  10.1685  10.1685  10.1685  11.9472
    11.9472  11.9472  13.1259  13.1259  13.8437  13.8437  13.8437  13.9337
    13.9337  13.9337  13.9337  13.9337  13.9337  17.0711  17.0711  17.0711
    23.8120  23.8120  23.8120  29.5674  29.5674  29.5674  29.5675  29.5675
    29.5675  34.6537  34.6537  34.6537  37.9938  37.9939  37.9939  38.4957
    42.4716  42.4718  42.4718  46.0814  46.0816  46.0816  48.1760  55.1693
    55.1693  55.1693  57.8186  59.2022

          k =-0.0000-0.0000 0.0476 (   807 PWs)   bands (ev):

     5.7966   9.7372   9.8994   9.8994  10.2789  10.2948  10.2948  11.8185
    12.0495  12.0496  13.0080  13.1726  13.2796  13.2796  13.6903  13.6903
    13.7577  13.7577  13.7942  13.9340  13.9340  15.4705  18.0300  18.0300
    23.9081  23.9081  26.0615  27.8169  27.8169  28.4443  28.4443  30.1278
    30.1279  34.7695  36.8253  36.8253  37.8622  38.1254  39.9512  39.9513
    40.2525  40.2526  40.9173  47.4989  48.1331  48.1332  49.1501  51.5661
    56.2662  56.2663  56.6751  56.6751

          k =-0.0000-0.0000 0.0952 (   820 PWs)   bands (ev):

     6.8459   9.5076  10.3363  10.3363  10.5866  10.6778  10.6778  11.4744
    12.2237  12.2237  12.3462  12.3462  12.7201  13.3012  13.3066  13.3117
    13.3118  13.3190  13.3190  13.6600  13.9345  13.9345  19.9928  19.9928
    24.2252  24.2252  25.0437  25.0437  26.6767  26.6767  30.3617  31.7077
    31.7078  35.1331  36.7316  37.0314  37.0315  38.3512  38.6766  40.8680
    40.8680  44.1152  44.1153  44.1469  50.9314  51.0501  51.0501  51.0531
    51.0531  55.0414  55.9823  55.9823

          k = 0.0000 0.0000-0.1427 (   820 PWs)   bands (ev):

     8.3453   8.3454  10.6123  10.6123  11.0214  11.0214  11.3243  11.3243
    11.3243  11.3243  12.5429  12.5430  12.7982  12.7982  12.7983  12.7983
    13.0632  13.0632  13.4792  13.4792  13.9348  13.9348  22.3788  22.3788
    22.3789  22.3789  24.5984  24.5985  25.7314  25.7314  34.0864  34.0865
    34.0865  34.0866  34.9122  34.9123  35.7793  35.7793  40.2694  40.2696
    45.6676  45.6676  45.6678  45.6678  47.6191  47.6191  52.3106  52.3106
    54.1762  54.1762  54.1764  54.1764

          k =-0.0000 0.0476 0.0476 (   806 PWs)   bands (ev):

     6.1542   9.9356   9.9356  10.0625  10.3963  10.3963  10.4101  11.7585
    12.0946  12.1116  12.9335  12.9834  12.9918  12.9918  13.1678  13.5616
    13.6861  13.6861  13.7565  13.7565  13.8179  16.4029  16.4029  18.7999
    23.9020  25.0995  26.2487  26.2488  28.2949  28.2949  28.9366  28.9366
    30.6558  36.0403  36.1220  37.0335  37.0335  37.3345  40.1184  40.1185
    41.2711  42.6075  43.5321  45.2351  46.3736  49.7915  50.4588  53.1093
    53.6827  55.3578  55.3578  56.3056

          k =-0.0000 0.0476 0.0952 (   822 PWs)   bands (ev):

     7.1757   9.7436  10.4175  10.4662  10.6780  10.7311  10.7503  11.4775
    11.9852  12.1249  12.2404  12.3578  12.3831  12.8164  13.2378  13.3164
    13.3232  13.3468  13.4991  13.7531  13.7592  14.4365  18.0173  20.5830
    22.0816  24.6101  25.5051  26.5351  27.4015  29.6088  29.9040  29.9562
    31.0165  33.7265  34.4683  37.6848  38.6360  40.3922  40.5712  40.7496
    41.1236  44.0417  45.0335  47.0622  47.7887  48.5946  49.8989  51.3377
    52.9457  53.2623  54.8498  56.2531

          k = 0.0000 0.0476-0.1427 (   826 PWs)   bands (ev):

     8.6268   8.6268  10.7648  10.7648  11.0731  11.0732  11.1919  11.1919
    11.3388  11.3388  12.1696  12.1696  12.7990  12.7991  13.0284  13.0284
    13.0482  13.0482  13.6626  13.6627  13.7507  13.7507  19.8860  19.8861
    22.8782  22.8783  25.4135  25.4136  28.3105  28.3106  31.4992  31.4993
    32.0217  32.0218  35.8312  35.8313  38.8321  38.8322  42.2138  42.2140
    43.1169  43.1171  45.9437  45.9439  50.0862  50.0864  50.3582  50.3584
    52.6160  52.6162  53.2254  53.2255

          k =-0.0000 0.0952 0.0952 (   824 PWs)   bands (ev):

     8.1023  10.3311  10.3311  10.6975  10.9460  10.9460  10.9595  11.4076
    11.6547  11.6547  11.8092  12.1277  12.4887  12.7302  13.0218  13.1770
    13.1770  13.3171  13.3171  13.4871  13.7023  15.6824  15.6824  19.3005
    22.1098  25.1605  26.7784  26.7784  27.8973  27.8973  30.9876  31.6425
    31.6425  31.7379  33.6048  36.8411  41.5281  41.8850  41.8850  43.0800
    43.4125  43.7720  43.7721  47.1900  47.3389  48.4824  48.4824  51.6796
    52.1812  52.1919  53.2303  55.3528

          k = 0.0000 0.0952-0.1427 (   814 PWs)   bands (ev):

     9.3694   9.3694  10.8020  10.8020  11.2003  11.2003  11.2077  11.2078
    11.3574  11.3575  11.8638  11.8638  12.8357  12.8357  12.8365  12.8366
    12.9025  12.9025  13.3520  13.3520  14.3637  14.3638  17.2138  17.2138
    24.2346  24.2346  26.2284  26.2285  28.6546  28.6546  29.5393  29.5394
    32.9509  32.9510  36.7931  36.7933  40.3669  40.3670  43.0531  43.0532
    43.2177  43.2177  46.7436  46.7438  47.9298  47.9299  50.4323  50.4324
    51.7720  51.7722  53.5655  53.5656

          k = 0.0000-0.1427-0.1427 (   840 PWs)   bands (ev):

    10.2227  10.2227  10.2227  10.2228  11.3194  11.3195  11.3195  11.3195
    11.6286  11.6286  11.6286  11.6286  12.6896  12.6896  12.6897  12.6897
    13.0037  13.0037  13.0037  13.0038  15.4339  15.4339  15.4339  15.4339
    26.2093  26.2094  26.2094  26.2094  27.5799  27.5799  27.5800  27.5800
    37.8952  37.8952  37.8953  37.8953  38.5013  38.5014  38.5014  38.5015
    47.1793  47.1793  47.1794  47.1794  49.1963  49.1964  49.1965  49.1965
    51.8214  51.8214  51.8215  51.8215

          k = 0.0476 0.0476 0.0476 (   820 PWs)   bands (ev):

     6.4999  10.0965  10.0965  10.0965  10.5107  10.5107  10.5107  11.7236
    12.1312  12.1312  12.6879  12.6879  12.6879  13.0811  13.0811  13.3282
    13.3282  13.3282  13.8721  13.8721  13.8721  17.0301  17.0301  17.0301
    25.3266  25.3267  25.3267  26.5933  26.5933  26.5933  31.1713  31.1713
    31.1713  33.4847  36.1711  36.1712  36.1712  39.2533  41.1415  41.1415
    42.8145  42.8146  42.8146  46.5931  47.6534  47.6534  51.6490  51.6490
    55.1820  55.2312  55.2312  55.2312

          k = 0.0476 0.0476 0.0952 (   819 PWs)   bands (ev):

     7.4814   9.9023  10.4795  10.4795  10.7963  10.8243  10.8244  11.5141
    11.9756  11.9756  12.1709  12.2104  12.2706  12.9260  12.9967  13.0824
    13.0824  13.3206  13.7748  13.7748  13.8070  14.7983  18.3725  18.3725
    22.7074  22.7074  26.6205  27.2447  27.2447  30.3592  30.3592  30.7472
    30.9496  32.6514  36.6498  37.7790  37.8533  38.7942  38.7943  42.3635
    43.5059  44.4711  47.0237  47.0237  47.8870  49.0869  50.2060  50.2060
    50.7022  53.0225  53.0814  55.6637

          k = 0.0476 0.0476-0.1427 (   828 PWs)   bands (ev):

     8.8539   8.8539  10.8667  10.8667  10.9247  10.9247  11.1680  11.1680
    11.5817  11.5817  12.0738  12.0739  12.5438  12.5438  12.9147  12.9147
    13.4900  13.4900  13.5966  13.5966  13.7187  13.7187  19.5214  19.5214
    21.1462  21.1462  28.2095  28.2096  28.4478  28.4479  28.9275  28.9275
    34.9398  34.9399  35.4183  35.4185  38.0978  38.0979  42.2055  42.2055
    44.7580  44.7581  45.3748  45.3748  49.4839  49.4841  50.9027  50.9028
    52.1876  52.1876  53.7066  53.7066

          k = 0.0476 0.0952 0.0952 (   822 PWs)   bands (ev):

     8.3203  10.2202  10.2202  10.5065  11.1117  11.1577  11.1577  11.5591
    11.7717  11.7717  11.9049  12.1297  12.2556  12.7339  12.7339  12.7503
    13.0531  13.6080  13.6774  13.6926  13.6926  15.8131  15.8131  18.6244
    20.8038  23.9045  23.9045  27.9454  28.0543  31.1366  31.1367  32.1216
    32.1216  34.0178  35.2438  36.9115  39.3273  39.3274  40.1546  43.0394
    43.7419  44.7866  46.4659  46.4659  49.1990  49.1990  50.4199  50.5996
    50.9276  51.6226  52.3105  52.9295

          k = 0.0476 0.0952-0.1427 (   810 PWs)   bands (ev):

     9.4038   9.4038  10.4415  10.4415  11.3252  11.3252  11.4732  11.4733
    11.7785  11.7785  11.8994  11.8994  12.4049  12.4049  12.6156  12.6157
    13.3503  13.3503  13.5780  13.5780  14.2700  14.2700  17.1907  17.1907
    21.8199  21.8199  25.6655  25.6656  29.4372  29.4373  33.0417  33.0417
    33.2547  33.2548  36.9066  36.9067  40.1387  40.1387  40.4477  40.4477
    45.1978  45.1978  45.6903  45.6904  47.7060  47.7062  50.5796  50.5797
    51.7936  51.7937  53.9182  53.9194

          k = 0.0476-0.1427-0.1427 (   820 PWs)   bands (ev):

     9.9734   9.9734   9.9735   9.9735  11.7163  11.7164  11.7164  11.7164
    11.8031  11.8032  11.8032  11.8032  12.3764  12.3764  12.3764  12.3764
    13.3329  13.3329  13.3329  13.3329  15.3448  15.3448  15.3448  15.3448
    23.4540  23.4541  23.4541  23.4541  30.9749  30.9750  30.9750  30.9750
    38.1756  38.1756  38.1757  38.1757  38.3445  38.3446  38.3446  38.3447
    46.6589  46.6589  46.6589  46.6589  46.7638  46.7638  46.7639  46.7640
    54.8134  54.8135  54.8136  54.8137

          k = 0.0952 0.0952 0.0952 (   814 PWs)   bands (ev):

     8.8644  10.0554  10.0554  10.0554  11.5162  11.5162  11.5162  12.0298
    12.0909  12.0909  12.0909  12.0966  12.0966  12.3798  12.3798  12.3798
    13.4559  13.4559  13.8208  13.8208  13.8208  16.1912  16.1913  16.1913
    21.4115  21.4115  21.4115  25.1520  32.5024  32.5024  32.5024  35.2458
    35.2458  35.2458  37.2760  37.2760  37.2760  37.7922  39.9544  39.9544
    44.4508  44.4508  47.7784  48.0704  48.0705  48.0705  48.1452  48.1452
    48.1452  52.4518  52.4519  52.4519

          k = 0.0952 0.0952-0.1427 (   818 PWs)   bands (ev):

     9.4908   9.4908   9.9868   9.9868  11.6360  11.6361  11.9226  11.9226
    12.1393  12.1393  12.2596  12.2596  12.2739  12.2739  12.3740  12.3740
    13.7413  13.7413  13.7492  13.7492  14.1599  14.1599  16.4753  16.4753
    20.3824  20.3825  22.9696  22.9697  33.4183  33.4183  34.6287  34.6287
    36.3322  36.3323  37.2487  37.2487  38.9962  38.9963  39.4400  39.4400
    44.6597  44.6597  44.9090  44.9092  46.0226  46.0227  48.5556  48.5556
    49.6132  49.6133  52.9956  52.9957

          k = 0.0952-0.1427-0.1427 (   832 PWs)   bands (ev):

     9.6665   9.6666   9.6666   9.6666  11.8821  11.8821  11.8821  11.8821
    12.0718  12.0718  12.0718  12.0718  12.8208  12.8209  12.8209  12.8209
    13.6693  13.6693  13.6693  13.6693  14.9679  14.9679  14.9679  14.9679
    21.0960  21.0961  21.0961  21.0961  35.1571  35.1572  35.1572  35.1572
    38.2195  38.2195  38.2196  38.2196  38.9415  38.9416  38.9416  38.9417
    44.1009  44.1009  44.1010  44.1010  45.1633  45.1633  45.1633  45.1634
    50.4317  50.4317  50.4317  50.4318

          k =-0.1427-0.1427-0.1427 (   840 PWs)   bands (ev):

     9.5506   9.5506   9.5506   9.5506  11.9603  11.9603  11.9603  11.9603
    11.9603  11.9603  11.9603  11.9603  13.7968  13.7968  13.7968  13.7968
    13.7968  13.7968  13.7968  13.7968  14.2921  14.2921  14.2921  14.2921
    20.2149  20.2149  20.2149  20.2149  36.9504  36.9505  36.9505  36.9506
    39.5766  39.5766  39.5766  39.5767  39.5767  39.5767  39.5768  39.5768
    42.8109  42.8110  42.8110  42.8110  42.8110  42.8110  42.8111  42.8111
    48.7858  48.7858  48.7858  48.7859

          k =-0.0476 0.0000 0.0476 (   806 PWs)   bands (ev):

     6.1542   9.9356   9.9356  10.0626  10.3963  10.3963  10.4101  11.7585
    12.0946  12.1116  12.9335  12.9834  12.9918  12.9918  13.1678  13.5616
    13.6861  13.6861  13.7565  13.7565  13.8179  16.4029  16.4029  18.7999
    23.9020  25.0996  26.2488  26.2488  28.2948  28.2949  28.9366  28.9366
    30.6557  36.0402  36.1220  37.0335  37.0335  37.3346  40.1184  40.1185
    41.2710  42.6076  43.5320  45.2350  46.3735  49.7914  50.4589  53.1093
    53.6827  55.3579  55.3579  56.3055

          k =-0.0476-0.0000 0.0952 (   822 PWs)   bands (ev):

     7.1758   9.7436  10.4175  10.4662  10.6780  10.7311  10.7503  11.4775
    11.9852  12.1249  12.2404  12.3578  12.3831  12.8163  13.2378  13.3164
    13.3232  13.3468  13.4992  13.7531  13.7592  14.4365  18.0173  20.5830
    22.0817  24.6102  25.5051  26.5351  27.4015  29.6087  29.9040  29.9561
    31.0165  33.7266  34.4684  37.6849  38.6359  40.3921  40.5712  40.7496
    41.1236  44.0418  45.0334  47.0623  47.7886  48.5945  49.8990  51.3377
    52.9458  53.2624  54.8497  56.2531

          k =-0.0952 0.0000 0.0952 (   824 PWs)   bands (ev):

     8.1023  10.3311  10.3311  10.6975  10.9460  10.9460  10.9596  11.4076
    11.6547  11.6547  11.8092  12.1277  12.4887  12.7302  13.0218  13.1770
    13.1770  13.3171  13.3171  13.4871  13.7023  15.6824  15.6824  19.3006
    22.1098  25.1605  26.7784  26.7784  27.8973  27.8973  30.9876  31.6425
    31.6425  31.7380  33.6047  36.8410  41.5280  41.8851  41.8851  43.0799
    43.4124  43.7721  43.7722  47.1899  47.3388  48.4825  48.4825  51.6798
    52.1811  52.1919  53.2303  55.3529

          k = 0.0476-0.0476 0.0476 (   820 PWs)   bands (ev):

     6.4999  10.0965  10.0965  10.0965  10.5107  10.5107  10.5107  11.7236
    12.1312  12.1312  12.6879  12.6879  12.6879  13.0811  13.0811  13.3282
    13.3282  13.3282  13.8721  13.8721  13.8721  17.0301  17.0301  17.0301
    25.3266  25.3267  25.3267  26.5933  26.5933  26.5933  31.1712  31.1712
    31.1713  33.4849  36.1710  36.1711  36.1712  39.2532  41.1413  41.1414
    42.8146  42.8147  42.8147  46.5931  47.6533  47.6534  51.6489  51.6490
    55.1820  55.2312  55.2312  55.2313

          k = 0.0476-0.0476 0.0952 (   819 PWs)   bands (ev):

     7.4814   9.9023  10.4795  10.4796  10.7963  10.8243  10.8244  11.5141
    11.9756  11.9756  12.1709  12.2105  12.2706  12.9260  12.9967  13.0823
    13.0824  13.3206  13.7748  13.7748  13.8070  14.7983  18.3725  18.3725
    22.7074  22.7075  26.6205  27.2448  27.2448  30.3591  30.3592  30.7473
    30.9496  32.6513  36.6497  37.7789  37.8531  38.7941  38.7943  42.3635
    43.5061  44.4711  47.0237  47.0238  47.8870  49.0868  50.2060  50.2061
    50.7022  53.0226  53.0814  55.6636

          k =-0.0952 0.0476 0.0476 (   819 PWs)   bands (ev):

     7.4814   9.9023  10.4795  10.4795  10.7963  10.8244  10.8244  11.5141
    11.9756  11.9756  12.1709  12.2104  12.2707  12.9260  12.9966  13.0823
    13.0823  13.3206  13.7748  13.7748  13.8070  14.7982  18.3725  18.3725
    22.7075  22.7075  26.6204  27.2448  27.2448  30.3591  30.3591  30.7473
    30.9497  32.6514  36.6498  37.7789  37.8532  38.7942  38.7942  42.3635
    43.5060  44.4709  47.0238  47.0239  47.8868  49.0868  50.2061  50.2061
    50.7022  53.0226  53.0815  55.6637

          k = 0.0476-0.0476-0.1427 (   828 PWs)   bands (ev):

     8.8539   8.8539  10.8667  10.8667  10.9247  10.9247  11.1680  11.1680
    11.5817  11.5817  12.0738  12.0739  12.5438  12.5438  12.9147  12.9147
    13.4900  13.4900  13.5966  13.5966  13.7187  13.7187  19.5213  19.5214
    21.1461  21.1462  28.2095  28.2096  28.4479  28.4479  28.9275  28.9276
    34.9397  34.9398  35.4183  35.4185  38.0978  38.0979  42.2054  42.2056
    44.7582  44.7582  45.3747  45.3748  49.4840  49.4841  50.9027  50.9027
    52.1875  52.1877  53.7066  53.7067

          k = 0.0952-0.0476 0.0952 (   822 PWs)   bands (ev):

     8.3203  10.2202  10.2202  10.5065  11.1117  11.1577  11.1577  11.5591
    11.7717  11.7717  11.9049  12.1297  12.2556  12.7339  12.7339  12.7503
    13.0531  13.6080  13.6774  13.6926  13.6926  15.8131  15.8131  18.6243
    20.8037  23.9045  23.9046  27.9456  28.0544  31.1366  31.1366  32.1216
    32.1216  34.0178  35.2436  36.9115  39.3272  39.3272  40.1546  43.0393
    43.7418  44.7866  46.4659  46.4660  49.1991  49.1992  50.4200  50.5997
    50.9275  51.6227  52.3105  52.9296

          k =-0.0952 0.0476 0.0952 (   822 PWs)   bands (ev):

     8.3203  10.2202  10.2202  10.5065  11.1117  11.1577  11.1577  11.5591
    11.7717  11.7717  11.9049  12.1297  12.2556  12.7339  12.7339  12.7503
    13.0531  13.6080  13.6774  13.6926  13.6926  15.8131  15.8131  18.6244
    20.8038  23.9045  23.9046  27.9456  28.0544  31.1366  31.1367  32.1216
    32.1216  34.0177  35.2437  36.9114  39.3273  39.3274  40.1545  43.0393
    43.7418  44.7866  46.4660  46.4660  49.1991  49.1992  50.4200  50.5995
    50.9276  51.6225  52.3106  52.9296

          k = 0.0952-0.0476-0.1427 (   810 PWs)   bands (ev):

     9.4038   9.4038  10.4415  10.4415  11.3252  11.3252  11.4732  11.4733
    11.7785  11.7785  11.8994  11.8994  12.4049  12.4049  12.6156  12.6157
    13.3503  13.3503  13.5779  13.5780  14.2700  14.2700  17.1907  17.1907
    21.8198  21.8199  25.6656  25.6656  29.4373  29.4373  33.0416  33.0417
    33.2547  33.2548  36.9066  36.9067  40.1386  40.1388  40.4475  40.4476
    45.1977  45.1978  45.6903  45.6904  47.7062  47.7062  50.5797  50.5798
    51.7937  51.7938  53.9185  53.9193

          k = 0.0952-0.0952 0.0952 (   814 PWs)   bands (ev):

     8.8644  10.0554  10.0554  10.0554  11.5162  11.5162  11.5162  12.0298
    12.0909  12.0909  12.0909  12.0965  12.0966  12.3798  12.3798  12.3798
    13.4559  13.4559  13.8208  13.8208  13.8208  16.1912  16.1912  16.1913
    21.4115  21.4115  21.4115  25.1521  32.5024  32.5025  32.5025  35.2457
    35.2457  35.2458  37.2759  37.2760  37.2761  37.7921  39.9542  39.9543
    44.4507  44.4507  47.7783  48.0705  48.0705  48.0706  48.1451  48.1451
    48.1453  52.4520  52.4521  52.4521

          k = 0.0952-0.0952-0.1427 (   818 PWs)   bands (ev):

     9.4908   9.4908   9.9868   9.9869  11.6361  11.6361  11.9226  11.9226
    12.1393  12.1393  12.2596  12.2596  12.2739  12.2739  12.3740  12.3740
    13.7413  13.7413  13.7492  13.7492  14.1599  14.1599  16.4753  16.4753
    20.3824  20.3824  22.9697  22.9697  33.4183  33.4184  34.6288  34.6288
    36.3322  36.3323  37.2486  37.2486  38.9962  38.9963  39.4399  39.4401
    44.6596  44.6598  44.9091  44.9091  46.0226  46.0226  48.5556  48.5557
    49.6132  49.6133  52.9957  52.9958

 ------ SPIN DOWN ----------


          k = 0.0000 0.0000 0.0000 (   799 PWs)   bands (ev):

     5.3760  10.1775  10.1775  10.1775  10.8869  10.8869  10.8869  12.8278
    12.8278  12.8278  13.9064  13.9064  14.6582  14.6582  14.6582  14.9433
    14.9433  14.9433  14.9433  14.9433  14.9433  16.9924  16.9924  16.9924
    24.1177  24.1177  24.1177  29.5537  29.5537  29.5538  29.5538  29.5539
    29.5539  34.8174  34.8174  34.8174  38.1378  38.1380  38.1380  38.2896
    42.4422  42.4424  42.4424  46.1536  46.1538  46.1538  48.0163  55.3582
    55.3583  55.3583  58.3670  59.4891

          k =-0.0000-0.0000 0.0476 (   807 PWs)   bands (ev):

     5.7421  10.1530  10.3717  10.3717  11.0062  11.0107  11.0107  12.6858
    12.9342  12.9342  13.7789  13.9553  14.0997  14.0997  14.4911  14.4912
    14.6062  14.7507  14.7507  14.9436  14.9436  15.5407  18.1369  18.1369
    24.1987  24.1987  26.2634  27.8855  27.8855  28.4717  28.4718  30.1305
    30.1306  34.9207  36.9059  36.9059  37.7229  38.2670  40.0722  40.0723
    40.2942  40.2943  40.8473  47.5192  48.1066  48.1067  49.2216  51.5568
    56.4776  56.4776  56.6016  56.6016

          k =-0.0000-0.0000 0.0952 (   820 PWs)   bands (ev):

     6.7957   9.7158  10.8331  10.8331  11.3392  11.3883  11.3883  12.3075
    12.9532  12.9532  13.2440  13.2440  13.4581  13.6774  14.0792  14.0792
    14.0897  14.2757  14.2757  14.4655  14.9442  14.9442  20.1780  20.1780
    24.4714  24.4715  25.1844  25.1844  26.7750  26.7751  30.4572  31.7447
    31.7448  35.2465  36.6963  37.1028  37.1029  38.2606  38.8232  40.8731
    40.8731  44.2149  44.2150  44.3656  50.8868  50.9548  50.9549  50.9794
    50.9794  54.9355  56.2236  56.2236

          k = 0.0000 0.0000-0.1427 (   820 PWs)   bands (ev):

     8.3389   8.3389  11.1248  11.1248  11.8121  11.8121  12.0337  12.0337
    12.0337  12.0337  13.1912  13.1913  13.7201  13.7201  13.7202  13.7202
    13.8095  13.8096  14.2761  14.2761  14.9445  14.9445  22.5604  22.5604
    22.5605  22.5605  24.7950  24.7950  25.8891  25.8891  34.1515  34.1516
    34.1516  34.1517  34.8920  34.8922  35.8301  35.8302  40.4621  40.4623
    45.6229  45.6229  45.6231  45.6231  47.6932  47.6933  52.5011  52.5011
    54.0656  54.0656  54.0657  54.0658

          k =-0.0000 0.0476 0.0476 (   806 PWs)   bands (ev):

     6.1007  10.3639  10.3639  10.5537  11.1100  11.1205  11.1205  12.6122
    12.9846  12.9890  13.6987  13.7400  13.7400  13.7523  13.9553  14.3527
    14.4787  14.4787  14.7495  14.7495  14.8202  16.7176  16.7176  18.9657
    24.1607  25.2293  26.4374  26.4375  28.3777  28.3778  28.9778  28.9778
    30.6670  36.1133  36.1441  37.1038  37.1038  37.3519  40.2367  40.2368
    41.1901  42.6952  43.5010  45.1785  46.4340  49.9503  50.3839  53.2764
    53.6528  55.3187  55.3187  56.2459

          k =-0.0000 0.0476 0.0952 (   822 PWs)   bands (ev):

     7.1303   9.9663  10.8801  10.9985  11.3932  11.4261  11.4674  12.2997
    12.6767  12.8458  13.0396  13.0800  13.2602  13.5811  14.0031  14.0886
    14.1586  14.2448  14.2741  14.7466  14.7558  15.1459  18.3561  20.7871
    22.2801  24.8383  25.6567  26.6698  27.5270  29.7171  29.9656  30.0268
    31.1140  33.8043  34.5107  37.7265  38.6739  40.3434  40.5186  40.8698
    41.1229  44.1242  45.2384  47.1289  47.7109  48.5768  49.8829  51.2627
    52.9009  53.1715  55.0683  56.5058

          k = 0.0000 0.0476-0.1427 (   826 PWs)   bands (ev):

     8.6324   8.6325  11.2683  11.2683  11.8565  11.8566  11.8688  11.8689
    12.0509  12.0509  12.9108  12.9109  13.7236  13.7237  13.7984  13.7984
    13.7986  13.7986  14.5015  14.5015  14.7451  14.7451  20.1676  20.1676
    23.0713  23.0714  25.5851  25.5852  28.4276  28.4277  31.6131  31.6131
    32.0796  32.0797  35.8562  35.8564  38.8331  38.8331  42.3670  42.3672
    43.1099  43.1100  45.8955  45.8957  50.1516  50.1518  50.2904  50.2905
    52.5322  52.5323  53.3945  53.3946

          k =-0.0000 0.0952 0.0952 (   824 PWs)   bands (ev):

     8.0802  10.6044  10.6044  11.3619  11.4440  11.6819  11.6819  12.2018
    12.3482  12.3482  12.5216  12.9192  13.4042  13.4775  13.7758  13.9147
    13.9147  14.2782  14.2782  14.4681  14.5450  16.2879  16.2879  19.6082
    22.3290  25.3591  26.9451  26.9452  27.9985  27.9986  31.1183  31.7313
    31.7313  31.8054  33.6574  36.8766  41.4644  41.8666  41.8666  43.1146
    43.2948  43.8146  43.8147  47.3113  47.3679  48.5274  48.5275  51.7392
    52.0684  52.1358  53.4341  55.2553

          k = 0.0000 0.0952-0.1427 (   814 PWs)   bands (ev):

     9.4308   9.4308  11.2217  11.2217  11.8481  11.8481  11.9634  11.9634
    12.0782  12.0782  12.6009  12.6010  13.5704  13.5704  13.6442  13.6443
    13.7704  13.7704  14.3207  14.3208  15.1701  15.1701  17.6781  17.6782
    24.4397  24.4397  26.3803  26.3804  28.8167  28.8167  29.6294  29.6295
    33.0227  33.0228  36.8206  36.8208  40.3657  40.3658  42.9986  42.9986
    43.2360  43.2361  46.6816  46.6817  48.0121  48.0122  50.3793  50.3795
    51.8930  51.8932  53.4800  53.4800

          k = 0.0000-0.1427-0.1427 (   840 PWs)   bands (ev):

    10.4421  10.4421  10.4421  10.4422  12.0575  12.0576  12.0576  12.0576
    12.2981  12.2981  12.2981  12.2981  13.4277  13.4277  13.4277  13.4277
    13.9530  13.9530  13.9531  13.9531  16.1160  16.1160  16.1161  16.1161
    26.4043  26.4043  26.4043  26.4044  27.7035  27.7036  27.7036  27.7037
    37.9694  37.9694  37.9695  37.9695  38.4672  38.4673  38.4674  38.4674
    47.0590  47.0591  47.0591  47.0592  49.1853  49.1854  49.1854  49.1855
    51.9225  51.9225  51.9226  51.9226

          k = 0.0476 0.0476 0.0476 (   820 PWs)   bands (ev):

     6.4493  10.5518  10.5518  10.5518  11.2116  11.2116  11.2116  12.5572
    13.0096  13.0096  13.3987  13.3987  13.3987  13.8677  13.8677  14.1596
    14.1596  14.1596  14.8207  14.8207  14.8207  17.3713  17.3713  17.3713
    25.4581  25.4581  25.4581  26.7667  26.7667  26.7667  31.1932  31.1933
    31.1933  33.5511  36.2659  36.2659  36.2659  39.0975  41.1940  41.1940
    42.8988  42.8989  42.8989  46.5056  47.6103  47.6103  51.8159  51.8159
    55.1844  55.1844  55.1844  55.5220

          k = 0.0476 0.0476 0.0952 (   819 PWs)   bands (ev):

     7.4464  10.1650  11.0113  11.0113  11.4530  11.4530  11.5089  12.3100
    12.6781  12.6781  12.8435  13.0412  13.1313  13.7726  13.8069  13.8696
    13.8696  14.1433  14.7086  14.7383  14.7383  15.4288  18.6995  18.6995
    22.9177  22.9177  26.7646  27.3938  27.3938  30.4342  30.4342  30.8612
    31.0370  32.6980  36.7241  37.6844  37.9304  38.8244  38.8245  42.3710
    43.5865  44.4886  47.0679  47.0680  47.9288  49.0324  50.1948  50.1948
    50.7092  52.9514  53.0413  55.7788

          k = 0.0476 0.0476-0.1427 (   828 PWs)   bands (ev):

     8.8885   8.8885  11.4389  11.4389  11.5062  11.5062  11.9191  11.9192
    12.2959  12.2959  12.8238  12.8239  13.3947  13.3947  13.6787  13.6788
    14.2950  14.2950  14.4582  14.4582  14.6907  14.6907  19.7787  19.7788
    21.4502  21.4502  28.3243  28.3243  28.5896  28.5897  29.0424  29.0424
    35.0092  35.0093  35.3912  35.3914  38.1750  38.1752  42.1867  42.1868
    44.8451  44.8452  45.3636  45.3636  49.4042  49.4044  50.8568  50.8569
    52.2210  52.2211  53.8872  53.8872

          k = 0.0476 0.0952 0.0952 (   822 PWs)   bands (ev):

     8.3323  10.6130  10.6130  11.1251  11.6189  11.7598  11.7598  12.2860
    12.4920  12.4920  12.6169  12.9307  13.0801  13.5336  13.5337  13.5358
    13.8968  14.4573  14.6061  14.6061  14.6228  16.3667  16.3667  18.8992
    21.1477  24.1215  24.1216  28.1073  28.1821  31.2003  31.2003  32.2143
    32.2143  34.0726  35.2691  36.9365  39.3420  39.3420  40.0782  43.1532
    43.7332  44.7322  46.4598  46.4598  49.2539  49.2539  50.3514  50.5830
    50.9038  51.6951  52.3759  52.8563

          k = 0.0476 0.0952-0.1427 (   810 PWs)   bands (ev):

     9.5533   9.5533  10.9766  10.9766  11.8797  11.8797  12.1195  12.1196
    12.4724  12.4724  12.6600  12.6600  13.2093  13.2093  13.3905  13.3905
    14.2158  14.2158  14.5140  14.5141  15.0633  15.0633  17.6019  17.6019
    22.1201  22.1202  25.8655  25.8656  29.5378  29.5379  33.0983  33.0984
    33.3237  33.3238  36.9195  36.9197  40.1228  40.1229  40.4702  40.4703
    45.1848  45.1849  45.6819  45.6820  47.6868  47.6870  50.6177  50.6178
    51.7328  51.7329  53.9972  54.0003

          k = 0.0476-0.1427-0.1427 (   820 PWs)   bands (ev):

    10.3304  10.3304  10.3304  10.3304  12.2867  12.2867  12.2867  12.2867
    12.5067  12.5068  12.5068  12.5068  13.1538  13.1538  13.1539  13.1539
    14.2451  14.2452  14.2452  14.2452  15.9907  15.9907  15.9907  15.9907
    23.7117  23.7118  23.7118  23.7118  31.0575  31.0576  31.0577  31.0577
    38.2479  38.2479  38.2480  38.2480  38.2952  38.2953  38.2954  38.2954
    46.5904  46.5904  46.5904  46.5905  46.7893  46.7894  46.7894  46.7895
    54.8777  54.8777  54.8779  55.0929

          k = 0.0952 0.0952 0.0952 (   814 PWs)   bands (ev):

     8.9976  10.5652  10.5652  10.5652  12.0753  12.0753  12.0753  12.5528
    12.7707  12.7707  12.7707  12.8978  12.8978  13.1711  13.1712  13.1712
    14.3372  14.3372  14.7487  14.7487  14.7487  16.6180  16.6180  16.6180
    21.7501  21.7501  21.7502  25.3774  32.5487  32.5488  32.5488  35.3073
    35.3074  35.3074  37.2886  37.2887  37.2887  37.6209  40.0406  40.0406
    44.4598  44.4598  47.7936  48.0187  48.0187  48.0187  48.1464  48.1464
    48.1464  52.4829  52.4830  52.4830

          k = 0.0952 0.0952-0.1427 (   818 PWs)   bands (ev):

     9.8231   9.8232  10.5251  10.5251  12.2678  12.2678  12.5812  12.5812
    12.8285  12.8285  12.9317  12.9317  12.9739  12.9739  13.0386  13.0387
    14.6504  14.6504  14.6779  14.6779  14.8760  14.8760  16.8070  16.8071
    20.8195  20.8196  23.2590  23.2591  33.4259  33.4260  34.7149  34.7150
    36.2231  36.2233  37.3212  37.3213  39.0767  39.0768  39.4146  39.4147
    44.6860  44.6860  44.8860  44.8862  46.0307  46.0308  48.5152  48.5152
    49.6667  49.6668  53.1042  53.1043

          k = 0.0952-0.1427-0.1427 (   832 PWs)   bands (ev):

    10.1374  10.1374  10.1374  10.1374  12.6152  12.6152  12.6152  12.6153
    12.8479  12.8479  12.8479  12.8479  13.2611  13.2611  13.2611  13.2612
    14.5877  14.5877  14.5877  14.5877  15.4997  15.4998  15.4998  15.4998
    21.4888  21.4888  21.4888  21.4889  35.1309  35.1311  35.1311  35.1312
    38.1886  38.1886  38.1887  38.1888  39.0109  39.0109  39.0109  39.0110
    44.1327  44.1327  44.1328  44.1329  45.1558  45.1558  45.1558  45.1559
    50.5224  50.5224  50.5224  50.5225

          k =-0.1427-0.1427-0.1427 (   840 PWs)   bands (ev):

    10.0521  10.0521  10.0521  10.0522  12.7335  12.7335  12.7335  12.7335
    12.7335  12.7335  12.7335  12.7335  14.1927  14.1928  14.1929  14.1929
    14.7204  14.7204  14.7204  14.7204  14.7204  14.7204  14.7204  14.7204
    20.6972  20.6973  20.6973  20.6973  36.7659  36.7662  36.7662  36.7662
    39.6469  39.6469  39.6470  39.6470  39.6471  39.6471  39.6471  39.6471
    42.8410  42.8410  42.8410  42.8410  42.8411  42.8411  42.8411  42.8411
    48.9004  48.9004  48.9005  48.9005

          k =-0.0476 0.0000 0.0476 (   806 PWs)   bands (ev):

     6.1007  10.3639  10.3639  10.5537  11.1100  11.1205  11.1205  12.6122
    12.9846  12.9891  13.6987  13.7400  13.7400  13.7523  13.9553  14.3526
    14.4787  14.4787  14.7495  14.7495  14.8202  16.7176  16.7176  18.9657
    24.1607  25.2294  26.4375  26.4375  28.3777  28.3778  28.9778  28.9778
    30.6669  36.1134  36.1440  37.1038  37.1038  37.3519  40.2367  40.2368
    41.1900  42.6953  43.5009  45.1784  46.4339  49.9502  50.3840  53.2764
    53.6529  55.3188  55.3188  56.2458

          k =-0.0476-0.0000 0.0952 (   822 PWs)   bands (ev):

     7.1303   9.9663  10.8801  10.9985  11.3933  11.4261  11.4674  12.2997
    12.6767  12.8458  13.0395  13.0800  13.2602  13.5811  14.0031  14.0886
    14.1586  14.2448  14.2741  14.7466  14.7558  15.1459  18.3560  20.7871
    22.2802  24.8383  25.6567  26.6698  27.5270  29.7171  29.9656  30.0267
    31.1140  33.8044  34.5108  37.7265  38.6737  40.3434  40.5185  40.8699
    41.1229  44.1242  45.2384  47.1290  47.7108  48.5767  49.8830  51.2627
    52.9010  53.1715  55.0682  56.5058

          k =-0.0952 0.0000 0.0952 (   824 PWs)   bands (ev):

     8.0803  10.6044  10.6044  11.3620  11.4440  11.6819  11.6819  12.2018
    12.3482  12.3482  12.5216  12.9192  13.4042  13.4775  13.7757  13.9147
    13.9147  14.2782  14.2782  14.4681  14.5450  16.2879  16.2879  19.6083
    22.3290  25.3591  26.9451  26.9452  27.9985  27.9985  31.1184  31.7314
    31.7314  31.8054  33.6573  36.8765  41.4643  41.8666  41.8667  43.1145
    43.2947  43.8147  43.8147  47.3112  47.3678  48.5275  48.5275  51.7394
    52.0684  52.1357  53.4341  55.2554

          k = 0.0476-0.0476 0.0476 (   820 PWs)   bands (ev):

     6.4493  10.5518  10.5518  10.5518  11.2116  11.2116  11.2116  12.5572
    13.0096  13.0097  13.3987  13.3987  13.3987  13.8677  13.8677  14.1596
    14.1596  14.1596  14.8207  14.8207  14.8207  17.3712  17.3713  17.3713
    25.4581  25.4582  25.4582  26.7667  26.7667  26.7667  31.1931  31.1932
    31.1933  33.5513  36.2658  36.2658  36.2659  39.0974  41.1938  41.1939
    42.8989  42.8990  42.8991  46.5056  47.6103  47.6104  51.8158  51.8159
    55.1844  55.1844  55.1845  55.5220

          k = 0.0476-0.0476 0.0952 (   819 PWs)   bands (ev):

     7.4465  10.1650  11.0113  11.0113  11.4530  11.4530  11.5089  12.3100
    12.6781  12.6781  12.8435  13.0412  13.1313  13.7726  13.8069  13.8696
    13.8696  14.1432  14.7086  14.7383  14.7383  15.4288  18.6995  18.6995
    22.9177  22.9177  26.7647  27.3938  27.3939  30.4341  30.4342  30.8613
    31.0370  32.6979  36.7241  37.6844  37.9303  38.8243  38.8245  42.3710
    43.5866  44.4886  47.0680  47.0681  47.9288  49.0323  50.1948  50.1949
    50.7091  52.9515  53.0413  55.7787

          k =-0.0952 0.0476 0.0476 (   819 PWs)   bands (ev):

     7.4465  10.1650  11.0113  11.0113  11.4530  11.4530  11.5089  12.3100
    12.6781  12.6781  12.8435  13.0412  13.1313  13.7726  13.8069  13.8696
    13.8696  14.1432  14.7086  14.7383  14.7383  15.4288  18.6995  18.6995
    22.9177  22.9177  26.7646  27.3938  27.3938  30.4341  30.4341  30.8613
    31.0370  32.6980  36.7242  37.6844  37.9304  38.8244  38.8244  42.3709
    43.5865  44.4884  47.0681  47.0681  47.9286  49.0323  50.1949  50.1949
    50.7091  52.9516  53.0414  55.7788

          k = 0.0476-0.0476-0.1427 (   828 PWs)   bands (ev):

     8.8885   8.8885  11.4389  11.4389  11.5062  11.5062  11.9191  11.9192
    12.2958  12.2959  12.8238  12.8239  13.3947  13.3947  13.6787  13.6788
    14.2950  14.2950  14.4582  14.4582  14.6907  14.6907  19.7787  19.7788
    21.4502  21.4502  28.3243  28.3244  28.5897  28.5898  29.0424  29.0425
    35.0091  35.0092  35.3912  35.3914  38.1750  38.1751  42.1867  42.1868
    44.8452  44.8453  45.3635  45.3636  49.4043  49.4044  50.8567  50.8568
    52.2210  52.2212  53.8871  53.8872

          k = 0.0952-0.0476 0.0952 (   822 PWs)   bands (ev):

     8.3324  10.6130  10.6130  11.1251  11.6189  11.7598  11.7598  12.2860
    12.4920  12.4920  12.6168  12.9307  13.0801  13.5336  13.5336  13.5358
    13.8968  14.4573  14.6061  14.6061  14.6228  16.3667  16.3667  18.8991
    21.1477  24.1216  24.1216  28.1074  28.1822  31.2002  31.2003  32.2143
    32.2143  34.0726  35.2690  36.9366  39.3419  39.3419  40.0781  43.1531
    43.7332  44.7322  46.4598  46.4599  49.2540  49.2540  50.3515  50.5831
    50.9037  51.6952  52.3760  52.8563

          k =-0.0952 0.0476 0.0952 (   822 PWs)   bands (ev):

     8.3324  10.6130  10.6130  11.1251  11.6189  11.7598  11.7598  12.2860
    12.4920  12.4920  12.6169  12.9307  13.0801  13.5336  13.5336  13.5358
    13.8967  14.4573  14.6061  14.6061  14.6228  16.3667  16.3667  18.8992
    21.1478  24.1215  24.1216  28.1074  28.1821  31.2002  31.2003  32.2143
    32.2143  34.0725  35.2691  36.9365  39.3420  39.3421  40.0781  43.1531
    43.7331  44.7321  46.4599  46.4599  49.2540  49.2540  50.3514  50.5830
    50.9038  51.6950  52.3761  52.8563

          k = 0.0952-0.0476-0.1427 (   810 PWs)   bands (ev):

     9.5533   9.5533  10.9766  10.9766  11.8797  11.8797  12.1195  12.1196
    12.4724  12.4724  12.6600  12.6600  13.2093  13.2093  13.3905  13.3905
    14.2158  14.2158  14.5140  14.5141  15.0633  15.0633  17.6019  17.6019
    22.1201  22.1202  25.8656  25.8656  29.5378  29.5379  33.0982  33.0983
    33.3238  33.3238  36.9195  36.9196  40.1228  40.1230  40.4701  40.4702
    45.1848  45.1849  45.6818  45.6820  47.6869  47.6870  50.6178  50.6178
    51.7330  51.7330  53.9972  54.0003

          k = 0.0952-0.0952 0.0952 (   814 PWs)   bands (ev):

     8.9976  10.5652  10.5652  10.5652  12.0753  12.0753  12.0753  12.5528
    12.7707  12.7707  12.7707  12.8978  12.8979  13.1711  13.1711  13.1711
    14.3372  14.3372  14.7487  14.7487  14.7487  16.6180  16.6180  16.6180
    21.7501  21.7502  21.7502  25.3775  32.5488  32.5488  32.5489  35.3072
    35.3073  35.3074  37.2885  37.2886  37.2887  37.6208  40.0404  40.0405
    44.4597  44.4598  47.7935  48.0187  48.0188  48.0188  48.1464  48.1464
    48.1465  52.4831  52.4832  52.4832

          k = 0.0952-0.0952-0.1427 (   818 PWs)   bands (ev):

     9.8232   9.8232  10.5251  10.5251  12.2678  12.2679  12.5812  12.5812
    12.8285  12.8285  12.9317  12.9317  12.9739  12.9739  13.0386  13.0387
    14.6504  14.6504  14.6779  14.6779  14.8760  14.8760  16.8070  16.8071
    20.8195  20.8196  23.2591  23.2592  33.4259  33.4260  34.7150  34.7151
    36.2231  36.2232  37.3211  37.3211  39.0766  39.0767  39.4145  39.4147
    44.6860  44.6861  44.8860  44.8861  46.0307  46.0307  48.5153  48.5153
    49.6667  49.6667  53.1043  53.1044

     the Fermi energy is    14.4934 ev

!    total energy              =    -343.62961024 Ry
     Harris-Foulkes estimate   =    -343.62961024 Ry
     estimated scf accuracy    <          3.0E-12 Ry

     The total energy is the sum of the following terms:

     one-electron contribution =      -6.38320517 Ry
     hartree contribution      =      60.35060091 Ry
     xc contribution           =    -120.51493415 Ry
     ewald contribution        =    -277.03365386 Ry
     Dispersion Correction     =      -0.04784347 Ry
     smearing contrib. (-TS)   =      -0.00057450 Ry

     total magnetization       =     2.84 Bohr mag/cell
     absolute magnetization    =     3.25 Bohr mag/cell

     convergence has been achieved in  11 iterations

     Forces acting on atoms (Ry/au):

     atom    1 type  1   force =     0.00000097    0.00000097   -0.00000115
     atom    2 type  1   force =    -0.00000080   -0.00000080   -0.00000080
     atom    3 type  1   force =     0.00000097   -0.00000115    0.00000097
     atom    4 type  1   force =    -0.00000115    0.00000097    0.00000097

     Total force =     0.000003     Total SCF correction =     0.000005
     SCF correction compared to forces is large: reduce conv_thr to get better values


     entering subroutine stress ...

          total   stress  (Ry/bohr**3)                   (kbar)     P=    0.05
   0.00000037  -0.00000002  -0.00000002          0.05     -0.00     -0.00
  -0.00000002   0.00000037  -0.00000002         -0.00      0.05     -0.00
  -0.00000002  -0.00000002   0.00000037         -0.00     -0.00      0.05


     bfgs converged in   5 scf cycles and   4 bfgs steps
     (criteria: energy <  1.0E-04, force <  1.0E-03, cell <  5.0E-01)

     End of BFGS Geometry Optimization

     Final enthalpy =    -343.6296102446 Ry
Begin final coordinates
     new unit-cell volume =    290.10901 a.u.^3 (    42.98972 Ang^3 )

CELL_PARAMETERS (alat=  1.88972590)
   3.503119248   0.000004259   0.000004259
   0.000004259   3.503119248   0.000004259
   0.000004259   0.000004259   3.503119248

ATOMIC_POSITIONS (alat)
Ni1      1.755456618   1.755456618   0.003886443
Ni1      0.003881086   0.003881086   0.003881086
Ni1      1.755456618   0.003886443   1.755456618
Ni1      0.003886443   1.755456618   1.755456618
End final coordinates



     A final scf calculation at the relaxed structure.
     The G-vectors are recalculated for the final unit cell
     Results may differ from those at the preceding step.

     G-vector sticks info
     --------------------
     sticks:   dense  smooth     PW     G-vecs:    dense   smooth      PW
     Sum        1389     421    137                39127     6451    1237

     Generating pointlists ...

     Title: 
     Ni-ferro-mag                                                               


     bravais-lattice index     =            0
     lattice parameter (alat)  =       1.8897  a.u.
     unit-cell volume          =     290.1090 (a.u.)^3
     number of atoms/cell      =            4
     number of atomic types    =            1
     number of electrons       =        40.00
     number of Kohn-Sham states=           52
     kinetic-energy cutoff     =      30.0000  Ry
     charge density cutoff     =     400.0000  Ry
     convergence threshold     =      1.0E-10
     mixing beta               =       0.2000
     number of iterations used =            8  plain     mixing
     Exchange-correlation      =  SLA  PW   PBE  PBE ( 1  4  3  4 0 0)

     celldm(1)=   1.889726  celldm(2)=   0.000000  celldm(3)=   0.000000
     celldm(4)=   0.000000  celldm(5)=   0.000000  celldm(6)=   0.000000

     crystal axes: (cart. coord. in units of alat)
               a(1) = (   3.503119   0.000004   0.000004 )  
               a(2) = (   0.000004   3.503119   0.000004 )  
               a(3) = (   0.000004   0.000004   3.503119 )  

     reciprocal axes: (cart. coord. in units 2 pi/alat)
               b(1) = (  0.285460 -0.000000 -0.000000 )  
               b(2) = ( -0.000000  0.285460 -0.000000 )  
               b(3) = ( -0.000000 -0.000000  0.285460 )  


     PseudoPot. # 1 for Ni read from file:
     /home/eliot/pseudo/Ni.pbe-nd-rrkjus.UPF
     MD5 check sum: 8081f0a005c9a5470caab1a58e82ecb2
     Pseudo is Ultrasoft + core correction, Zval = 10.0
     Generated by new atomic code, or converted to UPF format
     Using radial grid of 1203 points,  6 beta functions with: 
                l(1) =   0
                l(2) =   0
                l(3) =   1
                l(4) =   1
                l(5) =   2
                l(6) =   2
     Q(r) pseudized with 0 coefficients 


     atomic species   valence    mass     pseudopotential
        Ni1           10.00    58.69340     Ni( 1.00)

     Starting magnetic structure 
     atomic species   magnetization
        Ni1          0.500

      6 Sym. Ops. (no inversion) found



   Cartesian axes

     site n.     atom                  positions (alat units)
         1           Ni1 tau(   1) = (   1.7554566   1.7554566   0.0038864  )
         2           Ni1 tau(   2) = (   0.0038811   0.0038811   0.0038811  )
         3           Ni1 tau(   3) = (   1.7554566   0.0038864   1.7554566  )
         4           Ni1 tau(   4) = (   0.0038864   1.7554566   1.7554566  )

     number of k points=    32  Methfessel-Paxton smearing, width (Ry)=  0.0500
                       cart. coord. in units 2pi/alat
        k(    1) = (   0.0000000   0.0000000   0.0000000), wk =   0.0046296
        k(    2) = (  -0.0000001  -0.0000001   0.0475766), wk =   0.0277778
        k(    3) = (  -0.0000001  -0.0000001   0.0951533), wk =   0.0277778
        k(    4) = (   0.0000002   0.0000002  -0.1427299), wk =   0.0138889
        k(    5) = (  -0.0000001   0.0475766   0.0475766), wk =   0.0277778
        k(    6) = (  -0.0000002   0.0475765   0.0951532), wk =   0.0555556
        k(    7) = (   0.0000001   0.0475768  -0.1427300), wk =   0.0555556
        k(    8) = (  -0.0000002   0.0951532   0.0951532), wk =   0.0277778
        k(    9) = (   0.0000001   0.0951535  -0.1427301), wk =   0.0555556
        k(   10) = (   0.0000003  -0.1427298  -0.1427298), wk =   0.0138889
        k(   11) = (   0.0475765   0.0475765   0.0475765), wk =   0.0092593
        k(   12) = (   0.0475765   0.0475765   0.0951532), wk =   0.0277778
        k(   13) = (   0.0475768   0.0475768  -0.1427301), wk =   0.0277778
        k(   14) = (   0.0475764   0.0951531   0.0951531), wk =   0.0277778
        k(   15) = (   0.0475767   0.0951534  -0.1427301), wk =   0.0555556
        k(   16) = (   0.0475770  -0.1427298  -0.1427298), wk =   0.0277778
        k(   17) = (   0.0951531   0.0951531   0.0951531), wk =   0.0092593
        k(   18) = (   0.0951534   0.0951534  -0.1427302), wk =   0.0277778
        k(   19) = (   0.0951536  -0.1427299  -0.1427299), wk =   0.0277778
        k(   20) = (  -0.1427296  -0.1427296  -0.1427296), wk =   0.0046296
        k(   21) = (  -0.0475767   0.0000000   0.0475767), wk =   0.0277778
        k(   22) = (  -0.0475768  -0.0000001   0.0951534), wk =   0.0555556
        k(   23) = (  -0.0951534   0.0000000   0.0951534), wk =   0.0277778
        k(   24) = (   0.0475766  -0.0475768   0.0475766), wk =   0.0277778
        k(   25) = (   0.0475766  -0.0475768   0.0951533), wk =   0.0555556
        k(   26) = (  -0.0951534   0.0475767   0.0475767), wk =   0.0277778
        k(   27) = (   0.0475769  -0.0475765  -0.1427299), wk =   0.0277778
        k(   28) = (   0.0951532  -0.0475769   0.0951532), wk =   0.0277778
        k(   29) = (  -0.0951535   0.0475766   0.0951534), wk =   0.0555556
        k(   30) = (   0.0951535  -0.0475766  -0.1427300), wk =   0.0555556
        k(   31) = (   0.0951533  -0.0951535   0.0951533), wk =   0.0277778
        k(   32) = (   0.0951536  -0.0951532  -0.1427299), wk =   0.0277778

     Dense  grid:    39127 G-vectors     FFT dimensions: (  45,  45,  45)

     Smooth grid:     6451 G-vectors     FFT dimensions: (  24,  24,  24)

     Largest allocated arrays     est. size (Mb)     dimensions
        Kohn-Sham Wavefunctions         0.67 Mb     (     840,   52)
        NL pseudopotentials             0.92 Mb     (     840,   72)
        Each V/rho on FFT grid          2.78 Mb     (   91125,   2)
        Each G-vector array             0.30 Mb     (   39127)
        G-vector shells                 0.02 Mb     (    2639)
     Largest temporary arrays     est. size (Mb)     dimensions
        Auxiliary wavefunctions         2.67 Mb     (     840,  208)
        Each subspace H/S matrix        0.66 Mb     (     208,  208)
        Each <psi_i|beta_j> matrix      0.06 Mb     (      72,   52)
        Arrays for rho mixing          11.12 Mb     (   91125,    8)

     Check: negative/imaginary core charge=   -0.000005    0.000000

     Initial potential from superposition of free atoms

     starting charge   39.99816, renormalised to   40.00000
     Starting wfc are   24 randomized atomic wfcs +   28 random wfc

     Writing output data file Ni-ferromag.save

     total cpu time spent up to now is     1105.7 secs

     Self-consistent Calculation

     iteration #  1     ecut=    30.00 Ry     beta=0.20
     Davidson diagonalization with overlap
     ethr =  1.00E-06,  avg # of iterations = 12.2

     total cpu time spent up to now is     1177.3 secs

     total energy              =    -342.90453157 Ry
     Harris-Foulkes estimate   =    -343.17717529 Ry
     estimated scf accuracy    <       2.41586768 Ry

     total magnetization       =     6.87 Bohr mag/cell
     absolute magnetization    =     6.88 Bohr mag/cell

     iteration #  2     ecut=    30.00 Ry     beta=0.20
     Davidson diagonalization with overlap
     ethr =  6.04E-03,  avg # of iterations =  1.0

     total cpu time spent up to now is     1191.1 secs

     total energy              =    -343.20591383 Ry
     Harris-Foulkes estimate   =    -343.03919300 Ry
     estimated scf accuracy    <       0.77982125 Ry

     total magnetization       =     5.74 Bohr mag/cell
     absolute magnetization    =     5.83 Bohr mag/cell

     iteration #  3     ecut=    30.00 Ry     beta=0.20
     Davidson diagonalization with overlap
     ethr =  1.95E-03,  avg # of iterations =  1.3

     negative rho (up, down):  0.000E+00 3.049E-04

     total cpu time spent up to now is     1205.1 secs

     total energy              =    -343.52568144 Ry
     Harris-Foulkes estimate   =    -343.27979892 Ry
     estimated scf accuracy    <       0.35862965 Ry

     total magnetization       =     4.50 Bohr mag/cell
     absolute magnetization    =     4.82 Bohr mag/cell

     iteration #  4     ecut=    30.00 Ry     beta=0.20
     Davidson diagonalization with overlap
     ethr =  8.97E-04,  avg # of iterations =  1.3

     negative rho (up, down):  0.000E+00 1.079E-04

     total cpu time spent up to now is     1219.2 secs

     total energy              =    -343.61570422 Ry
     Harris-Foulkes estimate   =    -343.63851627 Ry
     estimated scf accuracy    <       0.11653281 Ry

     total magnetization       =     2.58 Bohr mag/cell
     absolute magnetization    =     3.20 Bohr mag/cell

     iteration #  5     ecut=    30.00 Ry     beta=0.20
     Davidson diagonalization with overlap
     ethr =  2.91E-04,  avg # of iterations =  1.0

     negative rho (up, down):  0.000E+00 1.418E-05

     total cpu time spent up to now is     1233.0 secs

     total energy              =    -343.61846309 Ry
     Harris-Foulkes estimate   =    -343.62226089 Ry
     estimated scf accuracy    <       0.02382064 Ry

     total magnetization       =     2.63 Bohr mag/cell
     absolute magnetization    =     3.23 Bohr mag/cell

     iteration #  6     ecut=    30.00 Ry     beta=0.20
     Davidson diagonalization with overlap
     ethr =  5.96E-05,  avg # of iterations =  2.1

     total cpu time spent up to now is     1247.9 secs

     total energy              =    -343.62393234 Ry
     Harris-Foulkes estimate   =    -343.62203031 Ry
     estimated scf accuracy    <       0.00095248 Ry

     total magnetization       =     2.69 Bohr mag/cell
     absolute magnetization    =     3.28 Bohr mag/cell

     iteration #  7     ecut=    30.00 Ry     beta=0.20
     Davidson diagonalization with overlap
     ethr =  2.38E-06,  avg # of iterations =  3.8

     total cpu time spent up to now is     1264.9 secs

     total energy              =    -343.62736452 Ry
     Harris-Foulkes estimate   =    -343.62585259 Ry
     estimated scf accuracy    <       0.00187496 Ry

     total magnetization       =     3.01 Bohr mag/cell
     absolute magnetization    =     3.48 Bohr mag/cell

     iteration #  8     ecut=    30.00 Ry     beta=0.20
     Davidson diagonalization with overlap
     ethr =  2.38E-06,  avg # of iterations =  1.0

     total cpu time spent up to now is     1278.8 secs

     total energy              =    -343.62834040 Ry
     Harris-Foulkes estimate   =    -343.62766614 Ry
     estimated scf accuracy    <       0.00013844 Ry

     total magnetization       =     2.90 Bohr mag/cell
     absolute magnetization    =     3.35 Bohr mag/cell

     iteration #  9     ecut=    30.00 Ry     beta=0.20
     Davidson diagonalization with overlap
     ethr =  3.46E-07,  avg # of iterations =  1.0

     total cpu time spent up to now is     1292.6 secs

     total energy              =    -343.62862852 Ry
     Harris-Foulkes estimate   =    -343.62834238 Ry
     estimated scf accuracy    <       0.00009502 Ry

     total magnetization       =     2.89 Bohr mag/cell
     absolute magnetization    =     3.34 Bohr mag/cell

     iteration # 10     ecut=    30.00 Ry     beta=0.20
     Davidson diagonalization with overlap
     ethr =  2.38E-07,  avg # of iterations =  1.0

     total cpu time spent up to now is     1306.4 secs

     total energy              =    -343.62904259 Ry
     Harris-Foulkes estimate   =    -343.62870852 Ry
     estimated scf accuracy    <       0.00000090 Ry

     total magnetization       =     2.83 Bohr mag/cell
     absolute magnetization    =     3.25 Bohr mag/cell

     iteration # 11     ecut=    30.00 Ry     beta=0.20
     Davidson diagonalization with overlap
     ethr =  2.26E-09,  avg # of iterations =  2.0

     total cpu time spent up to now is     1321.4 secs

     total energy              =    -343.62924969 Ry
     Harris-Foulkes estimate   =    -343.62904314 Ry
     estimated scf accuracy    <       0.00000022 Ry

     total magnetization       =     2.84 Bohr mag/cell
     absolute magnetization    =     3.26 Bohr mag/cell

     iteration # 12     ecut=    30.00 Ry     beta=0.20
     Davidson diagonalization with overlap
     ethr =  5.54E-10,  avg # of iterations =  1.0

     total cpu time spent up to now is     1335.2 secs

     total energy              =    -343.62937266 Ry
     Harris-Foulkes estimate   =    -343.62924979 Ry
     estimated scf accuracy    <       0.00000058 Ry

     total magnetization       =     2.84 Bohr mag/cell
     absolute magnetization    =     3.26 Bohr mag/cell

     iteration # 13     ecut=    30.00 Ry     beta=0.20
     Davidson diagonalization with overlap
     ethr =  5.54E-10,  avg # of iterations =  2.0

     total cpu time spent up to now is     1351.3 secs

     total energy              =    -343.62945459 Ry
     Harris-Foulkes estimate   =    -343.62937341 Ry
     estimated scf accuracy    <       0.00000009 Ry

     total magnetization       =     2.84 Bohr mag/cell
     absolute magnetization    =     3.25 Bohr mag/cell

     iteration # 14     ecut=    30.00 Ry     beta=0.20
     Davidson diagonalization with overlap
     ethr =  2.30E-10,  avg # of iterations =  1.5

     total cpu time spent up to now is     1366.4 secs

     total energy              =    -343.62951084 Ry
     Harris-Foulkes estimate   =    -343.62945474 Ry
     estimated scf accuracy    <       0.00000008 Ry

     total magnetization       =     2.84 Bohr mag/cell
     absolute magnetization    =     3.25 Bohr mag/cell

     iteration # 15     ecut=    30.00 Ry     beta=0.20
     Davidson diagonalization with overlap
     ethr =  2.02E-10,  avg # of iterations =  2.0

     total cpu time spent up to now is     1381.0 secs

     total energy              =    -343.62954552 Ry
     Harris-Foulkes estimate   =    -343.62951092 Ry
     estimated scf accuracy    <       0.00000001 Ry

     total magnetization       =     2.84 Bohr mag/cell
     absolute magnetization    =     3.25 Bohr mag/cell

     iteration # 16     ecut=    30.00 Ry     beta=0.20
     Davidson diagonalization with overlap
     ethr =  3.12E-11,  avg # of iterations =  1.8

     total cpu time spent up to now is     1395.5 secs

     total energy              =    -343.62956745 Ry
     Harris-Foulkes estimate   =    -343.62954553 Ry
     estimated scf accuracy    <          1.6E-09 Ry

     total magnetization       =     2.84 Bohr mag/cell
     absolute magnetization    =     3.25 Bohr mag/cell

     iteration # 17     ecut=    30.00 Ry     beta=0.20
     Davidson diagonalization with overlap
     ethr =  3.88E-12,  avg # of iterations =  2.0

     total cpu time spent up to now is     1411.6 secs

     total energy              =    -343.62958162 Ry
     Harris-Foulkes estimate   =    -343.62956745 Ry
     estimated scf accuracy    <          1.3E-10 Ry

     total magnetization       =     2.84 Bohr mag/cell
     absolute magnetization    =     3.25 Bohr mag/cell

     iteration # 18     ecut=    30.00 Ry     beta=0.20
     Davidson diagonalization with overlap
     ethr =  3.14E-13,  avg # of iterations =  2.1

     Magnetic moment per site:
     atom:    1    charge:    3.0535    magn:    0.3403    constr:    0.0000
     atom:    2    charge:    3.0513    magn:    0.3400    constr:    0.0000
     atom:    3    charge:    3.0535    magn:    0.3403    constr:    0.0000
     atom:    4    charge:    3.0535    magn:    0.3403    constr:    0.0000

     total cpu time spent up to now is     1429.0 secs

     End of self-consistent calculation

 ------ SPIN UP ------------


          k = 0.0000 0.0000 0.0000 (   799 PWs)   bands (ev):

     5.4304   9.7152   9.7152   9.7152  10.1684  10.1684  10.1684  11.9471
    11.9471  11.9471  13.1259  13.1259  13.8436  13.8436  13.8436  13.9337
    13.9337  13.9337  13.9337  13.9337  13.9337  17.0710  17.0710  17.0710
    23.8120  23.8120  23.8120  29.5673  29.5673  29.5674  29.5674  29.5675
    29.5675  34.6536  34.6536  34.6536  37.9939  37.9940  37.9940  38.4956
    42.4716  42.4718  42.4718  46.0812  46.0814  46.0814  48.1760  55.1694
    55.1695  55.1695  57.8186  59.2022

          k =-0.0000-0.0000 0.0476 (   791 PWs)   bands (ev):

     5.7966   9.7372   9.8994   9.8994  10.2789  10.2947  10.2947  11.8184
    12.0495  12.0495  13.0080  13.1726  13.2795  13.2795  13.6902  13.6902
    13.7577  13.7577  13.7941  13.9339  13.9339  15.4704  18.0299  18.0299
    23.9080  23.9081  26.0616  27.8169  27.8169  28.4443  28.4443  30.1278
    30.1279  34.7702  36.8252  36.8252  37.8623  38.1258  39.9513  39.9514
    40.2527  40.2528  40.9174  47.4987  48.1331  48.1332  49.1502  51.5682
    56.2666  56.2667  56.6750  56.6750

          k =-0.0000-0.0000 0.0952 (   804 PWs)   bands (ev):

     6.8459   9.5075  10.3362  10.3363  10.5865  10.6778  10.6778  11.4744
    12.2237  12.2237  12.3461  12.3461  12.7201  13.3012  13.3066  13.3117
    13.3117  13.3189  13.3189  13.6599  13.9345  13.9345  19.9928  19.9928
    24.2252  24.2252  25.0437  25.0437  26.6767  26.6767  30.3616  31.7076
    31.7077  35.1329  36.7323  37.0316  37.0317  38.3512  38.6767  40.8680
    40.8680  44.1153  44.1154  44.1470  50.9313  51.0500  51.0501  51.0531
    51.0531  55.0423  55.9857  55.9858

          k = 0.0000 0.0000-0.1427 (   820 PWs)   bands (ev):

     8.3453   8.3453  10.6123  10.6123  11.0213  11.0214  11.3242  11.3242
    11.3243  11.3243  12.5428  12.5429  12.7982  12.7982  12.7982  12.7982
    13.0632  13.0632  13.4791  13.4792  13.9347  13.9347  22.3787  22.3787
    22.3788  22.3788  24.5984  24.5984  25.7314  25.7314  34.0864  34.0864
    34.0865  34.0866  34.9121  34.9123  35.7791  35.7792  40.2695  40.2697
    45.6675  45.6675  45.6677  45.6677  47.6192  47.6192  52.3106  52.3106
    54.1761  54.1762  54.1763  54.1764

          k =-0.0000 0.0476 0.0476 (   798 PWs)   bands (ev):

     6.1541   9.9355   9.9355  10.0625  10.3962  10.3962  10.4101  11.7585
    12.0945  12.1115  12.9335  12.9834  12.9918  12.9918  13.1678  13.5616
    13.6861  13.6861  13.7564  13.7564  13.8179  16.4028  16.4029  18.7999
    23.9020  25.0995  26.2487  26.2487  28.2948  28.2948  28.9366  28.9366
    30.6558  36.0405  36.1223  37.0334  37.0334  37.3346  40.1185  40.1186
    41.2711  42.6075  43.5321  45.2350  46.3738  49.7915  50.4588  53.1099
    53.6837  55.3577  55.3577  56.3055

          k =-0.0000 0.0476 0.0952 (   808 PWs)   bands (ev):

     7.1757   9.7436  10.4175  10.4661  10.6779  10.7310  10.7502  11.4775
    11.9851  12.1248  12.2403  12.3578  12.3830  12.8163  13.2377  13.3163
    13.3231  13.3468  13.4991  13.7531  13.7591  14.4364  18.0174  20.5830
    22.0815  24.6101  25.5051  26.5351  27.4015  29.6087  29.9039  29.9562
    31.0164  33.7270  34.4686  37.6847  38.6360  40.3924  40.5713  40.7496
    41.1235  44.0418  45.0337  47.0622  47.7887  48.5946  49.8989  51.3376
    52.9456  53.2624  54.8534  57.0999

          k = 0.0000 0.0476-0.1427 (   812 PWs)   bands (ev):

     8.6267   8.6268  10.7648  10.7648  11.0731  11.0731  11.1918  11.1919
    11.3387  11.3388  12.1695  12.1696  12.7990  12.7990  13.0283  13.0284
    13.0482  13.0482  13.6626  13.6626  13.7507  13.7507  19.8861  19.8862
    22.8782  22.8783  25.4135  25.4136  28.3105  28.3106  31.4992  31.4993
    32.0217  32.0218  35.8313  35.8315  38.8325  38.8326  42.2140  42.2142
    43.1169  43.1170  45.9436  45.9438  50.0862  50.0864  50.3583  50.3584
    52.6160  52.6161  53.2259  53.2261

          k =-0.0000 0.0952 0.0952 (   812 PWs)   bands (ev):

     8.1022  10.3311  10.3311  10.6974  10.9460  10.9460  10.9595  11.4076
    11.6546  11.6546  11.8092  12.1276  12.4886  12.7302  13.0218  13.1769
    13.1769  13.3170  13.3170  13.4870  13.7023  15.6824  15.6824  19.3005
    22.1097  25.1605  26.7785  26.7785  27.8973  27.8974  30.9875  31.6426
    31.6426  31.7379  33.6048  36.8410  41.5281  41.8849  41.8850  43.0799
    43.4124  43.7721  43.7722  47.1900  47.3387  48.4829  48.4829  51.6796
    52.1810  52.1919  53.2303  55.3530

          k = 0.0000 0.0952-0.1427 (   806 PWs)   bands (ev):

     9.3694   9.3694  10.8020  10.8020  11.2002  11.2003  11.2077  11.2077
    11.3574  11.3574  11.8637  11.8637  12.8356  12.8356  12.8365  12.8365
    12.9025  12.9025  13.3520  13.3520  14.3637  14.3637  17.2137  17.2138
    24.2345  24.2346  26.2284  26.2285  28.6545  28.6546  29.5393  29.5393
    32.9510  32.9511  36.7930  36.7932  40.3669  40.3670  43.0531  43.0531
    43.2176  43.2177  46.7436  46.7438  47.9297  47.9299  50.4321  50.4323
    51.7725  51.7726  53.5657  53.5658

          k = 0.0000-0.1427-0.1427 (   784 PWs)   bands (ev):

    10.2227  10.2227  10.2227  10.2227  11.3194  11.3194  11.3194  11.3195
    11.6285  11.6285  11.6285  11.6285  12.6896  12.6896  12.6896  12.6896
    13.0037  13.0037  13.0037  13.0037  15.4340  15.4340  15.4340  15.4340
    26.2094  26.2094  26.2095  26.2095  27.5801  27.5802  27.5802  27.5803
    37.8954  37.8955  37.8955  37.8956  38.5018  38.5019  38.5019  38.5020
    47.1794  47.1794  47.1794  47.1794  49.1964  49.1964  49.1965  49.1966
    51.8215  51.8215  51.8216  51.8216

          k = 0.0476 0.0476 0.0476 (   802 PWs)   bands (ev):

     6.4999  10.0964  10.0964  10.0964  10.5107  10.5107  10.5107  11.7235
    12.1312  12.1312  12.6878  12.6878  12.6878  13.0810  13.0810  13.3281
    13.3281  13.3281  13.8720  13.8720  13.8720  17.0301  17.0301  17.0301
    25.3266  25.3266  25.3266  26.5934  26.5934  26.5934  31.1713  31.1713
    31.1713  33.4847  36.1719  36.1720  36.1720  39.2532  41.1414  41.1414
    42.8146  42.8146  42.8146  46.5931  47.6533  47.6533  51.6490  51.6490
    55.1820  55.2311  55.2311  55.2311

          k = 0.0476 0.0476 0.0952 (   805 PWs)   bands (ev):

     7.4814   9.9023  10.4795  10.4795  10.7963  10.8243  10.8243  11.5141
    11.9755  11.9755  12.1709  12.2104  12.2706  12.9260  12.9966  13.0823
    13.0823  13.3205  13.7747  13.7747  13.8070  14.7982  18.3725  18.3725
    22.7074  22.7074  26.6205  27.2447  27.2448  30.3592  30.3592  30.7472
    30.9497  32.6514  36.6500  37.7789  37.8533  38.7942  38.7943  42.3635
    43.5061  44.4711  47.0237  47.0238  47.8871  49.0868  50.2060  50.2060
    50.7023  53.0231  53.0813  55.6637

          k = 0.0476 0.0476-0.1427 (   800 PWs)   bands (ev):

     8.8538   8.8539  10.8667  10.8667  10.9246  10.9246  11.1679  11.1680
    11.5816  11.5817  12.0738  12.0738  12.5438  12.5438  12.9147  12.9147
    13.4900  13.4900  13.5966  13.5966  13.7187  13.7187  19.5214  19.5214
    21.1462  21.1462  28.2095  28.2096  28.4478  28.4479  28.9275  28.9275
    34.9399  34.9400  35.4188  35.4190  38.0979  38.0981  42.2056  42.2056
    44.7581  44.7583  45.3750  45.3750  49.4841  49.4842  50.9029  50.9029
    52.1877  52.1878  54.0334  54.0335

          k = 0.0476 0.0952 0.0952 (   802 PWs)   bands (ev):

     8.3203  10.2201  10.2202  10.5065  11.1116  11.1576  11.1576  11.5591
    11.7716  11.7716  11.9048  12.1296  12.2556  12.7339  12.7339  12.7503
    13.0530  13.6080  13.6774  13.6925  13.6925  15.8131  15.8131  18.6243
    20.8040  23.9045  23.9045  27.9455  28.0545  31.1366  31.1366  32.1215
    32.1216  34.0181  35.2443  36.9120  39.3273  39.3273  40.1547  43.0394
    43.7422  44.7870  46.4658  46.4659  49.1990  49.1990  50.4199  50.5996
    50.9277  51.6227  52.3116  52.9294

          k = 0.0476 0.0952-0.1427 (   802 PWs)   bands (ev):

     9.4037   9.4038  10.4415  10.4415  11.3251  11.3251  11.4732  11.4732
    11.7785  11.7785  11.8993  11.8994  12.4049  12.4049  12.6156  12.6156
    13.3502  13.3502  13.5779  13.5779  14.2700  14.2700  17.1906  17.1907
    21.8199  21.8199  25.6655  25.6656  29.4372  29.4373  33.0418  33.0418
    33.2548  33.2548  36.9066  36.9068  40.1387  40.1387  40.4476  40.4477
    45.1977  45.1978  45.6902  45.6903  47.7060  47.7062  50.5795  50.5797
    51.7935  51.7936  53.9175  53.9177

          k = 0.0476-0.1427-0.1427 (   820 PWs)   bands (ev):

     9.9734   9.9734   9.9734   9.9734  11.7163  11.7163  11.7163  11.7163
    11.8031  11.8031  11.8031  11.8031  12.3763  12.3763  12.3763  12.3763
    13.3328  13.3328  13.3329  13.3329  15.3447  15.3447  15.3448  15.3448
    23.4539  23.4540  23.4540  23.4540  30.9748  30.9749  30.9750  30.9750
    38.1755  38.1755  38.1756  38.1756  38.3445  38.3446  38.3446  38.3447
    46.6588  46.6588  46.6588  46.6589  46.7637  46.7637  46.7638  46.7639
    54.8134  54.8134  54.8135  54.8136

          k = 0.0952 0.0952 0.0952 (   807 PWs)   bands (ev):

     8.8644  10.0553  10.0553  10.0553  11.5161  11.5161  11.5161  12.0298
    12.0908  12.0909  12.0909  12.0965  12.0965  12.3797  12.3797  12.3797
    13.4559  13.4559  13.8208  13.8208  13.8208  16.1912  16.1912  16.1912
    21.4115  21.4115  21.4115  25.1522  32.5023  32.5024  32.5024  35.2457
    35.2458  35.2458  37.2760  37.2760  37.2760  37.7922  39.9544  39.9544
    44.4510  44.4510  47.7793  48.0703  48.0704  48.0704  48.1451  48.1451
    48.1451  52.4519  52.4519  52.4519

          k = 0.0952 0.0952-0.1427 (   806 PWs)   bands (ev):

     9.4908   9.4908   9.9868   9.9868  11.6360  11.6360  11.9225  11.9226
    12.1392  12.1393  12.2596  12.2596  12.2738  12.2738  12.3740  12.3740
    13.7413  13.7413  13.7492  13.7492  14.1599  14.1599  16.4753  16.4753
    20.3827  20.3827  22.9696  22.9696  33.4183  33.4183  34.6287  34.6287
    36.3321  36.3323  37.2486  37.2487  38.9962  38.9963  39.4400  39.4400
    44.6598  44.6598  44.9089  44.9090  46.0225  46.0226  48.5555  48.5555
    49.6132  49.6133  52.9964  52.9964

          k = 0.0952-0.1427-0.1427 (   816 PWs)   bands (ev):

     9.6665   9.6665   9.6665   9.6665  11.8820  11.8820  11.8820  11.8820
    12.0718  12.0718  12.0718  12.0718  12.8208  12.8208  12.8208  12.8208
    13.6692  13.6692  13.6693  13.6693  14.9678  14.9678  14.9679  14.9679
    21.0962  21.0962  21.0962  21.0963  35.1570  35.1571  35.1572  35.1572
    38.2196  38.2196  38.2197  38.2197  38.9416  38.9416  38.9417  38.9417
    44.1010  44.1010  44.1010  44.1011  45.1632  45.1632  45.1632  45.1633
    50.4321  50.4321  50.4321  50.4322

          k =-0.1427-0.1427-0.1427 (   840 PWs)   bands (ev):

     9.5506   9.5506   9.5506   9.5506  11.9602  11.9602  11.9602  11.9602
    11.9602  11.9603  11.9603  11.9603  13.7967  13.7967  13.7967  13.7967
    13.7967  13.7967  13.7967  13.7967  14.2920  14.2921  14.2921  14.2921
    20.2148  20.2149  20.2149  20.2149  36.9503  36.9505  36.9505  36.9506
    39.5766  39.5766  39.5766  39.5767  39.5767  39.5767  39.5768  39.5768
    42.8108  42.8108  42.8108  42.8108  42.8108  42.8109  42.8109  42.8109
    48.7858  48.7858  48.7858  48.7859

          k =-0.0476 0.0000 0.0476 (   798 PWs)   bands (ev):

     6.1542   9.9355   9.9355  10.0625  10.3962  10.3962  10.4101  11.7585
    12.0945  12.1115  12.9335  12.9834  12.9918  12.9918  13.1678  13.5615
    13.6861  13.6861  13.7564  13.7564  13.8179  16.4028  16.4028  18.7999
    23.9020  25.0996  26.2487  26.2487  28.2948  28.2948  28.9366  28.9366
    30.6557  36.0404  36.1224  37.0334  37.0334  37.3346  40.1185  40.1186
    41.2710  42.6077  43.5320  45.2350  46.3737  49.7915  50.4589  53.1100
    53.6838  55.3578  55.3579  56.3054

          k =-0.0476-0.0000 0.0952 (   808 PWs)   bands (ev):

     7.1757   9.7436  10.4175  10.4661  10.6779  10.7310  10.7502  11.4775
    11.9851  12.1248  12.2403  12.3578  12.3830  12.8163  13.2377  13.3163
    13.3231  13.3468  13.4991  13.7531  13.7591  14.4364  18.0173  20.5830
    22.0816  24.6101  25.5051  26.5351  27.4015  29.6087  29.9039  29.9561
    31.0164  33.7271  34.4687  37.6848  38.6358  40.3923  40.5713  40.7497
    41.1236  44.0419  45.0336  47.0623  47.7886  48.5945  49.8990  51.3376
    52.9457  53.2625  54.8533  57.1000

          k =-0.0952 0.0000 0.0952 (   812 PWs)   bands (ev):

     8.1023  10.3310  10.3311  10.6975  10.9460  10.9460  10.9595  11.4076
    11.6546  11.6546  11.8092  12.1276  12.4886  12.7302  13.0218  13.1769
    13.1769  13.3170  13.3170  13.4870  13.7023  15.6824  15.6824  19.3005
    22.1097  25.1605  26.7784  26.7785  27.8973  27.8974  30.9875  31.6426
    31.6426  31.7379  33.6047  36.8409  41.5280  41.8850  41.8850  43.0799
    43.4124  43.7722  43.7723  47.1899  47.3386  48.4829  48.4830  51.6798
    52.1810  52.1919  53.2302  55.3531

          k = 0.0476-0.0476 0.0476 (   802 PWs)   bands (ev):

     6.4999  10.0964  10.0964  10.0964  10.5107  10.5107  10.5107  11.7236
    12.1312  12.1312  12.6878  12.6878  12.6878  13.0810  13.0810  13.3281
    13.3281  13.3281  13.8720  13.8720  13.8720  17.0301  17.0301  17.0301
    25.3266  25.3267  25.3267  26.5934  26.5935  26.5935  31.1712  31.1712
    31.1713  33.4848  36.1718  36.1719  36.1720  39.2532  41.1412  41.1414
    42.8146  42.8147  42.8148  46.5931  47.6532  47.6533  51.6489  51.6490
    55.1820  55.2311  55.2311  55.2312

          k = 0.0476-0.0476 0.0952 (   805 PWs)   bands (ev):

     7.4814   9.9023  10.4795  10.4795  10.7963  10.8243  10.8243  11.5141
    11.9755  11.9755  12.1709  12.2104  12.2706  12.9260  12.9966  13.0823
    13.0823  13.3205  13.7747  13.7747  13.8070  14.7982  18.3725  18.3725
    22.7074  22.7075  26.6206  27.2448  27.2448  30.3591  30.3592  30.7473
    30.9498  32.6513  36.6499  37.7788  37.8532  38.7941  38.7943  42.3635
    43.5062  44.4711  47.0238  47.0239  47.8870  49.0867  50.2060  50.2061
    50.7023  53.0232  53.0813  55.6636

          k =-0.0952 0.0476 0.0476 (   805 PWs)   bands (ev):

     7.4814   9.9023  10.4795  10.4795  10.7963  10.8243  10.8243  11.5141
    11.9755  11.9755  12.1709  12.2104  12.2706  12.9260  12.9966  13.0823
    13.0823  13.3205  13.7747  13.7747  13.8070  14.7982  18.3725  18.3725
    22.7075  22.7075  26.6205  27.2448  27.2448  30.3591  30.3591  30.7473
    30.9498  32.6514  36.6500  37.7789  37.8532  38.7942  38.7942  42.3634
    43.5061  44.4709  47.0239  47.0240  47.8869  49.0867  50.2061  50.2061
    50.7023  53.0233  53.0814  55.6637

          k = 0.0476-0.0476-0.1427 (   800 PWs)   bands (ev):

     8.8538   8.8539  10.8667  10.8667  10.9246  10.9246  11.1679  11.1680
    11.5816  11.5816  12.0738  12.0738  12.5438  12.5438  12.9147  12.9147
    13.4900  13.4900  13.5966  13.5966  13.7187  13.7187  19.5214  19.5214
    21.1461  21.1462  28.2095  28.2096  28.4479  28.4479  28.9275  28.9276
    34.9398  34.9399  35.4188  35.4189  38.0979  38.0980  42.2055  42.2057
    44.7583  44.7584  45.3749  45.3750  49.4841  49.4842  50.9028  50.9029
    52.1877  52.1879  54.0335  54.0335

          k = 0.0952-0.0476 0.0952 (   802 PWs)   bands (ev):

     8.3203  10.2202  10.2202  10.5065  11.1116  11.1576  11.1576  11.5591
    11.7716  11.7716  11.9048  12.1296  12.2556  12.7338  12.7338  12.7503
    13.0530  13.6080  13.6774  13.6925  13.6925  15.8131  15.8131  18.6243
    20.8039  23.9045  23.9045  27.9457  28.0545  31.1365  31.1366  32.1216
    32.1216  34.0181  35.2441  36.9120  39.3272  39.3272  40.1546  43.0394
    43.7422  44.7870  46.4659  46.4659  49.1991  49.1991  50.4200  50.5997
    50.9276  51.6228  52.3117  52.9295

          k =-0.0952 0.0476 0.0952 (   802 PWs)   bands (ev):

     8.3203  10.2201  10.2202  10.5065  11.1116  11.1576  11.1576  11.5591
    11.7716  11.7716  11.9048  12.1296  12.2556  12.7339  12.7339  12.7503
    13.0530  13.6080  13.6774  13.6925  13.6925  15.8131  15.8131  18.6243
    20.8040  23.9044  23.9045  27.9457  28.0545  31.1365  31.1366  32.1216
    32.1216  34.0180  35.2442  36.9119  39.3273  39.3273  40.1546  43.0393
    43.7421  44.7869  46.4659  46.4660  49.1991  49.1991  50.4200  50.5996
    50.9276  51.6226  52.3118  52.9294

          k = 0.0952-0.0476-0.1427 (   802 PWs)   bands (ev):

     9.4037   9.4038  10.4415  10.4415  11.3251  11.3251  11.4732  11.4732
    11.7784  11.7785  11.8993  11.8994  12.4048  12.4049  12.6156  12.6156
    13.3502  13.3502  13.5779  13.5779  14.2700  14.2700  17.1906  17.1907
    21.8198  21.8199  25.6656  25.6657  29.4372  29.4373  33.0417  33.0418
    33.2548  33.2549  36.9066  36.9067  40.1386  40.1388  40.4475  40.4476
    45.1977  45.1978  45.6902  45.6903  47.7061  47.7062  50.5797  50.5797
    51.7937  51.7937  53.9176  53.9177

          k = 0.0952-0.0952 0.0952 (   807 PWs)   bands (ev):

     8.8644  10.0553  10.0553  10.0553  11.5161  11.5161  11.5162  12.0298
    12.0908  12.0909  12.0909  12.0965  12.0965  12.3797  12.3797  12.3797
    13.4559  13.4559  13.8208  13.8208  13.8208  16.1912  16.1912  16.1912
    21.4114  21.4115  21.4115  25.1523  32.5024  32.5024  32.5025  35.2457
    35.2457  35.2458  37.2759  37.2759  37.2760  37.7921  39.9543  39.9544
    44.4509  44.4509  47.7793  48.0704  48.0704  48.0705  48.1450  48.1450
    48.1451  52.4520  52.4521  52.4521

          k = 0.0952-0.0952-0.1427 (   806 PWs)   bands (ev):

     9.4908   9.4908   9.9868   9.9868  11.6360  11.6360  11.9225  11.9226
    12.1392  12.1392  12.2596  12.2596  12.2738  12.2739  12.3739  12.3740
    13.7413  13.7413  13.7492  13.7492  14.1599  14.1599  16.4753  16.4753
    20.3826  20.3827  22.9696  22.9697  33.4183  33.4184  34.6288  34.6288
    36.3321  36.3322  37.2486  37.2486  38.9962  38.9962  39.4399  39.4401
    44.6598  44.6599  44.9089  44.9090  46.0224  46.0225  48.5556  48.5556
    49.6133  49.6133  52.9965  52.9965

 ------ SPIN DOWN ----------


          k = 0.0000 0.0000 0.0000 (   799 PWs)   bands (ev):

     5.3760  10.1775  10.1776  10.1776  10.8869  10.8869  10.8869  12.8278
    12.8278  12.8278  13.9064  13.9064  14.6582  14.6582  14.6582  14.9434
    14.9434  14.9434  14.9434  14.9434  14.9434  16.9923  16.9923  16.9923
    24.1177  24.1177  24.1177  29.5537  29.5537  29.5538  29.5538  29.5539
    29.5539  34.8175  34.8175  34.8175  38.1377  38.1380  38.1380  38.2897
    42.4422  42.4424  42.4424  46.1536  46.1538  46.1538  48.0164  55.3581
    55.3582  55.3582  58.3670  59.5961

          k =-0.0000-0.0000 0.0476 (   791 PWs)   bands (ev):

     5.7422  10.1530  10.3717  10.3718  11.0062  11.0107  11.0107  12.6858
    12.9343  12.9343  13.7789  13.9553  14.0997  14.0997  14.4911  14.4912
    14.6062  14.7507  14.7507  14.9436  14.9436  15.5407  18.1369  18.1369
    24.1987  24.1987  26.2635  27.8854  27.8854  28.4717  28.4717  30.1305
    30.1306  34.9216  36.9059  36.9059  37.7231  38.2673  40.0722  40.0723
    40.2945  40.2946  40.8474  47.5193  48.1068  48.1069  49.2216  51.5587
    56.4776  56.4777  56.6016  56.6016

          k =-0.0000-0.0000 0.0952 (   804 PWs)   bands (ev):

     6.7957   9.7158  10.8331  10.8331  11.3393  11.3883  11.3883  12.3075
    12.9532  12.9532  13.2440  13.2440  13.4581  13.6774  14.0792  14.0793
    14.0898  14.2757  14.2757  14.4655  14.9442  14.9442  20.1780  20.1780
    24.4715  24.4715  25.1844  25.1844  26.7750  26.7750  30.4572  31.7446
    31.7447  35.2466  36.6972  37.1030  37.1031  38.2608  38.8232  40.8733
    40.8733  44.2149  44.2150  44.3655  50.8868  50.9548  50.9549  50.9795
    50.9795  54.9362  56.2270  56.2270

          k = 0.0000 0.0000-0.1427 (   820 PWs)   bands (ev):

     8.3389   8.3389  11.1248  11.1248  11.8121  11.8121  12.0337  12.0337
    12.0337  12.0337  13.1912  13.1913  13.7201  13.7202  13.7202  13.7202
    13.8095  13.8096  14.2761  14.2761  14.9445  14.9445  22.5604  22.5604
    22.5605  22.5605  24.7951  24.7951  25.8890  25.8890  34.1515  34.1515
    34.1516  34.1516  34.8920  34.8923  35.8302  35.8303  40.4620  40.4622
    45.6229  45.6229  45.6231  45.6231  47.6931  47.6933  52.5011  52.5011
    54.0656  54.0657  54.0658  54.0658

          k =-0.0000 0.0476 0.0476 (   798 PWs)   bands (ev):

     6.1007  10.3639  10.3639  10.5537  11.1100  11.1205  11.1205  12.6122
    12.9846  12.9891  13.6987  13.7400  13.7400  13.7523  13.9554  14.3527
    14.4787  14.4788  14.7496  14.7496  14.8202  16.7176  16.7176  18.9656
    24.1607  25.2293  26.4375  26.4375  28.3777  28.3778  28.9777  28.9778
    30.6670  36.1137  36.1445  37.1038  37.1039  37.3520  40.2367  40.2368
    41.1901  42.6952  43.5011  45.1785  46.4344  49.9502  50.3840  53.2765
    53.6541  55.3187  55.3187  56.2458

          k =-0.0000 0.0476 0.0952 (   808 PWs)   bands (ev):

     7.1303   9.9663  10.8801  10.9985  11.3933  11.4261  11.4674  12.2997
    12.6767  12.8458  13.0396  13.0800  13.2602  13.5812  14.0032  14.0887
    14.1587  14.2449  14.2741  14.7467  14.7558  15.1459  18.3562  20.7871
    22.2801  24.8382  25.6568  26.6699  27.5270  29.7171  29.9656  30.0268
    31.1139  33.8050  34.5110  37.7265  38.6739  40.3437  40.5187  40.8698
    41.1230  44.1242  45.2384  47.1288  47.7110  48.5770  49.8830  51.2627
    52.9009  53.1716  55.0714  56.9917

          k = 0.0000 0.0476-0.1427 (   812 PWs)   bands (ev):

     8.6324   8.6325  11.2683  11.2683  11.8565  11.8566  11.8688  11.8689
    12.0509  12.0509  12.9108  12.9109  13.7236  13.7237  13.7984  13.7984
    13.7986  13.7987  14.5015  14.5015  14.7451  14.7451  20.1677  20.1677
    23.0714  23.0714  25.5851  25.5852  28.4276  28.4277  31.6132  31.6132
    32.0796  32.0797  35.8564  35.8566  38.8336  38.8337  42.3670  42.3672
    43.1099  43.1100  45.8955  45.8957  50.1516  50.1518  50.2905  50.2907
    52.5323  52.5324  53.3950  53.3951

          k =-0.0000 0.0952 0.0952 (   812 PWs)   bands (ev):

     8.0802  10.6044  10.6044  11.3620  11.4440  11.6819  11.6819  12.2018
    12.3482  12.3482  12.5216  12.9192  13.4042  13.4776  13.7758  13.9147
    13.9147  14.2782  14.2782  14.4681  14.5450  16.2880  16.2880  19.6082
    22.3290  25.3590  26.9453  26.9453  27.9986  27.9986  31.1183  31.7315
    31.7315  31.8054  33.6574  36.8767  41.4644  41.8666  41.8667  43.1146
    43.2948  43.8146  43.8147  47.3112  47.3679  48.5280  48.5280  51.7392
    52.0685  52.1357  53.4341  55.2556

          k = 0.0000 0.0952-0.1427 (   806 PWs)   bands (ev):

     9.4308   9.4308  11.2217  11.2218  11.8481  11.8481  11.9634  11.9634
    12.0782  12.0782  12.6009  12.6010  13.5704  13.5704  13.6443  13.6443
    13.7704  13.7704  14.3208  14.3208  15.1701  15.1701  17.6781  17.6782
    24.4397  24.4397  26.3803  26.3804  28.8167  28.8168  29.6294  29.6295
    33.0228  33.0229  36.8206  36.8208  40.3658  40.3659  42.9986  42.9987
    43.2360  43.2361  46.6817  46.6818  48.0120  48.0122  50.3793  50.3795
    51.8934  51.8935  53.4803  53.4803

          k = 0.0000-0.1427-0.1427 (   784 PWs)   bands (ev):

    10.4421  10.4422  10.4422  10.4422  12.0575  12.0576  12.0576  12.0577
    12.2981  12.2981  12.2981  12.2982  13.4277  13.4277  13.4277  13.4278
    13.9531  13.9531  13.9531  13.9531  16.1162  16.1162  16.1162  16.1162
    26.4044  26.4045  26.4045  26.4045  27.7038  27.7038  27.7039  27.7039
    37.9697  37.9697  37.9698  37.9698  38.4677  38.4679  38.4679  38.4680
    47.0592  47.0592  47.0592  47.0593  49.1855  49.1856  49.1856  49.1857
    51.9225  51.9225  51.9226  51.9226

          k = 0.0476 0.0476 0.0476 (   802 PWs)   bands (ev):

     6.4493  10.5518  10.5518  10.5518  11.2116  11.2116  11.2116  12.5572
    13.0097  13.0097  13.3987  13.3987  13.3987  13.8678  13.8678  14.1596
    14.1597  14.1597  14.8207  14.8207  14.8207  17.3713  17.3714  17.3714
    25.4582  25.4582  25.4582  26.7668  26.7668  26.7668  31.1932  31.1933
    31.1933  33.5511  36.2668  36.2669  36.2669  39.0976  41.1939  41.1939
    42.8989  42.8990  42.8990  46.5056  47.6104  47.6104  51.8157  51.8157
    55.1844  55.1844  55.1844  56.0681

          k = 0.0476 0.0476 0.0952 (   805 PWs)   bands (ev):

     7.4464  10.1650  11.0113  11.0113  11.4530  11.4530  11.5089  12.3100
    12.6781  12.6781  12.8436  13.0412  13.1313  13.7726  13.8069  13.8696
    13.8696  14.1433  14.7086  14.7383  14.7383  15.4289  18.6996  18.6996
    22.9177  22.9177  26.7647  27.3938  27.3939  30.4342  30.4342  30.8612
    31.0372  32.6979  36.7245  37.6845  37.9305  38.8245  38.8245  42.3710
    43.5866  44.4886  47.0680  47.0680  47.9289  49.0324  50.1949  50.1949
    50.7093  52.9521  53.0413  55.7787

          k = 0.0476 0.0476-0.1427 (   800 PWs)   bands (ev):

     8.8885   8.8885  11.4389  11.4390  11.5062  11.5062  11.9191  11.9192
    12.2959  12.2959  12.8238  12.8239  13.3947  13.3948  13.6788  13.6788
    14.2950  14.2951  14.4582  14.4582  14.6907  14.6907  19.7788  19.7789
    21.4502  21.4503  28.3244  28.3244  28.5897  28.5898  29.0424  29.0424
    35.0093  35.0094  35.3919  35.3921  38.1752  38.1754  42.1868  42.1869
    44.8451  44.8452  45.3639  45.3639  49.4045  49.4047  50.8570  50.8571
    52.2211  52.2212  54.0773  54.0774

          k = 0.0476 0.0952 0.0952 (   802 PWs)   bands (ev):

     8.3324  10.6130  10.6130  11.1251  11.6189  11.7598  11.7598  12.2860
    12.4920  12.4920  12.6169  12.9307  13.0801  13.5336  13.5337  13.5359
    13.8968  14.4574  14.6061  14.6061  14.6229  16.3667  16.3667  18.8992
    21.1480  24.1215  24.1216  28.1074  28.1822  31.2003  31.2003  32.2142
    32.2142  34.0728  35.2697  36.9371  39.3420  39.3420  40.0783  43.1531
    43.7338  44.7326  46.4598  46.4598  49.2539  49.2539  50.3515  50.5832
    50.9039  51.6952  52.3770  52.8563

          k = 0.0476 0.0952-0.1427 (   802 PWs)   bands (ev):

     9.5533   9.5533  10.9766  10.9766  11.8797  11.8797  12.1195  12.1196
    12.4724  12.4725  12.6600  12.6600  13.2093  13.2093  13.3905  13.3905
    14.2158  14.2158  14.5140  14.5141  15.0633  15.0634  17.6019  17.6019
    22.1201  22.1202  25.8656  25.8657  29.5378  29.5379  33.0985  33.0986
    33.3238  33.3239  36.9195  36.9197  40.1228  40.1229  40.4702  40.4703
    45.1848  45.1849  45.6819  45.6820  47.6868  47.6870  50.6177  50.6178
    51.7329  51.7329  54.0130  54.0132

          k = 0.0476-0.1427-0.1427 (   820 PWs)   bands (ev):

    10.3304  10.3304  10.3304  10.3304  12.2867  12.2867  12.2867  12.2867
    12.5067  12.5068  12.5068  12.5068  13.1538  13.1538  13.1539  13.1539
    14.2451  14.2452  14.2452  14.2452  15.9907  15.9907  15.9907  15.9907
    23.7117  23.7118  23.7118  23.7118  31.0575  31.0576  31.0577  31.0577
    38.2478  38.2479  38.2479  38.2480  38.2952  38.2953  38.2954  38.2955
    46.5904  46.5904  46.5904  46.5905  46.7893  46.7893  46.7894  46.7895
    54.8776  54.8777  54.8777  54.8779

          k = 0.0952 0.0952 0.0952 (   807 PWs)   bands (ev):

     8.9976  10.5652  10.5652  10.5652  12.0753  12.0753  12.0753  12.5528
    12.7707  12.7707  12.7707  12.8979  12.8979  13.1711  13.1712  13.1712
    14.3372  14.3372  14.7487  14.7487  14.7487  16.6180  16.6180  16.6180
    21.7501  21.7501  21.7502  25.3776  32.5487  32.5488  32.5488  35.3073
    35.3073  35.3073  37.2886  37.2887  37.2887  37.6210  40.0406  40.0406
    44.4601  44.4601  47.7945  48.0187  48.0188  48.0188  48.1464  48.1464
    48.1464  52.4829  52.4829  52.4829

          k = 0.0952 0.0952-0.1427 (   806 PWs)   bands (ev):

     9.8231   9.8232  10.5251  10.5251  12.2678  12.2679  12.5812  12.5813
    12.8285  12.8285  12.9317  12.9317  12.9739  12.9740  13.0386  13.0387
    14.6504  14.6505  14.6779  14.6780  14.8760  14.8760  16.8071  16.8071
    20.8198  20.8198  23.2590  23.2591  33.4260  33.4261  34.7149  34.7149
    36.2232  36.2234  37.3211  37.3212  39.0766  39.0767  39.4146  39.4146
    44.6863  44.6863  44.8860  44.8862  46.0307  46.0308  48.5152  48.5152
    49.6666  49.6667  53.1049  53.1049

          k = 0.0952-0.1427-0.1427 (   816 PWs)   bands (ev):

    10.1374  10.1374  10.1374  10.1374  12.6152  12.6152  12.6152  12.6153
    12.8479  12.8479  12.8479  12.8479  13.2611  13.2611  13.2612  13.2612
    14.5877  14.5877  14.5877  14.5877  15.4998  15.4998  15.4998  15.4998
    21.4890  21.4890  21.4890  21.4891  35.1310  35.1311  35.1312  35.1312
    38.1887  38.1887  38.1888  38.1888  39.0109  39.0109  39.0109  39.0110
    44.1329  44.1329  44.1330  44.1331  45.1558  45.1558  45.1559  45.1559
    50.5227  50.5228  50.5228  50.5229

          k =-0.1427-0.1427-0.1427 (   840 PWs)   bands (ev):

    10.0521  10.0521  10.0521  10.0522  12.7335  12.7335  12.7335  12.7335
    12.7335  12.7335  12.7336  12.7336  14.1928  14.1928  14.1929  14.1929
    14.7204  14.7204  14.7204  14.7204  14.7204  14.7204  14.7204  14.7204
    20.6972  20.6972  20.6972  20.6973  36.7660  36.7662  36.7662  36.7663
    39.6468  39.6468  39.6469  39.6469  39.6470  39.6470  39.6470  39.6470
    42.8410  42.8410  42.8410  42.8411  42.8411  42.8411  42.8412  42.8412
    48.9004  48.9004  48.9005  48.9005

          k =-0.0476 0.0000 0.0476 (   798 PWs)   bands (ev):

     6.1007  10.3639  10.3639  10.5537  11.1100  11.1205  11.1205  12.6122
    12.9846  12.9891  13.6987  13.7400  13.7400  13.7523  13.9554  14.3527
    14.4787  14.4788  14.7496  14.7496  14.8202  16.7176  16.7176  18.9657
    24.1607  25.2294  26.4375  26.4375  28.3777  28.3778  28.9777  28.9777
    30.6668  36.1138  36.1444  37.1039  37.1039  37.3521  40.2367  40.2368
    41.1900  42.6953  43.5010  45.1785  46.4343  49.9501  50.3841  53.2766
    53.6541  55.3188  55.3188  56.2458

          k =-0.0476-0.0000 0.0952 (   808 PWs)   bands (ev):

     7.1303   9.9663  10.8801  10.9985  11.3933  11.4261  11.4674  12.2997
    12.6767  12.8458  13.0395  13.0800  13.2602  13.5812  14.0031  14.0887
    14.1587  14.2449  14.2741  14.7467  14.7558  15.1459  18.3562  20.7871
    22.2802  24.8383  25.6568  26.6699  27.5270  29.7171  29.9656  30.0267
    31.1140  33.8050  34.5111  37.7266  38.6738  40.3436  40.5187  40.8698
    41.1230  44.1243  45.2383  47.1290  47.7109  48.5769  49.8830  51.2627
    52.9010  53.1717  55.0713  56.9918

          k =-0.0952 0.0000 0.0952 (   812 PWs)   bands (ev):

     8.0803  10.6044  10.6044  11.3620  11.4440  11.6819  11.6819  12.2018
    12.3482  12.3482  12.5216  12.9192  13.4042  13.4775  13.7757  13.9147
    13.9147  14.2782  14.2782  14.4681  14.5450  16.2879  16.2880  19.6083
    22.3290  25.3591  26.9452  26.9453  27.9985  27.9986  31.1184  31.7315
    31.7315  31.8054  33.6573  36.8766  41.4644  41.8667  41.8667  43.1145
    43.2947  43.8147  43.8148  47.3111  47.3678  48.5280  48.5281  51.7393
    52.0684  52.1357  53.4340  55.2557

          k = 0.0476-0.0476 0.0476 (   802 PWs)   bands (ev):

     6.4493  10.5518  10.5518  10.5518  11.2116  11.2116  11.2116  12.5573
    13.0096  13.0097  13.3987  13.3987  13.3987  13.8677  13.8677  14.1596
    14.1596  14.1597  14.8207  14.8207  14.8207  17.3713  17.3713  17.3713
    25.4581  25.4582  25.4582  26.7668  26.7669  26.7669  31.1932  31.1932
    31.1933  33.5513  36.2668  36.2668  36.2669  39.0975  41.1938  41.1939
    42.8990  42.8991  42.8991  46.5056  47.6103  47.6104  51.8156  51.8157
    55.1844  55.1844  55.1845  56.0679

          k = 0.0476-0.0476 0.0952 (   805 PWs)   bands (ev):

     7.4465  10.1650  11.0113  11.0113  11.4530  11.4530  11.5089  12.3100
    12.6781  12.6781  12.8436  13.0412  13.1313  13.7726  13.8069  13.8696
    13.8696  14.1433  14.7086  14.7383  14.7383  15.4289  18.6996  18.6996
    22.9177  22.9178  26.7648  27.3939  27.3939  30.4341  30.4342  30.8614
    31.0372  32.6978  36.7244  37.6844  37.9303  38.8244  38.8245  42.3710
    43.5867  44.4886  47.0680  47.0682  47.9288  49.0323  50.1949  50.1950
    50.7093  52.9522  53.0413  55.7786

          k =-0.0952 0.0476 0.0476 (   805 PWs)   bands (ev):

     7.4465  10.1650  11.0113  11.0113  11.4530  11.4530  11.5089  12.3100
    12.6781  12.6781  12.8436  13.0412  13.1313  13.7726  13.8069  13.8696
    13.8696  14.1433  14.7086  14.7383  14.7383  15.4289  18.6996  18.6996
    22.9178  22.9178  26.7647  27.3939  27.3939  30.4341  30.4341  30.8614
    31.0372  32.6980  36.7245  37.6845  37.9304  38.8244  38.8245  42.3709
    43.5867  44.4884  47.0682  47.0682  47.9287  49.0323  50.1950  50.1950
    50.7092  52.9523  53.0414  55.7787

          k = 0.0476-0.0476-0.1427 (   800 PWs)   bands (ev):

     8.8885   8.8885  11.4389  11.4390  11.5062  11.5062  11.9191  11.9192
    12.2959  12.2959  12.8238  12.8239  13.3947  13.3947  13.6787  13.6788
    14.2950  14.2951  14.4582  14.4582  14.6907  14.6907  19.7788  19.7789
    21.4502  21.4502  28.3244  28.3245  28.5898  28.5898  29.0424  29.0424
    35.0092  35.0093  35.3918  35.3920  38.1752  38.1753  42.1867  42.1869
    44.8452  44.8453  45.3639  45.3640  49.4046  49.4047  50.8569  50.8570
    52.2211  52.2213  54.0774  54.0774

          k = 0.0952-0.0476 0.0952 (   802 PWs)   bands (ev):

     8.3324  10.6131  10.6131  11.1251  11.6189  11.7598  11.7598  12.2860
    12.4920  12.4920  12.6169  12.9307  13.0801  13.5336  13.5336  13.5359
    13.8968  14.4573  14.6061  14.6061  14.6229  16.3667  16.3667  18.8992
    21.1479  24.1216  24.1216  28.1075  28.1823  31.2003  31.2003  32.2142
    32.2143  34.0728  35.2696  36.9372  39.3419  39.3419  40.0782  43.1531
    43.7337  44.7326  46.4598  46.4598  49.2540  49.2540  50.3516  50.5832
    50.9038  51.6952  52.3771  52.8564

          k =-0.0952 0.0476 0.0952 (   802 PWs)   bands (ev):

     8.3324  10.6130  10.6130  11.1251  11.6189  11.7598  11.7598  12.2860
    12.4920  12.4920  12.6169  12.9307  13.0801  13.5336  13.5337  13.5359
    13.8968  14.4574  14.6061  14.6061  14.6229  16.3667  16.3667  18.8992
    21.1480  24.1215  24.1216  28.1075  28.1823  31.2002  31.2004  32.2142
    32.2143  34.0727  35.2697  36.9371  39.3420  39.3421  40.0782  43.1530
    43.7337  44.7325  46.4599  46.4599  49.2540  49.2540  50.3515  50.5831
    50.9039  51.6951  52.3772  52.8564

          k = 0.0952-0.0476-0.1427 (   802 PWs)   bands (ev):

     9.5533   9.5533  10.9766  10.9766  11.8797  11.8797  12.1195  12.1196
    12.4724  12.4724  12.6600  12.6600  13.2093  13.2093  13.3905  13.3905
    14.2158  14.2158  14.5140  14.5141  15.0633  15.0634  17.6019  17.6019
    22.1201  22.1202  25.8657  25.8657  29.5378  29.5379  33.0984  33.0985
    33.3239  33.3239  36.9195  36.9197  40.1228  40.1229  40.4701  40.4702
    45.1848  45.1849  45.6819  45.6820  47.6869  47.6870  50.6178  50.6178
    51.7330  51.7330  54.0131  54.0132

          k = 0.0952-0.0952 0.0952 (   807 PWs)   bands (ev):

     8.9976  10.5652  10.5652  10.5652  12.0753  12.0753  12.0753  12.5528
    12.7707  12.7707  12.7707  12.8979  12.8979  13.1711  13.1711  13.1712
    14.3372  14.3372  14.7487  14.7487  14.7487  16.6180  16.6180  16.6180
    21.7501  21.7501  21.7502  25.3777  32.5488  32.5488  32.5489  35.3072
    35.3072  35.3073  37.2885  37.2886  37.2887  37.6209  40.0405  40.0406
    44.4600  44.4600  47.7945  48.0188  48.0188  48.0189  48.1464  48.1464
    48.1465  52.4830  52.4831  52.4831

          k = 0.0952-0.0952-0.1427 (   806 PWs)   bands (ev):

     9.8232   9.8232  10.5251  10.5251  12.2679  12.2679  12.5812  12.5813
    12.8285  12.8285  12.9317  12.9317  12.9739  12.9740  13.0386  13.0387
    14.6504  14.6505  14.6779  14.6779  14.8760  14.8760  16.8071  16.8071
    20.8197  20.8198  23.2591  23.2591  33.4261  33.4261  34.7149  34.7150
    36.2232  36.2233  37.3211  37.3211  39.0766  39.0767  39.4145  39.4147
    44.6862  44.6864  44.8861  44.8861  46.0307  46.0307  48.5153  48.5154
    49.6667  49.6667  53.1050  53.1050

     the Fermi energy is    14.4934 ev

!    total energy              =    -343.62960682 Ry
     Harris-Foulkes estimate   =    -343.62958162 Ry
     estimated scf accuracy    <          1.9E-11 Ry

     The total energy is the sum of the following terms:

     one-electron contribution =      -6.38311149 Ry
     hartree contribution      =      60.35050846 Ry
     xc contribution           =    -120.51493211 Ry
     ewald contribution        =    -277.03365386 Ry
     Dispersion Correction     =      -0.04784347 Ry
     smearing contrib. (-TS)   =      -0.00057435 Ry

     total magnetization       =     2.84 Bohr mag/cell
     absolute magnetization    =     3.25 Bohr mag/cell

     convergence has been achieved in  18 iterations

     Forces acting on atoms (Ry/au):

     atom    1 type  1   force =     0.00000759    0.00000759   -0.00000707
     atom    2 type  1   force =    -0.00000812   -0.00000812   -0.00000812
     atom    3 type  1   force =     0.00000759   -0.00000707    0.00000759
     atom    4 type  1   force =    -0.00000707    0.00000759    0.00000759

     Total force =     0.000026     Total SCF correction =     0.000000


     entering subroutine stress ...

          total   stress  (Ry/bohr**3)                   (kbar)     P=   -0.04
  -0.00000028  -0.00000004  -0.00000004         -0.04     -0.01     -0.01
  -0.00000004  -0.00000028  -0.00000004         -0.01     -0.04     -0.01
  -0.00000004  -0.00000004  -0.00000028         -0.01     -0.01     -0.04


     Writing output data file Ni-ferromag.save

     init_run     :     15.09s CPU     15.55s WALL (       2 calls)
     electrons    :   1252.17s CPU   1297.11s WALL (       6 calls)
     update_pot   :     22.01s CPU     22.09s WALL (       4 calls)
     forces       :     32.64s CPU     32.91s WALL (       6 calls)
     stress       :     66.59s CPU     67.41s WALL (       6 calls)

     Called by init_run:
     wfcinit      :      8.93s CPU      9.28s WALL (       2 calls)
     potinit      :      1.78s CPU      1.83s WALL (       2 calls)

     Called by electrons:
     c_bands      :   1038.07s CPU   1072.63s WALL (      79 calls)
     sum_band     :    168.96s CPU    176.22s WALL (      79 calls)
     v_of_rho     :     23.72s CPU     24.66s WALL (      84 calls)
     newd         :     22.81s CPU     24.84s WALL (      84 calls)
     mix_rho      :      1.19s CPU      1.38s WALL (      79 calls)

     Called by c_bands:
     init_us_2    :      6.96s CPU      7.57s WALL (   11008 calls)
     cegterg      :   1013.53s CPU   1047.74s WALL (    5056 calls)

     Called by sum_band:
     sum_band:bec :      0.86s CPU      0.84s WALL (    5056 calls)
     addusdens    :     33.50s CPU     35.43s WALL (      79 calls)

     Called by *egterg:
     h_psi        :    495.51s CPU    517.54s WALL (   14412 calls)
     s_psi        :     70.47s CPU     70.55s WALL (   14412 calls)
     g_psi        :      3.03s CPU      3.04s WALL (    9228 calls)
     cdiaghg      :    144.51s CPU    144.59s WALL (   13964 calls)

     Called by h_psi:
     add_vuspsi   :     70.56s CPU     70.65s WALL (   14412 calls)

     General routines
     calbec       :    126.83s CPU    126.94s WALL (   21388 calls)
     fft          :      8.18s CPU      8.97s WALL (    2816 calls)
     ffts         :      0.11s CPU      0.14s WALL (     326 calls)
     fftw         :    336.05s CPU    362.26s WALL ( 1434856 calls)
     interpolate  :      1.13s CPU      1.43s WALL (     326 calls)

     Parallel routines
     fft_scatter  :     21.95s CPU     27.95s WALL ( 1437998 calls)

     PWSCF        : 23m10.88s CPU    23m57.69s WALL


   This run was terminated on:   0:58: 8  27May2016            

=------------------------------------------------------------------------------=
   JOB DONE.
=------------------------------------------------------------------------------=
