
     Program PWSCF v.5.3.0 (svn rev. 11974) starts on 27May2016 at  0:58: 8 

     This program is part of the open-source Quantum ESPRESSO suite
     for quantum simulation of materials; please cite
         "P. Giannozzi et al., J. Phys.:Condens. Matter 21 395502 (2009);
          URL http://www.quantum-espresso.org", 
     in publications or presentations arising from this work. More details at
     http://www.quantum-espresso.org/quote

     Parallel version (MPI), running on     1 processors
     Waiting for input...
     Reading input from standard input
     Message from routine read_cards :
     DEPRECATED: no units specified in CELL_PARAMETERS card

     Current dimensions of program PWSCF are:
     Max number of different atomic species (ntypx) = 10
     Max number of k-points (npk) =  40000
     Max angular momentum in pseudopotentials (lmaxx) =  3
               file Ni.pbe-nd-rrkjus.UPF: wavefunction(s)  4S renormalized

     -------------------------------------
     Parameters for Dispersion Correction:
     -------------------------------------
       atom      VdW radius       C_6     

        Ni1        3.014        159.927

     Subspace diagonalization in iterative solution of the eigenvalue problem:
     a serial algorithm will be used


     G-vector sticks info
     --------------------
     sticks:   dense  smooth     PW     G-vecs:    dense   smooth      PW
     Sum        1413     497    161                39847     8289    1503

     Generating pointlists ...
     new r_m :   0.4125 (alat units)  0.7795 (a.u.) for type    1

     Title: 
     Ni-ferro-mag                                                               


     bravais-lattice index     =            0
     lattice parameter (alat)  =       1.8897  a.u.
     unit-cell volume          =     295.0010 (a.u.)^3
     number of atoms/cell      =            4
     number of atomic types    =            1
     number of electrons       =        40.00
     number of Kohn-Sham states=           52
     kinetic-energy cutoff     =      35.0000  Ry
     charge density cutoff     =     400.0000  Ry
     convergence threshold     =      1.0E-08
     mixing beta               =       0.2000
     number of iterations used =            8  plain     mixing
     Exchange-correlation      =  SLA  PW   PBE  PBE ( 1  4  3  4 0 0)
     nstep                     =           50


     celldm(1)=   1.889726  celldm(2)=   0.000000  celldm(3)=   0.000000
     celldm(4)=   0.000000  celldm(5)=   0.000000  celldm(6)=   0.000000

     crystal axes: (cart. coord. in units of alat)
               a(1) = (   3.522700   0.000000   0.000000 )  
               a(2) = (   0.000000   3.522700   0.000000 )  
               a(3) = (   0.000000   0.000000   3.522700 )  

     reciprocal axes: (cart. coord. in units 2 pi/alat)
               b(1) = (  0.283873  0.000000  0.000000 )  
               b(2) = (  0.000000  0.283873  0.000000 )  
               b(3) = (  0.000000  0.000000  0.283873 )  


     PseudoPot. # 1 for Ni read from file:
     /home/eliot/pseudo/Ni.pbe-nd-rrkjus.UPF
     MD5 check sum: 8081f0a005c9a5470caab1a58e82ecb2
     Pseudo is Ultrasoft + core correction, Zval = 10.0
     Generated by new atomic code, or converted to UPF format
     Using radial grid of 1203 points,  6 beta functions with: 
                l(1) =   0
                l(2) =   0
                l(3) =   1
                l(4) =   1
                l(5) =   2
                l(6) =   2
     Q(r) pseudized with 0 coefficients 


     atomic species   valence    mass     pseudopotential
        Ni1           10.00    58.69340     Ni( 1.00)

     Starting magnetic structure 
     atomic species   magnetization
        Ni1          0.500

      6 Sym. Ops. (no inversion) found



   Cartesian axes

     site n.     atom                  positions (alat units)
         1           Ni1 tau(   1) = (   1.7691699   1.7691699   0.0000000  )
         2           Ni1 tau(   2) = (   0.0000000   0.0000000   0.0000000  )
         3           Ni1 tau(   3) = (   1.7691699   0.0000000   1.7691699  )
         4           Ni1 tau(   4) = (   0.0000000   1.7691699   1.7691699  )

     number of k points=    32  Methfessel-Paxton smearing, width (Ry)=  0.0500
                       cart. coord. in units 2pi/alat
        k(    1) = (   0.0000000   0.0000000   0.0000000), wk =   0.0046296
        k(    2) = (   0.0000000   0.0000000   0.0473122), wk =   0.0277778
        k(    3) = (   0.0000000   0.0000000   0.0946244), wk =   0.0277778
        k(    4) = (   0.0000000   0.0000000  -0.1419366), wk =   0.0138889
        k(    5) = (   0.0000000   0.0473122   0.0473122), wk =   0.0277778
        k(    6) = (   0.0000000   0.0473122   0.0946244), wk =   0.0555556
        k(    7) = (   0.0000000   0.0473122  -0.1419366), wk =   0.0555556
        k(    8) = (   0.0000000   0.0946244   0.0946244), wk =   0.0277778
        k(    9) = (   0.0000000   0.0946244  -0.1419366), wk =   0.0555556
        k(   10) = (   0.0000000  -0.1419366  -0.1419366), wk =   0.0138889
        k(   11) = (   0.0473122   0.0473122   0.0473122), wk =   0.0092593
        k(   12) = (   0.0473122   0.0473122   0.0946244), wk =   0.0277778
        k(   13) = (   0.0473122   0.0473122  -0.1419366), wk =   0.0277778
        k(   14) = (   0.0473122   0.0946244   0.0946244), wk =   0.0277778
        k(   15) = (   0.0473122   0.0946244  -0.1419366), wk =   0.0555556
        k(   16) = (   0.0473122  -0.1419366  -0.1419366), wk =   0.0277778
        k(   17) = (   0.0946244   0.0946244   0.0946244), wk =   0.0092593
        k(   18) = (   0.0946244   0.0946244  -0.1419366), wk =   0.0277778
        k(   19) = (   0.0946244  -0.1419366  -0.1419366), wk =   0.0277778
        k(   20) = (  -0.1419366  -0.1419366  -0.1419366), wk =   0.0046296
        k(   21) = (  -0.0473122   0.0000000   0.0473122), wk =   0.0277778
        k(   22) = (  -0.0473122   0.0000000   0.0946244), wk =   0.0555556
        k(   23) = (  -0.0946244   0.0000000   0.0946244), wk =   0.0277778
        k(   24) = (   0.0473122  -0.0473122   0.0473122), wk =   0.0277778
        k(   25) = (   0.0473122  -0.0473122   0.0946244), wk =   0.0555556
        k(   26) = (  -0.0946244   0.0473122   0.0473122), wk =   0.0277778
        k(   27) = (   0.0473122  -0.0473122  -0.1419366), wk =   0.0277778
        k(   28) = (   0.0946244  -0.0473122   0.0946244), wk =   0.0277778
        k(   29) = (  -0.0946244   0.0473122   0.0946244), wk =   0.0555556
        k(   30) = (   0.0946244  -0.0473122  -0.1419366), wk =   0.0555556
        k(   31) = (   0.0946244  -0.0946244   0.0946244), wk =   0.0277778
        k(   32) = (   0.0946244  -0.0946244  -0.1419366), wk =   0.0277778

     Dense  grid:    39847 G-vectors     FFT dimensions: (  45,  45,  45)

     Smooth grid:     8289 G-vectors     FFT dimensions: (  25,  25,  25)

     Largest allocated arrays     est. size (Mb)     dimensions
        Kohn-Sham Wavefunctions         0.84 Mb     (    1064,   52)
        NL pseudopotentials             1.17 Mb     (    1064,   72)
        Each V/rho on FFT grid          2.78 Mb     (   91125,   2)
        Each G-vector array             0.30 Mb     (   39847)
        G-vector shells                 0.30 Mb     (   39847)
     Largest temporary arrays     est. size (Mb)     dimensions
        Auxiliary wavefunctions         3.38 Mb     (    1064,  208)
        Each subspace H/S matrix        0.66 Mb     (     208,  208)
        Each <psi_i|beta_j> matrix      0.06 Mb     (      72,   52)
        Arrays for rho mixing          11.12 Mb     (   91125,    8)

     Check: negative/imaginary core charge=   -0.000005    0.000000

     Initial potential from superposition of free atoms

     starting charge   39.99816, renormalised to   40.00000
     Starting wfc are   24 randomized atomic wfcs +   28 random wfc

     total cpu time spent up to now is       10.9 secs

     Self-consistent Calculation

     iteration #  1     ecut=    35.00 Ry     beta=0.20
     Davidson diagonalization with overlap
     ethr =  1.00E-02,  avg # of iterations =  6.0

     total cpu time spent up to now is       56.8 secs

     total energy              =    -342.90114006 Ry
     Harris-Foulkes estimate   =    -343.18479862 Ry
     estimated scf accuracy    <       2.43644180 Ry

     total magnetization       =     6.92 Bohr mag/cell
     absolute magnetization    =     6.92 Bohr mag/cell

     iteration #  2     ecut=    35.00 Ry     beta=0.20
     Davidson diagonalization with overlap
     ethr =  6.09E-03,  avg # of iterations =  1.0

     total cpu time spent up to now is       74.3 secs

     total energy              =    -343.20590613 Ry
     Harris-Foulkes estimate   =    -343.04036846 Ry
     estimated scf accuracy    <       0.77192393 Ry

     total magnetization       =     5.77 Bohr mag/cell
     absolute magnetization    =     5.87 Bohr mag/cell

     iteration #  3     ecut=    35.00 Ry     beta=0.20
     Davidson diagonalization with overlap
     ethr =  1.93E-03,  avg # of iterations =  1.6

     total cpu time spent up to now is       92.3 secs

     total energy              =    -343.53107616 Ry
     Harris-Foulkes estimate   =    -343.27798742 Ry
     estimated scf accuracy    <       0.36083570 Ry

     total magnetization       =     4.53 Bohr mag/cell
     absolute magnetization    =     4.85 Bohr mag/cell

     iteration #  4     ecut=    35.00 Ry     beta=0.20
     Davidson diagonalization with overlap
     ethr =  9.02E-04,  avg # of iterations =  1.7

     total cpu time spent up to now is      110.4 secs

     total energy              =    -343.60887629 Ry
     Harris-Foulkes estimate   =    -343.64792330 Ry
     estimated scf accuracy    <       0.12604148 Ry

     total magnetization       =     2.54 Bohr mag/cell
     absolute magnetization    =     3.17 Bohr mag/cell

     iteration #  5     ecut=    35.00 Ry     beta=0.20
     Davidson diagonalization with overlap
     ethr =  3.15E-04,  avg # of iterations =  1.1

     total cpu time spent up to now is      127.9 secs

     total energy              =    -343.62346624 Ry
     Harris-Foulkes estimate   =    -343.62316594 Ry
     estimated scf accuracy    <       0.00689523 Ry

     total magnetization       =     2.63 Bohr mag/cell
     absolute magnetization    =     3.24 Bohr mag/cell

     iteration #  6     ecut=    35.00 Ry     beta=0.20
     Davidson diagonalization with overlap
     ethr =  1.72E-05,  avg # of iterations =  5.0

     total cpu time spent up to now is      150.1 secs

     total energy              =    -343.62523314 Ry
     Harris-Foulkes estimate   =    -343.62552565 Ry
     estimated scf accuracy    <       0.00195485 Ry

     total magnetization       =     2.73 Bohr mag/cell
     absolute magnetization    =     3.32 Bohr mag/cell

     iteration #  7     ecut=    35.00 Ry     beta=0.20
     Davidson diagonalization with overlap
     ethr =  4.89E-06,  avg # of iterations =  1.7

     total cpu time spent up to now is      168.2 secs

     total energy              =    -343.62812340 Ry
     Harris-Foulkes estimate   =    -343.62694423 Ry
     estimated scf accuracy    <       0.00172434 Ry

     total magnetization       =     3.03 Bohr mag/cell
     absolute magnetization    =     3.52 Bohr mag/cell

     iteration #  8     ecut=    35.00 Ry     beta=0.20
     Davidson diagonalization with overlap
     ethr =  4.31E-06,  avg # of iterations =  1.0

     total cpu time spent up to now is      185.7 secs

     total energy              =    -343.62868596 Ry
     Harris-Foulkes estimate   =    -343.62847282 Ry
     estimated scf accuracy    <       0.00007654 Ry

     total magnetization       =     2.91 Bohr mag/cell
     absolute magnetization    =     3.37 Bohr mag/cell

     iteration #  9     ecut=    35.00 Ry     beta=0.20
     Davidson diagonalization with overlap
     ethr =  1.91E-07,  avg # of iterations =  1.4

     total cpu time spent up to now is      203.5 secs

     total energy              =    -343.62886587 Ry
     Harris-Foulkes estimate   =    -343.62871595 Ry
     estimated scf accuracy    <       0.00004166 Ry

     total magnetization       =     2.88 Bohr mag/cell
     absolute magnetization    =     3.33 Bohr mag/cell

     iteration # 10     ecut=    35.00 Ry     beta=0.20
     Davidson diagonalization with overlap
     ethr =  1.04E-07,  avg # of iterations =  1.0

     total cpu time spent up to now is      220.9 secs

     total energy              =    -343.62897477 Ry
     Harris-Foulkes estimate   =    -343.62887873 Ry
     estimated scf accuracy    <       0.00001722 Ry

     total magnetization       =     2.89 Bohr mag/cell
     absolute magnetization    =     3.33 Bohr mag/cell

     iteration # 11     ecut=    35.00 Ry     beta=0.20
     Davidson diagonalization with overlap
     ethr =  4.31E-08,  avg # of iterations =  1.0

     total cpu time spent up to now is      238.4 secs

     total energy              =    -343.62904303 Ry
     Harris-Foulkes estimate   =    -343.62898205 Ry
     estimated scf accuracy    <       0.00000218 Ry

     total magnetization       =     2.88 Bohr mag/cell
     absolute magnetization    =     3.31 Bohr mag/cell

     iteration # 12     ecut=    35.00 Ry     beta=0.20
     Davidson diagonalization with overlap
     ethr =  5.44E-09,  avg # of iterations =  1.0

     total cpu time spent up to now is      255.9 secs

     total energy              =    -343.62908598 Ry
     Harris-Foulkes estimate   =    -343.62904426 Ry
     estimated scf accuracy    <       0.00000038 Ry

     total magnetization       =     2.87 Bohr mag/cell
     absolute magnetization    =     3.30 Bohr mag/cell

     iteration # 13     ecut=    35.00 Ry     beta=0.20
     Davidson diagonalization with overlap
     ethr =  9.39E-10,  avg # of iterations =  1.9

     total cpu time spent up to now is      274.4 secs

     total energy              =    -343.62911421 Ry
     Harris-Foulkes estimate   =    -343.62908626 Ry
     estimated scf accuracy    <       0.00000001 Ry

     total magnetization       =     2.87 Bohr mag/cell
     absolute magnetization    =     3.30 Bohr mag/cell

     iteration # 14     ecut=    35.00 Ry     beta=0.20
     Davidson diagonalization with overlap
     ethr =  2.60E-11,  avg # of iterations =  2.0

     total cpu time spent up to now is      294.4 secs

     total energy              =    -343.62913171 Ry
     Harris-Foulkes estimate   =    -343.62911424 Ry
     estimated scf accuracy    <       0.00000002 Ry

     total magnetization       =     2.87 Bohr mag/cell
     absolute magnetization    =     3.30 Bohr mag/cell

     iteration # 15     ecut=    35.00 Ry     beta=0.20
     Davidson diagonalization with overlap
     ethr =  2.60E-11,  avg # of iterations =  1.0

     total cpu time spent up to now is      311.9 secs

     total energy              =    -343.62914274 Ry
     Harris-Foulkes estimate   =    -343.62913171 Ry
     estimated scf accuracy    <       0.00000001 Ry

     total magnetization       =     2.87 Bohr mag/cell
     absolute magnetization    =     3.30 Bohr mag/cell

     iteration # 16     ecut=    35.00 Ry     beta=0.20
     Davidson diagonalization with overlap
     ethr =  2.60E-11,  avg # of iterations =  1.5

     Magnetic moment per site:
     atom:    1    charge:    3.0543    magn:    0.3440    constr:    0.0000
     atom:    2    charge:    3.0526    magn:    0.3438    constr:    0.0000
     atom:    3    charge:    3.0543    magn:    0.3440    constr:    0.0000
     atom:    4    charge:    3.0543    magn:    0.3440    constr:    0.0000

     total cpu time spent up to now is      329.7 secs

     End of self-consistent calculation

 ------ SPIN UP ------------


          k = 0.0000 0.0000 0.0000 (  1021 PWs)   bands (ev):

     5.2287   9.4941   9.4941   9.4941   9.9347   9.9353   9.9353  11.6683
    11.6683  11.6683  12.8179  12.8179  13.5177  13.5177  13.5177  13.6034
    13.6034  13.6034  13.6037  13.6037  13.6037  16.7426  16.7428  16.7428
    23.3397  23.3397  23.3397  29.0912  29.0912  29.0912  29.0914  29.0914
    29.0914  34.1049  34.1049  34.1052  37.3474  37.3475  37.3475  38.0315
    41.8749  41.8749  41.8749  45.3878  45.3878  45.3878  47.5703  54.3409
    54.3409  54.3409  57.3105  58.5664

          k = 0.0000 0.0000 0.0473 (  1021 PWs)   bands (ev):

     5.5904   9.5135   9.6745   9.6745  10.0429  10.0580  10.0584  11.5433
    11.7681  11.7681  12.7026  12.8628  12.9706  12.9708  13.3679  13.3679
    13.4330  13.4330  13.4695  13.6040  13.6040  15.1467  17.6789  17.6791
    23.4386  23.4386  25.5839  27.3497  27.3499  27.9637  27.9637  29.6429
    29.6429  34.2233  36.2663  36.2666  37.3774  37.4780  39.2939  39.2940
    39.6496  39.6496  40.3562  46.8156  47.4752  47.4752  48.4064  50.8813
    55.4009  55.4010  55.9794  55.9799

          k = 0.0000 0.0000 0.0946 (  1032 PWs)   bands (ev):

     6.6278   9.2774  10.1023  10.1023  10.3429  10.4312  10.4319  11.2089
    11.9403  11.9411  12.0571  12.0571  12.4237  12.9888  12.9907  12.9907
    13.0033  13.0155  13.0155  13.3389  13.6045  13.6045  19.6089  19.6091
    23.7668  23.7669  24.5999  24.6000  26.1895  26.1895  29.8648  31.1982
    31.1982  34.5937  36.2220  36.4524  36.4524  37.8329  38.0197  40.2821
    40.2824  43.3979  43.4289  43.4289  50.2443  50.3933  50.3933  50.4112
    50.4112  54.3370  55.2986  55.2987

          k = 0.0000 0.0000-0.1419 (  1044 PWs)   bands (ev):

     8.1033   8.1260  10.3726  10.3726  10.7505  10.7823  11.0471  11.0473
    11.0787  11.0790  12.2296  12.2741  12.4854  12.4854  12.5092  12.5092
    12.7602  12.7602  13.1538  13.1713  13.6048  13.6048  21.9356  21.9358
    21.9918  21.9920  24.1634  24.1635  25.2232  25.2232  33.5233  33.5233
    33.5633  33.5633  34.3691  34.4513  35.2424  35.2610  39.5047  39.6353
    44.9905  44.9908  45.1039  45.1041  46.9034  46.9035  51.5834  51.5834
    53.4707  53.4707  53.5758  53.5758

          k = 0.0000 0.0473 0.0473 (  1027 PWs)   bands (ev):

     5.9437   9.7080   9.7080   9.8339  10.1570  10.1575  10.1707  11.4852
    11.8120  11.8286  12.6331  12.6672  12.6896  12.7019  12.8593  13.2436
    13.3645  13.3645  13.4314  13.4316  13.4914  16.0554  16.0554  18.4343
    23.4487  24.6345  25.7747  25.7750  27.8194  27.8194  28.4467  28.4473
    30.1619  35.4726  35.6004  36.4748  36.4752  36.7728  39.4631  39.4636
    40.7141  41.9463  42.9237  44.6235  45.6839  49.0081  49.8083  52.2883
    53.0140  54.6607  54.6619  55.6149

          k = 0.0000 0.0473 0.0946 (  1029 PWs)   bands (ev):

     6.9541   9.5097  10.1805  10.2283  10.4318  10.4841  10.5022  11.2121
    11.7073  11.8435  11.9552  12.0685  12.0959  12.5177  12.9287  12.9948
    13.0180  13.0351  13.1838  13.4272  13.4351  14.1035  17.6425  20.1896
    21.6672  24.1315  25.0547  26.0856  26.8882  29.1165  29.4132  29.4661
    30.4861  33.2019  33.9313  37.1267  38.0562  39.8319  40.0116  40.0874
    40.5371  43.3658  44.2806  46.3645  47.1633  47.9232  49.2254  50.6758
    52.2604  52.6010  54.0741  55.5738

          k = 0.0000 0.0473-0.1419 (  1044 PWs)   bands (ev):

     8.3824   8.4038  10.5206  10.5220  10.8005  10.8312  10.9209  10.9469
    11.0618  11.0926  11.8709  11.9037  12.4858  12.5102  12.7174  12.7280
    12.7454  12.7468  13.3415  13.3417  13.4235  13.4283  19.4748  19.5035
    22.4304  22.4810  24.9256  24.9627  27.8064  27.8180  30.9780  30.9957
    31.5020  31.5148  35.2401  35.3355  38.2689  38.2768  41.4794  41.5591
    42.4890  42.5177  45.2682  45.3753  49.3022  49.3997  49.6811  49.7265
    51.9280  51.9630  52.4950  52.5250

          k = 0.0000 0.0946 0.0946 (  1045 PWs)   bands (ev):

     7.8713  10.0875  10.0877  10.4496  10.6921  10.6935  10.7107  11.1447
    11.3850  11.3851  11.5361  11.8469  12.1956  12.4338  12.7187  12.8684
    12.8689  13.0043  13.0046  13.1698  13.3802  15.3281  15.3281  18.9094
    21.6948  24.6827  26.3101  26.3101  27.4162  27.4168  30.4804  31.1103
    31.1166  31.2282  33.0663  36.2848  40.9621  41.2953  41.2956  42.4399
    42.8502  43.1215  43.1216  46.4569  46.6575  47.7864  47.7873  50.9514
    51.5058  51.5327  52.4779  54.6655

          k = 0.0000 0.0946-0.1419 (  1034 PWs)   bands (ev):

     9.1197   9.1372  10.5392  10.5592  10.9227  10.9419  10.9574  10.9646
    11.0815  11.1102  11.5795  11.6010  12.5200  12.5358  12.5374  12.5438
    12.6041  12.6073  13.0308  13.0454  14.0254  14.0292  16.8299  16.8524
    23.7744  23.8131  25.7340  25.7640  28.1584  28.1774  29.0392  29.0422
    32.4134  32.4206  36.1875  36.2800  39.7713  39.7905  42.4559  42.4742
    42.5831  42.5918  46.0755  46.1629  47.1876  47.2402  49.7398  49.7882
    50.9693  51.0500  52.8772  52.8987

          k = 0.0000-0.1419-0.1419 (  1024 PWs)   bands (ev):

     9.9598   9.9749   9.9749   9.9895  11.0304  11.0577  11.0577  11.0848
    11.3549  11.3628  11.3628  11.3704  12.3913  12.3938  12.3938  12.3968
    12.6766  12.6991  12.6991  12.7214  15.0695  15.0801  15.0802  15.0909
    25.7178  25.7450  25.7450  25.7717  27.0766  27.0942  27.0942  27.1127
    37.2724  37.2981  37.2981  37.3251  37.9219  37.9550  37.9551  37.9837
    46.5753  46.5753  46.5766  46.5770  48.4750  48.5238  48.5238  48.5722
    51.0325  51.0359  51.0360  51.0386

          k = 0.0473 0.0473 0.0473 (  1021 PWs)   bands (ev):

     6.2856   9.8653   9.8654   9.8654  10.2686  10.2694  10.2694  11.4515
    11.8476  11.8476  12.3934  12.3934  12.3935  12.7745  12.7745  13.0157
    13.0162  13.0162  13.5442  13.5442  13.5444  16.6711  16.6712  16.6712
    24.8806  24.8808  24.8808  26.1055  26.1055  26.1059  30.6692  30.6695
    30.6695  32.9613  35.6049  35.6049  35.6053  38.7560  40.5194  40.5194
    42.1529  42.1529  42.1529  45.9794  47.0132  47.0132  50.8255  50.8255
    54.5055  54.5273  54.5282  54.5282

          k = 0.0473 0.0473 0.0946 (  1036 PWs)   bands (ev):

     7.2569   9.6661  10.2388  10.2391  10.5473  10.5765  10.5767  11.2480
    11.6978  11.6979  11.8837  11.9307  11.9845  12.6232  12.6910  12.7765
    12.7786  13.0085  13.4494  13.4495  13.4815  14.4608  17.9950  17.9951
    22.2752  22.2752  26.1518  26.7621  26.7622  29.8508  29.8511  30.2399
    30.4445  32.1276  36.0803  37.2608  37.2733  38.2153  38.2153  41.7468
    42.8390  43.8286  46.3369  46.3369  47.1867  48.4384  49.5280  49.5282
    50.0048  52.3501  52.3830  54.8146

          k = 0.0473 0.0473-0.1419 (  1034 PWs)   bands (ev):

     8.6092   8.6281  10.6126  10.6139  10.6773  10.6776  10.8962  10.9249
    11.3145  11.3145  11.7780  11.8102  12.2450  12.2560  12.6132  12.6137
    13.1634  13.1860  13.2743  13.2793  13.3950  13.3951  19.1396  19.1397
    20.7162  20.7163  27.7381  27.7426  27.9507  27.9668  28.4079  28.4146
    34.3675  34.4011  34.8823  34.9474  37.4640  37.5320  41.6086  41.6087
    44.0554  44.0906  44.7361  44.7364  48.8129  48.8634  50.2199  50.2376
    51.4410  51.4412  52.9909  53.0017

          k = 0.0473 0.0946 0.0946 (  1034 PWs)   bands (ev):

     8.0890   9.9785   9.9788  10.2616  10.8592  10.9020  10.9024  11.2922
    11.4985  11.4988  11.6294  11.8486  11.9701  12.4361  12.4366  12.4532
    12.7483  13.2883  13.3530  13.3701  13.3720  15.4605  15.4606  18.2543
    20.3732  23.4554  23.4554  27.4492  27.5777  30.6448  30.6449  31.5797
    31.5801  33.4741  34.7100  36.3577  38.7470  38.7473  39.6114  42.3614
    43.1209  44.1754  45.8106  45.8107  48.4905  48.4909  49.7503  49.9133
    50.2294  50.8642  51.5956  52.2458

          k = 0.0473 0.0946-0.1419 (  1032 PWs)   bands (ev):

     9.1600   9.1719  10.1942  10.1978  11.0666  11.0677  11.1974  11.2206
    11.5017  11.5113  11.6143  11.6354  12.1117  12.1197  12.3193  12.3244
    13.0329  13.0419  13.2537  13.2630  13.9353  13.9387  16.8168  16.8352
    21.3773  21.3919  25.1929  25.2037  28.9401  28.9477  32.5190  32.5239
    32.7142  32.7211  36.3148  36.3912  39.5538  39.5711  39.8419  39.8548
    44.5570  44.5635  45.0274  45.0629  47.0329  47.0514  49.8470  49.8772
    51.1017  51.1199  53.1431  53.1718

          k = 0.0473-0.1419-0.1419 (  1032 PWs)   bands (ev):

     9.7277   9.7331   9.7331   9.7377  11.4381  11.4460  11.4460  11.4530
    11.5179  11.5333  11.5333  11.5491  12.0806  12.0884  12.0884  12.0962
    13.0057  13.0198  13.0198  13.0340  14.9848  14.9965  14.9965  15.0083
    22.9928  23.0044  23.0044  23.0158  30.4671  30.4693  30.4693  30.4720
    37.5528  37.5734  37.5734  37.5994  37.7775  37.8086  37.8086  37.8317
    46.0273  46.0273  46.0314  46.0351  46.0642  46.0954  46.0954  46.1154
    54.0040  54.0220  54.0221  54.0468

          k = 0.0946 0.0946 0.0946 (  1009 PWs)   bands (ev):

     8.6328   9.8170   9.8176   9.8176  11.2529  11.2535  11.2535  11.7526
    11.8042  11.8042  11.8141  11.8231  11.8231  12.0914  12.0914  12.0919
    13.1398  13.1398  13.4945  13.4945  13.4946  15.8441  15.8442  15.8442
    20.9748  20.9748  20.9749  24.6868  31.9930  31.9930  31.9934  34.6856
    34.6859  34.6859  36.7194  36.7194  36.7199  37.3226  39.3301  39.3301
    43.8104  43.8104  47.0952  47.4210  47.4210  47.4227  47.4687  47.4690
    47.4690  51.7003  51.7010  51.7010

          k = 0.0946 0.0946-0.1419 (  1030 PWs)   bands (ev):

     9.2562   9.2596   9.7502   9.7506  11.3687  11.3691  11.6381  11.6557
    11.8557  11.8582  11.9700  11.9748  11.9873  12.0048  12.0914  12.0920
    13.4158  13.4176  13.4246  13.4261  13.8344  13.8357  16.1347  16.1348
    19.9448  19.9449  22.5150  22.5261  32.9207  32.9208  34.0594  34.0600
    35.8362  35.8677  36.6526  36.6707  38.3536  38.4075  38.8756  38.8757
    44.0059  44.0062  44.2667  44.2931  45.3610  45.3670  47.8948  47.8948
    48.8862  48.8978  52.2464  52.2483

          k = 0.0946-0.1419-0.1419 (  1032 PWs)   bands (ev):

     9.4341   9.4348   9.4348   9.4348  11.6023  11.6072  11.6072  11.6114
    11.7865  11.7914  11.7914  11.7965  12.5212  12.5312  12.5312  12.5413
    13.3394  13.3471  13.3471  13.3549  14.6264  14.6397  14.6397  14.6529
    20.6469  20.6562  20.6562  20.6655  34.6430  34.6462  34.6462  34.6497
    37.6579  37.6719  37.6719  37.6868  38.3190  38.3348  38.3349  38.3479
    43.4414  43.4531  43.4531  43.4642  44.5187  44.5214  44.5214  44.5236
    49.6909  49.6958  49.6958  49.7020

          k =-0.1419-0.1419-0.1419 (  1064 PWs)   bands (ev):

     9.3214   9.3221   9.3221   9.3221  11.6823  11.6823  11.6823  11.6825
    11.6825  11.6830  11.6830  11.6830  13.4702  13.4702  13.4702  13.4711
    13.4711  13.4712  13.4712  13.4713  14.0045  14.0053  14.0053  14.0053
    19.7744  19.7744  19.7744  19.7746  36.4957  36.4959  36.4959  36.4959
    38.9596  38.9596  38.9598  38.9598  38.9598  38.9607  38.9607  38.9607
    42.1778  42.1778  42.1781  42.1781  42.1781  42.1785  42.1785  42.1785
    48.0482  48.0482  48.0482  48.0485

          k =-0.0473 0.0000 0.0473 (  1027 PWs)   bands (ev):

     5.9437   9.7080   9.7080   9.8339  10.1569  10.1575  10.1707  11.4852
    11.8120  11.8286  12.6331  12.6672  12.6896  12.7019  12.8593  13.2436
    13.3645  13.3645  13.4314  13.4316  13.4914  16.0554  16.0554  18.4343
    23.4487  24.6345  25.7747  25.7751  27.8194  27.8194  28.4466  28.4473
    30.1619  35.4726  35.6004  36.4748  36.4752  36.7728  39.4630  39.4637
    40.7141  41.9463  42.9237  44.6235  45.6839  49.0081  49.8083  52.2883
    53.0140  54.6607  54.6619  55.6149

          k =-0.0473 0.0000 0.0946 (  1029 PWs)   bands (ev):

     6.9541   9.5097  10.1805  10.2283  10.4318  10.4841  10.5022  11.2121
    11.7073  11.8435  11.9552  12.0685  12.0959  12.5177  12.9287  12.9948
    13.0180  13.0351  13.1838  13.4272  13.4351  14.1035  17.6425  20.1896
    21.6672  24.1315  25.0547  26.0856  26.8882  29.1165  29.4132  29.4661
    30.4861  33.2019  33.9313  37.1267  38.0562  39.8319  40.0116  40.0874
    40.5371  43.3658  44.2806  46.3645  47.1633  47.9232  49.2254  50.6758
    52.2604  52.6010  54.0741  55.5738

          k =-0.0946 0.0000 0.0946 (  1045 PWs)   bands (ev):

     7.8713  10.0875  10.0877  10.4496  10.6921  10.6935  10.7107  11.1447
    11.3850  11.3851  11.5361  11.8469  12.1956  12.4338  12.7187  12.8684
    12.8689  13.0043  13.0046  13.1698  13.3802  15.3281  15.3281  18.9094
    21.6948  24.6827  26.3100  26.3102  27.4162  27.4168  30.4804  31.1104
    31.1166  31.2282  33.0663  36.2848  40.9621  41.2953  41.2955  42.4399
    42.8502  43.1216  43.1216  46.4569  46.6575  47.7864  47.7873  50.9514
    51.5058  51.5327  52.4779  54.6540

          k = 0.0473-0.0473 0.0473 (  1021 PWs)   bands (ev):

     6.2856   9.8653   9.8654   9.8654  10.2686  10.2694  10.2694  11.4515
    11.8476  11.8476  12.3934  12.3934  12.3936  12.7745  12.7745  13.0157
    13.0162  13.0162  13.5442  13.5443  13.5444  16.6711  16.6712  16.6712
    24.8806  24.8808  24.8808  26.1055  26.1055  26.1059  30.6692  30.6695
    30.6695  32.9613  35.6049  35.6049  35.6054  38.7560  40.5194  40.5194
    42.1529  42.1529  42.1530  45.9794  47.0132  47.0132  50.8255  50.8255
    54.5055  54.5272  54.5282  54.5282

          k = 0.0473-0.0473 0.0946 (  1036 PWs)   bands (ev):

     7.2569   9.6661  10.2388  10.2391  10.5473  10.5765  10.5767  11.2480
    11.6978  11.6979  11.8837  11.9307  11.9845  12.6232  12.6910  12.7765
    12.7786  13.0085  13.4494  13.4494  13.4815  14.4608  17.9950  17.9951
    22.2752  22.2752  26.1518  26.7621  26.7622  29.8508  29.8511  30.2399
    30.4445  32.1276  36.0803  37.2608  37.2733  38.2153  38.2153  41.7468
    42.8390  43.8286  46.3368  46.3370  47.1867  48.4384  49.5280  49.5282
    50.0048  52.3501  52.3830  54.8145

          k =-0.0946 0.0473 0.0473 (  1036 PWs)   bands (ev):

     7.2569   9.6661  10.2388  10.2391  10.5473  10.5765  10.5767  11.2480
    11.6978  11.6979  11.8837  11.9307  11.9845  12.6232  12.6910  12.7765
    12.7786  13.0085  13.4494  13.4495  13.4815  14.4608  17.9950  17.9951
    22.2752  22.2752  26.1518  26.7621  26.7622  29.8508  29.8511  30.2399
    30.4445  32.1276  36.0803  37.2608  37.2733  38.2153  38.2153  41.7468
    42.8390  43.8286  46.3369  46.3369  47.1867  48.4384  49.5280  49.5282
    50.0048  52.3501  52.3830  54.8145

          k = 0.0473-0.0473-0.1419 (  1034 PWs)   bands (ev):

     8.6092   8.6281  10.6126  10.6140  10.6773  10.6776  10.8962  10.9249
    11.3145  11.3145  11.7780  11.8102  12.2450  12.2560  12.6132  12.6137
    13.1634  13.1860  13.2743  13.2793  13.3950  13.3951  19.1396  19.1397
    20.7163  20.7163  27.7382  27.7426  27.9507  27.9668  28.4079  28.4146
    34.3675  34.4011  34.8823  34.9474  37.4640  37.5320  41.6085  41.6087
    44.0554  44.0906  44.7361  44.7364  48.8129  48.8634  50.2199  50.2376
    51.4410  51.4412  52.9909  53.0016

          k = 0.0946-0.0473 0.0946 (  1034 PWs)   bands (ev):

     8.0890   9.9785   9.9788  10.2616  10.8592  10.9020  10.9024  11.2922
    11.4985  11.4988  11.6294  11.8486  11.9701  12.4361  12.4366  12.4532
    12.7483  13.2883  13.3530  13.3701  13.3720  15.4605  15.4606  18.2543
    20.3732  23.4554  23.4554  27.4492  27.5777  30.6448  30.6449  31.5797
    31.5801  33.4741  34.7100  36.3577  38.7470  38.7473  39.6114  42.3614
    43.1209  44.1754  45.8106  45.8107  48.4905  48.4909  49.7503  49.9133
    50.2294  50.8642  51.5956  52.2462

          k =-0.0946 0.0473 0.0946 (  1034 PWs)   bands (ev):

     8.0890   9.9785   9.9788  10.2616  10.8592  10.9020  10.9024  11.2922
    11.4985  11.4988  11.6294  11.8486  11.9701  12.4361  12.4366  12.4532
    12.7483  13.2883  13.3530  13.3701  13.3720  15.4605  15.4606  18.2543
    20.3732  23.4554  23.4554  27.4492  27.5777  30.6447  30.6450  31.5797
    31.5801  33.4741  34.7100  36.3577  38.7470  38.7473  39.6114  42.3614
    43.1209  44.1754  45.8106  45.8107  48.4905  48.4909  49.7503  49.9133
    50.2294  50.8642  51.5956  52.2458

          k = 0.0946-0.0473-0.1419 (  1032 PWs)   bands (ev):

     9.1600   9.1719  10.1942  10.1978  11.0666  11.0677  11.1974  11.2206
    11.5017  11.5113  11.6143  11.6354  12.1117  12.1197  12.3193  12.3244
    13.0329  13.0419  13.2537  13.2630  13.9353  13.9387  16.8168  16.8352
    21.3773  21.3919  25.1929  25.2037  28.9401  28.9477  32.5190  32.5239
    32.7142  32.7211  36.3148  36.3912  39.5538  39.5711  39.8419  39.8548
    44.5570  44.5635  45.0274  45.0629  47.0329  47.0514  49.8470  49.8772
    51.1017  51.1199  53.1431  53.1718

          k = 0.0946-0.0946 0.0946 (  1009 PWs)   bands (ev):

     8.6328   9.8170   9.8176   9.8176  11.2529  11.2535  11.2535  11.7526
    11.8042  11.8042  11.8141  11.8231  11.8231  12.0914  12.0914  12.0919
    13.1398  13.1398  13.4945  13.4945  13.4946  15.8441  15.8442  15.8442
    20.9748  20.9748  20.9749  24.6868  31.9930  31.9930  31.9934  34.6856
    34.6859  34.6859  36.7193  36.7194  36.7200  37.3226  39.3301  39.3301
    43.8104  43.8104  47.0952  47.4210  47.4210  47.4228  47.4688  47.4690
    47.4690  51.7003  51.7010  51.7010

          k = 0.0946-0.0946-0.1419 (  1030 PWs)   bands (ev):

     9.2562   9.2596   9.7502   9.7506  11.3687  11.3691  11.6381  11.6557
    11.8557  11.8582  11.9700  11.9748  11.9873  12.0048  12.0914  12.0921
    13.4158  13.4176  13.4246  13.4261  13.8344  13.8357  16.1348  16.1348
    19.9448  19.9449  22.5150  22.5261  32.9207  32.9208  34.0595  34.0600
    35.8362  35.8676  36.6526  36.6707  38.3536  38.4075  38.8756  38.8758
    44.0059  44.0062  44.2667  44.2931  45.3610  45.3670  47.8948  47.8948
    48.8862  48.8978  52.2464  52.2483

 ------ SPIN DOWN ----------


          k = 0.0000 0.0000 0.0000 (  1021 PWs)   bands (ev):

     5.1722   9.9647   9.9647   9.9647  10.6617  10.6625  10.6625  12.5579
    12.5579  12.5579  13.6088  13.6088  14.3429  14.3429  14.3429  14.6219
    14.6219  14.6219  14.6223  14.6223  14.6223  16.6611  16.6614  16.6614
    23.6468  23.6469  23.6469  29.0761  29.0762  29.0762  29.0765  29.0765
    29.0765  34.2661  34.2661  34.2664  37.4898  37.4900  37.4900  37.8207
    41.8473  41.8473  41.8473  45.4582  45.4582  45.4582  47.4061  54.5243
    54.5243  54.5243  57.8466  58.5952

          k = 0.0000 0.0000 0.0473 (  1021 PWs)   bands (ev):

     5.5339   9.9362  10.1553  10.1553  10.7789  10.7825  10.7830  12.4196
    12.6618  12.6618  13.4838  13.6556  13.8009  13.8014  14.1801  14.1801
    14.2923  14.4344  14.4344  14.6226  14.6226  15.2178  17.7819  17.7822
    23.7304  23.7304  25.7854  27.4167  27.4171  27.9901  27.9902  29.6442
    29.6442  34.3718  36.3445  36.3447  37.2350  37.6178  39.4121  39.4122
    39.6929  39.6929  40.2867  46.8326  47.4467  47.4467  48.4834  50.8573
    55.6078  55.6078  55.9026  55.9031

          k = 0.0000 0.0000 0.0946 (  1032 PWs)   bands (ev):

     6.5755   9.4864  10.6082  10.6082  11.1044  11.1502  11.1510  12.0511
    12.6787  12.6796  12.9639  12.9639  13.1704  13.3837  13.7780  13.7780
    13.7880  13.9721  13.9721  14.1551  14.6231  14.6231  19.7913  19.7916
    24.0136  24.0136  24.7388  24.7389  26.2872  26.2873  29.9597  31.2339
    31.2339  34.7044  36.1841  36.5234  36.5234  37.7408  38.1635  40.2850
    40.2854  43.5266  43.5267  43.6156  50.1957  50.3126  50.3126  50.3171
    50.3172  54.2251  55.5186  55.5186

          k = 0.0000 0.0000-0.1419 (  1044 PWs)   bands (ev):

     8.0944   8.1179  10.8945  10.8945  11.5485  11.5826  11.7647  11.7654
    11.7972  11.7979  12.8865  12.9352  13.4140  13.4140  13.4388  13.4388
    13.5208  13.5209  13.9609  13.9792  14.6234  14.6234  22.1145  22.1147
    22.1720  22.1721  24.3588  24.3588  25.3818  25.3818  33.5874  33.5874
    33.6273  33.6273  34.3463  34.4308  35.2887  35.3112  39.6948  39.8278
    44.9423  44.9426  45.0585  45.0588  46.9766  46.9767  51.7620  51.7620
    53.3562  53.3562  53.4614  53.4614

          k = 0.0000 0.0473 0.0473 (  1027 PWs)   bands (ev):

     5.8881  10.1436  10.1436  10.3340  10.8791  10.8899  10.8905  12.3479
    12.7110  12.7151  13.4078  13.4318  13.4475  13.4746  13.6575  14.0454
    14.1682  14.1683  14.4331  14.4333  14.5027  16.3699  16.3700  18.5965
    23.7100  24.7615  25.9630  25.9634  27.9006  27.9006  28.4868  28.4875
    30.1717  35.5737  35.5927  36.5427  36.5431  36.7911  39.5793  39.5799
    40.6296  42.0313  42.8947  44.5620  45.7425  49.1632  49.7298  52.4625
    52.9636  54.6165  54.6176  55.5518

          k = 0.0000 0.0473 0.0946 (  1029 PWs)   bands (ev):

     6.9065   9.7336  10.6512  10.7703  11.1541  11.1888  11.2280  12.0434
    12.4075  12.5738  12.7567  12.8087  12.9797  13.2929  13.7048  13.7865
    13.8553  13.9409  13.9705  14.4297  14.4405  14.8202  17.9815  20.3911
    21.8643  24.3603  25.2044  26.2186  27.0139  29.2231  29.4747  29.5337
    30.5838  33.2784  33.9739  37.1662  38.0925  39.7813  39.9562  40.2047
    40.5343  43.4468  44.4861  46.4283  47.0818  47.9025  49.2060  50.5984
    52.2122  52.5060  54.2783  55.8032

          k = 0.0000 0.0473-0.1419 (  1044 PWs)   bands (ev):

     8.3857   8.4079  11.0324  11.0353  11.5838  11.6141  11.6144  11.6419
    11.7824  11.8142  12.6197  12.6575  13.4171  13.4415  13.4968  13.5029
    13.5111  13.5138  14.1900  14.1911  14.4265  14.4319  19.7556  19.7847
    22.6211  22.6722  25.0952  25.1353  27.9216  27.9355  31.0909  31.1068
    31.5603  31.5713  35.2642  35.3594  38.2691  38.2749  41.6288  41.7113
    42.4790  42.5110  45.2165  45.3263  49.3665  49.4623  49.6105  49.6561
    51.8401  51.8765  52.6512  52.6808

          k = 0.0000 0.0946 0.0946 (  1045 PWs)   bands (ev):

     7.8473  10.3636  10.3637  11.1220  11.2041  11.4366  11.4381  11.9479
    12.0880  12.0880  12.2574  12.6481  13.1200  13.1918  13.4835  13.6174
    13.6179  13.9739  13.9741  14.1598  14.2329  15.9388  15.9390  19.2171
    21.9116  24.8813  26.4746  26.4747  27.5166  27.5172  30.6093  31.1976
    31.2047  31.2962  33.1179  36.3187  40.8950  41.2749  41.2753  42.4766
    42.7301  43.1634  43.1634  46.5749  46.6846  47.8271  47.8280  51.0062
    51.4072  51.4577  52.6678  54.5611

          k = 0.0000 0.0946-0.1419 (  1034 PWs)   bands (ev):

     9.1790   9.1981  10.9651  10.9850  11.5990  11.6006  11.6989  11.7290
    11.8109  11.8409  12.3254  12.3493  13.2817  13.2823  13.3509  13.3543
    13.4673  13.4930  14.0078  14.0237  14.8404  14.8452  17.2969  17.3189
    23.9777  24.0155  25.8839  25.9167  28.3195  28.3365  29.1279  29.1325
    32.4832  32.4925  36.2142  36.3071  39.7697  39.7867  42.4005  42.4174
    42.6010  42.6087  46.0106  46.0998  47.2652  47.3202  49.6832  49.7329
    51.0853  51.1656  52.7892  52.8096

          k = 0.0000-0.1419-0.1419 (  1024 PWs)   bands (ev):

    10.1784  10.1953  10.1953  10.2119  11.7750  11.8043  11.8043  11.8331
    12.0334  12.0425  12.0425  12.0514  13.1399  13.1427  13.1427  13.1462
    13.6334  13.6571  13.6571  13.6808  15.7601  15.7691  15.7691  15.7780
    25.9120  25.9376  25.9376  25.9626  27.1975  27.2172  27.2172  27.2380
    37.3468  37.3715  37.3715  37.3983  37.8877  37.9193  37.9193  37.9456
    46.4527  46.4527  46.4528  46.4558  48.4605  48.5105  48.5105  48.5603
    51.1303  51.1363  51.1363  51.1415

          k = 0.0473 0.0473 0.0473 (  1021 PWs)   bands (ev):

     6.2328  10.3282  10.3283  10.3283  10.9779  10.9789  10.9789  12.2943
    12.7350  12.7350  13.1135  13.1135  13.1135  13.5718  13.5718  13.8573
    13.8579  13.8579  14.5022  14.5022  14.5026  17.0125  17.0127  17.0127
    25.0102  25.0104  25.0104  26.2788  26.2788  26.2792  30.6898  30.6903
    30.6903  33.0269  35.6980  35.6980  35.6984  38.5969  40.5727  40.5727
    42.2347  42.2347  42.2347  45.8877  46.9666  46.9666  50.9916  50.9916
    54.4781  54.4793  54.4793  54.8296

          k = 0.0473 0.0473 0.0946 (  1036 PWs)   bands (ev):

     7.2198   9.9304  10.7794  10.7796  11.2123  11.2132  11.2692  12.0530
    12.4092  12.4093  12.5688  12.7678  12.8544  13.4794  13.5103  13.5742
    13.5773  13.8416  14.3925  14.4220  14.4227  15.0981  18.3221  18.3222
    22.4841  22.4842  26.2943  26.9104  26.9105  29.9246  29.9249  30.3525
    30.5313  32.1729  36.1529  37.1770  37.3375  38.2440  38.2440  41.7566
    42.9167  43.8423  46.3793  46.3794  47.2262  48.3822  49.5130  49.5132
    50.0061  52.2739  52.3417  54.9282

          k = 0.0473 0.0473-0.1419 (  1034 PWs)   bands (ev):

     8.6411   8.6617  11.2005  11.2007  11.2603  11.2616  11.6548  11.6862
    12.0374  12.0377  12.5361  12.5719  13.1065  13.1155  13.3878  13.3882
    13.9771  14.0014  14.1472  14.1497  14.3760  14.3761  19.3956  19.3958
    21.0202  21.0203  27.8515  27.8556  28.0910  28.1062  28.5225  28.5299
    34.4361  34.4693  34.8523  34.9195  37.5411  37.6096  41.5884  41.5885
    44.1378  44.1761  44.7233  44.7237  48.7296  48.7802  50.1728  50.1907
    51.4726  51.4728  53.1494  53.1669

          k = 0.0473 0.0946 0.0946 (  1034 PWs)   bands (ev):

     8.0988  10.3746  10.3749  10.8875  11.3758  11.5127  11.5135  12.0283
    12.2282  12.2285  12.3504  12.6592  12.8043  13.2447  13.2463  13.2503
    13.6018  14.1476  14.2911  14.2931  14.3119  16.0186  16.0188  18.5278
    20.7176  23.6709  23.6709  27.6054  27.7085  30.7068  30.7070  31.6720
    31.6725  33.5278  34.7360  36.3811  38.7601  38.7604  39.5300  42.4770
    43.1097  44.1194  45.8034  45.8034  48.5410  48.5414  49.6808  49.8956
    50.2049  50.9343  51.6523  52.1705

          k = 0.0473 0.0946-0.1419 (  1032 PWs)   bands (ev):

     9.3062   9.3218  10.7334  10.7403  11.6299  11.6331  11.8511  11.8777
    12.2034  12.2155  12.3829  12.4067  12.9270  12.9331  13.1048  13.1090
    13.9060  13.9191  14.1985  14.2090  14.7368  14.7415  17.2299  17.2474
    21.6773  21.6905  25.3921  25.4012  29.0386  29.0484  32.5765  32.5791
    32.7811  32.7901  36.3272  36.4028  39.5370  39.5529  39.8622  39.8763
    44.5429  44.5484  45.0166  45.0542  47.0106  47.0318  49.8815  49.9117
    51.0394  51.0569  53.2207  53.2532

          k = 0.0473-0.1419-0.1419 (  1032 PWs)   bands (ev):

    10.0819  10.0918  10.0918  10.1009  12.0141  12.0273  12.0273  12.0401
    12.2287  12.2444  12.2444  12.2600  12.8692  12.8759  12.8759  12.8831
    13.9252  13.9414  13.9414  13.9579  15.6385  15.6484  15.6484  15.6580
    23.2509  23.2606  23.2607  23.2703  30.5468  30.5511  30.5511  30.5560
    37.6254  37.6412  37.6412  37.6706  37.7276  37.7610  37.7611  37.7782
    45.9599  45.9599  45.9616  45.9638  46.0867  46.1167  46.1167  46.1418
    54.0646  54.0835  54.0835  54.1106

          k = 0.0946 0.0946 0.0946 (  1009 PWs)   bands (ev):

     8.7638  10.3319  10.3325  10.3325  11.8217  11.8223  11.8223  12.2855
    12.4994  12.4994  12.5013  12.6272  12.6272  12.8927  12.8927  12.8932
    14.0308  14.0308  14.4318  14.4318  14.4323  16.2725  16.2728  16.2728
    21.3130  21.3130  21.3131  24.9106  32.0391  32.0391  32.0395  34.7462
    34.7466  34.7466  36.7296  36.7296  36.7302  37.1472  39.4160  39.4160
    43.8185  43.8185  47.1085  47.3662  47.3662  47.3682  47.4691  47.4695
    47.4695  51.7295  51.7302  51.7302

          k = 0.0946 0.0946-0.1419 (  1030 PWs)   bands (ev):

     9.5873   9.5949  10.2943  10.2947  12.0109  12.0113  12.3068  12.3244
    12.5453  12.5674  12.6579  12.6598  12.7003  12.7003  12.7636  12.7638
    14.3345  14.3373  14.3626  14.3637  14.5562  14.5601  16.4646  16.4647
    20.3839  20.3839  22.8041  22.8136  32.9273  32.9274  34.1452  34.1459
    35.7239  35.7572  36.7250  36.7420  38.4339  38.4874  38.8478  38.8480
    44.0309  44.0313  44.2405  44.2673  45.3678  45.3752  47.8519  47.8520
    48.9379  48.9492  52.3470  52.3489

          k = 0.0946-0.1419-0.1419 (  1032 PWs)   bands (ev):

     9.9073   9.9099   9.9099   9.9117  12.3459  12.3505  12.3505  12.3548
    12.5729  12.5774  12.5774  12.5824  12.9687  12.9806  12.9806  12.9924
    14.2664  14.2751  14.2751  14.2840  15.1614  15.1723  15.1723  15.1828
    21.0414  21.0493  21.0493  21.0571  34.6162  34.6219  34.6219  34.6279
    37.6230  37.6356  37.6356  37.6491  38.3889  38.4039  38.4039  38.4163
    43.4705  43.4837  43.4837  43.4963  44.5084  44.5118  44.5119  44.5149
    49.7773  49.7823  49.7823  49.7887

          k =-0.1419-0.1419-0.1419 (  1064 PWs)   bands (ev):

     9.8281   9.8288   9.8288   9.8288  12.4654  12.4654  12.4654  12.4658
    12.4658  12.4661  12.4661  12.4661  13.9014  13.9015  13.9015  13.9025
    14.4043  14.4043  14.4047  14.4047  14.4047  14.4051  14.4051  14.4051
    20.2594  20.2594  20.2594  20.2595  36.3069  36.3071  36.3071  36.3072
    39.0301  39.0301  39.0301  39.0302  39.0302  39.0311  39.0311  39.0312
    42.2065  42.2065  42.2066  42.2067  42.2067  42.2071  42.2072  42.2072
    48.1590  48.1590  48.1590  48.1594

          k =-0.0473 0.0000 0.0473 (  1027 PWs)   bands (ev):

     5.8881  10.1436  10.1436  10.3340  10.8791  10.8899  10.8905  12.3479
    12.7110  12.7151  13.4078  13.4318  13.4475  13.4746  13.6575  14.0454
    14.1682  14.1682  14.4331  14.4333  14.5027  16.3699  16.3700  18.5965
    23.7100  24.7615  25.9630  25.9634  27.9005  27.9007  28.4868  28.4875
    30.1717  35.5737  35.5927  36.5427  36.5431  36.7911  39.5792  39.5800
    40.6296  42.0313  42.8947  44.5620  45.7425  49.1632  49.7298  52.4625
    52.9636  54.6165  54.6176  55.5518

          k =-0.0473 0.0000 0.0946 (  1029 PWs)   bands (ev):

     6.9065   9.7336  10.6512  10.7703  11.1541  11.1888  11.2280  12.0434
    12.4075  12.5738  12.7567  12.8087  12.9797  13.2929  13.7048  13.7865
    13.8553  13.9409  13.9705  14.4297  14.4405  14.8202  17.9815  20.3911
    21.8643  24.3603  25.2044  26.2186  27.0139  29.2231  29.4747  29.5337
    30.5838  33.2784  33.9739  37.1662  38.0925  39.7813  39.9562  40.2047
    40.5343  43.4468  44.4861  46.4283  47.0818  47.9025  49.2060  50.5984
    52.2122  52.5060  54.2783  55.8032

          k =-0.0946 0.0000 0.0946 (  1045 PWs)   bands (ev):

     7.8473  10.3636  10.3637  11.1220  11.2041  11.4366  11.4381  11.9479
    12.0880  12.0880  12.2574  12.6481  13.1200  13.1918  13.4835  13.6174
    13.6180  13.9739  13.9741  14.1598  14.2329  15.9388  15.9390  19.2171
    21.9116  24.8813  26.4745  26.4747  27.5165  27.5173  30.6093  31.1976
    31.2047  31.2962  33.1179  36.3187  40.8950  41.2750  41.2752  42.4766
    42.7301  43.1634  43.1635  46.5749  46.6846  47.8271  47.8280  51.0062
    51.4072  51.4577  52.6678  54.5554

          k = 0.0473-0.0473 0.0473 (  1021 PWs)   bands (ev):

     6.2328  10.3282  10.3283  10.3283  10.9779  10.9789  10.9789  12.2943
    12.7350  12.7350  13.1135  13.1135  13.1135  13.5718  13.5718  13.8573
    13.8579  13.8579  14.5022  14.5022  14.5026  17.0125  17.0127  17.0127
    25.0102  25.0104  25.0104  26.2788  26.2788  26.2792  30.6898  30.6902
    30.6903  33.0269  35.6980  35.6980  35.6984  38.5969  40.5727  40.5727
    42.2346  42.2347  42.2347  45.8877  46.9666  46.9666  50.9916  50.9916
    54.4781  54.4792  54.4793  54.8295

          k = 0.0473-0.0473 0.0946 (  1036 PWs)   bands (ev):

     7.2198   9.9304  10.7794  10.7796  11.2123  11.2132  11.2692  12.0530
    12.4092  12.4093  12.5688  12.7678  12.8544  13.4794  13.5103  13.5742
    13.5773  13.8416  14.3925  14.4220  14.4227  15.0981  18.3221  18.3222
    22.4841  22.4842  26.2943  26.9104  26.9105  29.9246  29.9249  30.3525
    30.5313  32.1729  36.1529  37.1770  37.3375  38.2440  38.2440  41.7566
    42.9167  43.8423  46.3793  46.3795  47.2262  48.3822  49.5130  49.5132
    50.0061  52.2739  52.3417  54.9281

          k =-0.0946 0.0473 0.0473 (  1036 PWs)   bands (ev):

     7.2198   9.9304  10.7794  10.7796  11.2123  11.2132  11.2692  12.0530
    12.4092  12.4093  12.5688  12.7678  12.8544  13.4794  13.5103  13.5742
    13.5773  13.8416  14.3925  14.4220  14.4227  15.0981  18.3221  18.3222
    22.4841  22.4842  26.2943  26.9104  26.9105  29.9246  29.9249  30.3525
    30.5313  32.1729  36.1529  37.1770  37.3375  38.2440  38.2440  41.7566
    42.9167  43.8423  46.3793  46.3794  47.2262  48.3822  49.5130  49.5132
    50.0061  52.2739  52.3417  54.9281

          k = 0.0473-0.0473-0.1419 (  1034 PWs)   bands (ev):

     8.6411   8.6617  11.2006  11.2007  11.2603  11.2616  11.6548  11.6862
    12.0374  12.0377  12.5361  12.5719  13.1065  13.1155  13.3877  13.3882
    13.9771  14.0014  14.1472  14.1497  14.3760  14.3761  19.3957  19.3958
    21.0202  21.0203  27.8515  27.8556  28.0910  28.1062  28.5225  28.5299
    34.4361  34.4693  34.8523  34.9195  37.5411  37.6096  41.5883  41.5885
    44.1378  44.1761  44.7233  44.7237  48.7296  48.7802  50.1728  50.1907
    51.4726  51.4729  53.1492  53.1668

          k = 0.0946-0.0473 0.0946 (  1034 PWs)   bands (ev):

     8.0988  10.3746  10.3749  10.8875  11.3758  11.5127  11.5135  12.0283
    12.2282  12.2285  12.3504  12.6592  12.8043  13.2447  13.2463  13.2503
    13.6018  14.1476  14.2911  14.2931  14.3119  16.0186  16.0188  18.5278
    20.7176  23.6709  23.6709  27.6054  27.7085  30.7068  30.7070  31.6720
    31.6725  33.5278  34.7360  36.3811  38.7601  38.7604  39.5300  42.4770
    43.1097  44.1194  45.8034  45.8034  48.5410  48.5414  49.6808  49.8956
    50.2049  50.9343  51.6522  52.1706

          k =-0.0946 0.0473 0.0946 (  1034 PWs)   bands (ev):

     8.0988  10.3746  10.3749  10.8875  11.3758  11.5127  11.5135  12.0283
    12.2282  12.2285  12.3504  12.6592  12.8043  13.2447  13.2463  13.2503
    13.6018  14.1476  14.2911  14.2931  14.3119  16.0186  16.0187  18.5278
    20.7176  23.6709  23.6709  27.6054  27.7085  30.7068  30.7070  31.6720
    31.6724  33.5278  34.7360  36.3811  38.7601  38.7604  39.5300  42.4770
    43.1097  44.1194  45.8034  45.8034  48.5410  48.5415  49.6808  49.8956
    50.2049  50.9343  51.6523  52.1700

          k = 0.0946-0.0473-0.1419 (  1032 PWs)   bands (ev):

     9.3062   9.3218  10.7334  10.7403  11.6299  11.6331  11.8511  11.8777
    12.2034  12.2155  12.3829  12.4067  12.9270  12.9331  13.1048  13.1090
    13.9060  13.9191  14.1985  14.2090  14.7368  14.7415  17.2299  17.2474
    21.6773  21.6905  25.3921  25.4012  29.0386  29.0484  32.5765  32.5791
    32.7811  32.7901  36.3272  36.4028  39.5370  39.5529  39.8622  39.8763
    44.5429  44.5484  45.0166  45.0542  47.0106  47.0318  49.8815  49.9117
    51.0394  51.0569  53.2212  53.2584

          k = 0.0946-0.0946 0.0946 (  1009 PWs)   bands (ev):

     8.7638  10.3319  10.3325  10.3326  11.8217  11.8223  11.8223  12.2855
    12.4994  12.4994  12.5013  12.6272  12.6272  12.8927  12.8927  12.8932
    14.0308  14.0308  14.4318  14.4318  14.4323  16.2725  16.2728  16.2728
    21.3130  21.3130  21.3130  24.9106  32.0390  32.0391  32.0395  34.7462
    34.7466  34.7466  36.7296  36.7296  36.7303  37.1472  39.4160  39.4160
    43.8185  43.8185  47.1085  47.3662  47.3662  47.3682  47.4691  47.4694
    47.4695  51.7295  51.7302  51.7302

          k = 0.0946-0.0946-0.1419 (  1030 PWs)   bands (ev):

     9.5873   9.5949  10.2943  10.2947  12.0109  12.0113  12.3069  12.3244
    12.5453  12.5674  12.6579  12.6598  12.7003  12.7003  12.7636  12.7638
    14.3345  14.3373  14.3625  14.3637  14.5562  14.5601  16.4646  16.4647
    20.3839  20.3839  22.8041  22.8136  32.9273  32.9275  34.1453  34.1458
    35.7239  35.7572  36.7250  36.7420  38.4339  38.4874  38.8478  38.8480
    44.0310  44.0313  44.2405  44.2673  45.3678  45.3752  47.8519  47.8520
    48.9379  48.9492  52.3470  52.3489

     the Fermi energy is    14.1798 ev

!    total energy              =    -343.62916276 Ry
     Harris-Foulkes estimate   =    -343.62914275 Ry
     estimated scf accuracy    <          2.6E-11 Ry

     The total energy is the sum of the following terms:

     one-electron contribution =      -8.70047841 Ry
     hartree contribution      =      61.08001058 Ry
     xc contribution           =    -120.47524479 Ry
     ewald contribution        =    -275.48620515 Ry
     Dispersion Correction     =      -0.04675218 Ry
     smearing contrib. (-TS)   =      -0.00049281 Ry

     total magnetization       =     2.87 Bohr mag/cell
     absolute magnetization    =     3.30 Bohr mag/cell

     convergence has been achieved in  16 iterations

     Forces acting on atoms (Ry/au):

     atom    1 type  1   force =    -0.00231278   -0.00231278    0.00231275
     atom    2 type  1   force =     0.00231281    0.00231281    0.00231281
     atom    3 type  1   force =    -0.00231278    0.00231275   -0.00231278
     atom    4 type  1   force =     0.00231275   -0.00231278   -0.00231278

     Total force =     0.008012     Total SCF correction =     0.000002


     entering subroutine stress ...

          total   stress  (Ry/bohr**3)                   (kbar)     P=  -32.40
  -0.00022022   0.00000000   0.00000000        -32.40      0.00      0.00
   0.00000000  -0.00022022   0.00000000          0.00    -32.40      0.00
   0.00000000   0.00000000  -0.00022022          0.00      0.00    -32.40


     BFGS Geometry Optimization

     number of scf cycles    =   1
     number of bfgs steps    =   0

     enthalpy new            =    -343.6291627596 Ry

     new trust radius        =       0.0189120564 bohr
     new conv_thr            =       0.0000000100 Ry

     new unit-cell volume =    290.15535 a.u.^3 (    42.99659 Ang^3 )

CELL_PARAMETERS (alat=  1.88972590)
   3.503305762   0.000000069   0.000000069
   0.000000069   3.503305762   0.000000069
   0.000000069   0.000000069   3.503305762

ATOMIC_POSITIONS (alat)
Ni1      1.758212679   1.758212679   0.001217185
Ni1      0.001217147   0.001217147   0.001217147
Ni1      1.758212679   0.001217185   1.758212679
Ni1      0.001217185   1.758212679   1.758212679



     Writing output data file Ni-ferromag.save
     NEW-OLD atomic charge density approx. for the potential

     Check: negative/imaginary core charge=   -0.000005    0.000000
     extrapolated charge   39.33203, renormalised to   40.00000

     total cpu time spent up to now is      354.5 secs

     Self-consistent Calculation

     iteration #  1     ecut=    35.00 Ry     beta=0.20
     Davidson diagonalization with overlap
     c_bands:  1 eigenvalues not converged
     c_bands:  2 eigenvalues not converged
     c_bands:  3 eigenvalues not converged
     c_bands:  2 eigenvalues not converged
     ethr =  1.00E-06,  avg # of iterations =  6.9

     total cpu time spent up to now is      400.5 secs

     total energy              =    -343.54111532 Ry
     Harris-Foulkes estimate   =    -344.36624771 Ry
     estimated scf accuracy    <       0.14537605 Ry

     total magnetization       =     2.55 Bohr mag/cell
     absolute magnetization    =     2.97 Bohr mag/cell

     iteration #  2     ecut=    35.00 Ry     beta=0.20
     Davidson diagonalization with overlap
     ethr =  3.63E-04,  avg # of iterations =  3.3

     total cpu time spent up to now is      420.6 secs

     total energy              =    -343.63275259 Ry
     Harris-Foulkes estimate   =    -343.64343623 Ry
     estimated scf accuracy    <       0.05480892 Ry

     total magnetization       =     2.94 Bohr mag/cell
     absolute magnetization    =     3.35 Bohr mag/cell

     iteration #  3     ecut=    35.00 Ry     beta=0.20
     Davidson diagonalization with overlap
     ethr =  1.37E-04,  avg # of iterations =  1.0

     total cpu time spent up to now is      438.1 secs

     total energy              =    -343.62589724 Ry
     Harris-Foulkes estimate   =    -343.63450139 Ry
     estimated scf accuracy    <       0.01897172 Ry

     total magnetization       =     2.90 Bohr mag/cell
     absolute magnetization    =     3.32 Bohr mag/cell

     iteration #  4     ecut=    35.00 Ry     beta=0.20
     Davidson diagonalization with overlap
     ethr =  4.74E-05,  avg # of iterations =  3.0

     total cpu time spent up to now is      457.4 secs

     total energy              =    -343.63008088 Ry
     Harris-Foulkes estimate   =    -343.62980346 Ry
     estimated scf accuracy    <       0.00014200 Ry

     total magnetization       =     2.84 Bohr mag/cell
     absolute magnetization    =     3.26 Bohr mag/cell

     iteration #  5     ecut=    35.00 Ry     beta=0.20
     Davidson diagonalization with overlap
     c_bands:  2 eigenvalues not converged
     ethr =  3.55E-07,  avg # of iterations =  4.3

     total cpu time spent up to now is      483.0 secs

     total energy              =    -343.62984967 Ry
     Harris-Foulkes estimate   =    -343.63028882 Ry
     estimated scf accuracy    <       0.00208226 Ry

     total magnetization       =     2.82 Bohr mag/cell
     absolute magnetization    =     3.24 Bohr mag/cell

     iteration #  6     ecut=    35.00 Ry     beta=0.20
     Davidson diagonalization with overlap
     ethr =  3.55E-07,  avg # of iterations =  1.5

     total cpu time spent up to now is      500.9 secs

     total energy              =    -343.62984777 Ry
     Harris-Foulkes estimate   =    -343.62992634 Ry
     estimated scf accuracy    <       0.00060981 Ry

     total magnetization       =     2.83 Bohr mag/cell
     absolute magnetization    =     3.25 Bohr mag/cell

     iteration #  7     ecut=    35.00 Ry     beta=0.20
     Davidson diagonalization with overlap
     ethr =  3.55E-07,  avg # of iterations =  1.2

     total cpu time spent up to now is      518.4 secs

     total energy              =    -343.62982558 Ry
     Harris-Foulkes estimate   =    -343.62985599 Ry
     estimated scf accuracy    <       0.00032156 Ry

     total magnetization       =     2.83 Bohr mag/cell
     absolute magnetization    =     3.25 Bohr mag/cell

     iteration #  8     ecut=    35.00 Ry     beta=0.20
     Davidson diagonalization with overlap
     ethr =  3.55E-07,  avg # of iterations =  1.0

     total cpu time spent up to now is      535.8 secs

     total energy              =    -343.62978357 Ry
     Harris-Foulkes estimate   =    -343.62982782 Ry
     estimated scf accuracy    <       0.00020673 Ry

     total magnetization       =     2.83 Bohr mag/cell
     absolute magnetization    =     3.25 Bohr mag/cell

     iteration #  9     ecut=    35.00 Ry     beta=0.20
     Davidson diagonalization with overlap
     ethr =  3.55E-07,  avg # of iterations =  1.0

     total cpu time spent up to now is      553.1 secs

     total energy              =    -343.62978360 Ry
     Harris-Foulkes estimate   =    -343.62979155 Ry
     estimated scf accuracy    <       0.00005818 Ry

     total magnetization       =     2.84 Bohr mag/cell
     absolute magnetization    =     3.25 Bohr mag/cell

     iteration # 10     ecut=    35.00 Ry     beta=0.20
     Davidson diagonalization with overlap
     ethr =  1.45E-07,  avg # of iterations =  1.0

     total cpu time spent up to now is      570.5 secs

     total energy              =    -343.62977231 Ry
     Harris-Foulkes estimate   =    -343.62978449 Ry
     estimated scf accuracy    <       0.00002906 Ry

     total magnetization       =     2.84 Bohr mag/cell
     absolute magnetization    =     3.25 Bohr mag/cell

     iteration # 11     ecut=    35.00 Ry     beta=0.20
     Davidson diagonalization with overlap
     ethr =  7.27E-08,  avg # of iterations =  1.0

     Magnetic moment per site:
     atom:    1    charge:    3.0059    magn:    0.3351    constr:    0.0000
     atom:    2    charge:    3.0041    magn:    0.3349    constr:    0.0000
     atom:    3    charge:    3.0059    magn:    0.3351    constr:    0.0000
     atom:    4    charge:    3.0059    magn:    0.3351    constr:    0.0000

     total cpu time spent up to now is      587.9 secs

     End of self-consistent calculation

 ------ SPIN UP ------------


          k = 0.0000 0.0000 0.0000 (  1021 PWs)   bands (ev):

     5.4284   9.7125   9.7125   9.7125  10.1653  10.1656  10.1656  11.9440
    11.9440  11.9440  13.1223  13.1223  13.8401  13.8401  13.8401  13.9298
    13.9298  13.9298  13.9300  13.9300  13.9300  17.0681  17.0683  17.0683
    23.8055  23.8055  23.8055  29.5630  29.5630  29.5630  29.5631  29.5631
    29.5631  34.6425  34.6425  34.6427  37.9850  37.9851  37.9851  38.4908
    42.4660  42.4660  42.4660  46.0662  46.0662  46.0662  48.1679  55.1604
    55.1604  55.1604  57.6632  59.0987

          k =-0.0000-0.0000 0.0476 (  1021 PWs)   bands (ev):

     5.7945   9.7346   9.8966   9.8966  10.2759  10.2917  10.2919  11.8154
    12.0463  12.0463  13.0041  13.1687  13.2764  13.2765  13.6864  13.6864
    13.7543  13.7543  13.7906  13.9303  13.9303  15.4675  18.0266  18.0267
    23.9013  23.9014  26.0551  27.8117  27.8118  28.4395  28.4395  30.1234
    30.1234  34.7587  36.8150  36.8151  37.8556  38.1170  39.9411  39.9411
    40.2460  40.2460  40.9112  47.4855  48.1219  48.1219  49.1421  51.5530
    56.2564  56.2564  56.6679  56.6681

          k =-0.0000-0.0000 0.0951 (  1032 PWs)   bands (ev):

     6.8437   9.5051  10.3334  10.3334  10.5834  10.6745  10.6749  11.4715
    12.2203  12.2207  12.3427  12.3427  12.7168  13.2976  13.3027  13.3027
    13.3040  13.3212  13.3212  13.6565  13.9308  13.9308  19.9887  19.9888
    24.2187  24.2187  25.0383  25.0384  26.6715  26.6715  30.3548  31.7027
    31.7027  35.1226  36.7236  37.0242  37.0242  38.3441  38.6690  40.8583
    40.8584  44.1063  44.1063  44.1386  50.9202  51.0413  51.0413  51.0447
    51.0447  55.0304  55.9504  55.9505

          k = 0.0000 0.0000-0.1427 (  1044 PWs)   bands (ev):

     8.3354   8.3507  10.6094  10.6094  11.0068  11.0292  11.3102  11.3103
    11.3324  11.3326  12.5242  12.5556  12.7860  12.7860  12.8028  12.8028
    13.0607  13.0607  13.4695  13.4818  13.9311  13.9311  22.3546  22.3547
    22.3935  22.3935  24.5919  24.5919  25.7259  25.7259  34.0669  34.0669
    34.0941  34.0941  34.8761  34.9334  35.7628  35.7763  40.2162  40.3080
    45.6185  45.6186  45.6984  45.6986  47.6109  47.6109  52.2903  52.2904
    54.1326  54.1326  54.2063  54.2063

          k =-0.0000 0.0476 0.0476 (  1027 PWs)   bands (ev):

     6.1521   9.9329   9.9329  10.0597  10.3931  10.3934  10.4071  11.7554
    12.0913  12.1083  12.9300  12.9717  12.9885  12.9967  13.1645  13.5581
    13.6824  13.6824  13.7528  13.7529  13.8144  16.3994  16.3994  18.7963
    23.8956  25.0942  26.2425  26.2426  28.2890  28.2890  28.9320  28.9323
    30.6510  36.0307  36.1147  37.0232  37.0234  37.3272  40.1101  40.1103
    41.2652  42.5981  43.5252  45.2261  46.3589  49.7810  50.4494  53.0896
    53.6652  55.3454  55.3459  56.2986

          k =-0.0000 0.0476 0.0951 (  1029 PWs)   bands (ev):

     7.1736   9.7411  10.4148  10.4632  10.6748  10.7280  10.7471  11.4747
    11.9821  12.1213  12.2372  12.3544  12.3803  12.8132  13.2345  13.3073
    13.3243  13.3440  13.4958  13.7490  13.7561  14.4330  18.0133  20.5787
    22.0766  24.6037  25.4997  26.5294  27.3959  29.6030  29.8941  29.9543
    31.0104  33.7197  34.4621  37.6752  38.6271  40.3848  40.5638  40.7418
    41.1142  44.0336  45.0256  47.0518  47.7797  48.5826  49.8889  51.3294
    52.9349  53.2546  54.8207  56.2154

          k = 0.0000 0.0476-0.1427 (  1044 PWs)   bands (ev):

     8.6173   8.6317  10.7614  10.7624  11.0584  11.0800  11.1804  11.1986
    11.3251  11.3467  12.1549  12.1781  12.7866  12.8038  13.0205  13.0281
    13.0454  13.0464  13.6591  13.6593  13.7454  13.7489  19.8717  19.8914
    22.8558  22.8907  25.3943  25.4208  28.3001  28.3090  31.4868  31.4984
    32.0117  32.0198  35.7910  35.8570  38.8212  38.8262  42.1780  42.2346
    43.0984  43.1195  45.8969  45.9724  50.0420  50.1094  50.3335  50.3653
    52.5945  52.6197  53.1943  53.2147

          k =-0.0000 0.0951 0.0951 (  1045 PWs)   bands (ev):

     8.1000  10.3284  10.3285  10.6944  10.9423  10.9429  10.9567  11.4050
    11.6516  11.6517  11.8061  12.1248  12.4850  12.7269  13.0187  13.1729
    13.1731  13.3139  13.3140  13.4839  13.6989  15.6785  15.6785  19.2962
    22.1051  25.1544  26.7719  26.7719  27.8921  27.8923  30.9804  31.6326
    31.6359  31.7350  33.5992  36.8337  41.5219  41.8753  41.8755  43.0699
    43.4065  43.7653  43.7654  47.1818  47.3250  48.4698  48.4703  51.6698
    52.1730  52.1839  53.2026  55.3447

          k = 0.0000 0.0951-0.1427 (  1034 PWs)   bands (ev):

     9.3611   9.3729  10.7922  10.8060  11.1839  11.1974  11.2083  11.2135
    11.3447  11.3649  11.8532  11.8684  12.8228  12.8317  12.8327  12.8399
    12.8996  12.9022  13.3436  13.3539  14.3587  14.3615  17.2020  17.2174
    24.2159  24.2424  26.2114  26.2330  28.6421  28.6547  29.5320  29.5347
    32.9418  32.9476  36.7540  36.8183  40.3531  40.3658  43.0384  43.0509
    43.2079  43.2137  46.7046  46.7661  47.9001  47.9372  50.4049  50.4392
    51.7308  51.7859  53.5503  53.5648

          k = 0.0000-0.1427-0.1427 (  1024 PWs)   bands (ev):

    10.2100  10.2202  10.2202  10.2301  11.2971  11.3163  11.3163  11.3354
    11.6202  11.6257  11.6257  11.6311  12.6841  12.6859  12.6859  12.6881
    12.9848  13.0007  13.0007  13.0165  15.4228  15.4300  15.4301  15.4373
    26.1847  26.2030  26.2030  26.2211  27.5618  27.5748  27.5748  27.5882
    37.8699  37.8874  37.8874  37.9057  38.4738  38.4960  38.4960  38.5159
    47.1721  47.1721  47.1725  47.1731  49.1513  49.1860  49.1861  49.2207
    51.8090  51.8120  51.8121  51.8147

          k = 0.0476 0.0476 0.0476 (  1021 PWs)   bands (ev):

     6.4978  10.0937  10.0938  10.0938  10.5075  10.5078  10.5078  11.7206
    12.1279  12.1279  12.6846  12.6846  12.6847  13.0775  13.0775  13.3247
    13.3250  13.3250  13.8684  13.8684  13.8684  17.0263  17.0264  17.0264
    25.3211  25.3213  25.3213  26.5874  26.5874  26.5875  31.1662  31.1664
    31.1664  33.4782  36.1625  36.1625  36.1626  39.2477  41.1324  41.1324
    42.8054  42.8055  42.8055  46.5864  47.6427  47.6427  51.6365  51.6365
    55.1213  55.2225  55.2230  55.2230

          k = 0.0476 0.0476 0.0951 (  1036 PWs)   bands (ev):

     7.4792   9.8997  10.4765  10.4767  10.7930  10.8213  10.8214  11.5113
    11.9723  11.9724  12.1656  12.2096  12.2676  12.9225  12.9924  13.0788
    13.0798  13.3174  13.7711  13.7711  13.8035  14.7947  18.3684  18.3684
    22.7022  22.7023  26.6145  27.2386  27.2386  30.3533  30.3534  30.7404
    30.9435  32.6458  36.6407  37.7720  37.8454  38.7856  38.7856  42.3552
    43.4973  44.4635  47.0142  47.0142  47.8766  49.0778  50.1957  50.1958
    50.6906  53.0119  53.0718  55.6508

          k = 0.0476 0.0476-0.1427 (  1034 PWs)   bands (ev):

     8.8452   8.8579  10.8630  10.8636  10.9217  10.9219  11.1550  11.1752
    11.5788  11.5788  12.0595  12.0821  12.5365  12.5443  12.9111  12.9113
    13.4786  13.4946  13.5914  13.5949  13.7152  13.7152  19.5171  19.5171
    21.1411  21.1412  28.2013  28.2033  28.4366  28.4458  28.9219  28.9250
    34.9221  34.9449  35.3887  35.4340  38.0660  38.1134  42.1985  42.1986
    44.7370  44.7626  45.3641  45.3643  49.4570  49.4926  50.8875  50.8998
    52.1784  52.1785  53.6801  53.6847

          k = 0.0476 0.0951 0.0951 (  1034 PWs)   bands (ev):

     8.3180  10.2173  10.2175  10.5035  11.1086  11.1544  11.1547  11.5562
    11.7686  11.7687  11.9017  12.1269  12.2524  12.7302  12.7304  12.7470
    13.0501  13.6045  13.6729  13.6890  13.6900  15.8092  15.8093  18.6203
    20.7989  23.8988  23.8988  27.9341  28.0537  31.1300  31.1301  32.1153
    32.1155  34.0120  35.2368  36.9042  39.3193  39.3195  40.1491  43.0313
    43.7309  44.7788  46.4570  46.4571  49.1864  49.1866  50.4116  50.5907
    50.9186  51.6117  52.2986  52.9205

          k = 0.0476 0.0951-0.1427 (  1032 PWs)   bands (ev):

     9.3973   9.4052  10.4374  10.4397  11.3216  11.3223  11.4621  11.4785
    11.7719  11.7788  11.8891  11.9041  12.3987  12.4044  12.6105  12.6141
    13.3437  13.3501  13.5712  13.5778  14.2651  14.2677  17.1805  17.1930
    21.8097  21.8195  25.6560  25.6629  29.4282  29.4343  33.0336  33.0362
    33.2459  33.2514  36.8734  36.9261  40.1263  40.1379  40.4358  40.4452
    45.1853  45.1896  45.6667  45.6922  47.6910  47.7046  50.5568  50.5779
    51.7788  51.7911  53.8742  53.8973

          k = 0.0476-0.1427-0.1427 (  1032 PWs)   bands (ev):

     9.9674   9.9708   9.9708   9.9738  11.7075  11.7128  11.7128  11.7178
    11.7896  11.8007  11.8007  11.8120  12.3676  12.3730  12.3730  12.3786
    13.3195  13.3295  13.3295  13.3395  15.3331  15.3410  15.3410  15.3490
    23.4407  23.4482  23.4482  23.4557  30.9664  30.9687  30.9687  30.9713
    38.1523  38.1662  38.1662  38.1839  38.3201  38.3411  38.3411  38.3569
    46.6483  46.6483  46.6488  46.6514  46.7342  46.7546  46.7546  46.7717
    54.7887  54.8022  54.8022  54.8196

          k = 0.0951 0.0951 0.0951 (  1009 PWs)   bands (ev):

     8.8620  10.0523  10.0526  10.0526  11.5129  11.5132  11.5132  12.0261
    12.0835  12.0835  12.0889  12.0978  12.0978  12.3764  12.3764  12.3766
    13.4525  13.4525  13.8171  13.8171  13.8172  16.1875  16.1876  16.1876
    21.4062  21.4062  21.4062  25.1461  32.4959  32.4959  32.4960  35.2392
    35.2394  35.2394  37.2690  37.2690  37.2693  37.7872  39.9466  39.9466
    44.4408  44.4408  47.7675  48.0612  48.0612  48.0621  48.1354  48.1356
    48.1356  52.4426  52.4430  52.4430

          k = 0.0951 0.0951-0.1427 (  1030 PWs)   bands (ev):

     9.4871   9.4892   9.9839   9.9841  11.6328  11.6330  11.9132  11.9256
    12.1352  12.1369  12.2534  12.2565  12.2661  12.2786  12.3710  12.3713
    13.7368  13.7380  13.7454  13.7462  14.1561  14.1568  16.4718  16.4719
    20.3772  20.3773  22.9602  22.9674  33.4117  33.4117  34.6223  34.6226
    36.3151  36.3372  37.2353  37.2472  38.9707  39.0082  39.4345  39.4345
    44.6480  44.6481  44.8892  44.9080  46.0096  46.0146  48.5462  48.5462
    49.5968  49.6047  52.9768  52.9776

          k = 0.0951-0.1427-0.1427 (  1032 PWs)   bands (ev):

     9.6636   9.6639   9.6639   9.6639  11.8756  11.8789  11.8789  11.8820
    12.0651  12.0686  12.0686  12.0722  12.8107  12.8178  12.8178  12.8249
    13.6603  13.6657  13.6657  13.6712  14.9554  14.9645  14.9645  14.9736
    21.0845  21.0906  21.0906  21.0967  35.1478  35.1508  35.1508  35.1539
    38.2044  38.2140  38.2140  38.2241  38.9250  38.9353  38.9353  38.9443
    44.0813  44.0900  44.0900  44.0984  45.1504  45.1527  45.1527  45.1548
    50.4129  50.4165  50.4165  50.4207

          k =-0.1427-0.1427-0.1427 (  1064 PWs)   bands (ev):

     9.5477   9.5480   9.5480   9.5480  11.9569  11.9569  11.9569  11.9570
    11.9570  11.9573  11.9573  11.9573  13.7926  13.7926  13.7926  13.7931
    13.7931  13.7932  13.7932  13.7932  14.2895  14.2899  14.2899  14.2899
    20.2095  20.2095  20.2095  20.2096  36.9459  36.9461  36.9461  36.9461
    39.5707  39.5707  39.5707  39.5708  39.5708  39.5712  39.5712  39.5712
    42.7982  42.7982  42.7984  42.7984  42.7984  42.7985  42.7986  42.7986
    48.7693  48.7693  48.7693  48.7695

          k =-0.0476 0.0000 0.0476 (  1027 PWs)   bands (ev):

     6.1521   9.9329   9.9329  10.0597  10.3931  10.3934  10.4071  11.7554
    12.0913  12.1083  12.9300  12.9717  12.9885  12.9967  13.1645  13.5581
    13.6824  13.6824  13.7528  13.7529  13.8144  16.3994  16.3994  18.7963
    23.8956  25.0942  26.2424  26.2426  28.2890  28.2890  28.9320  28.9323
    30.6510  36.0307  36.1147  37.0232  37.0234  37.3272  40.1100  40.1104
    41.2652  42.5981  43.5252  45.2261  46.3589  49.7810  50.4494  53.0896
    53.6653  55.3454  55.3459  56.2986

          k =-0.0476-0.0000 0.0951 (  1029 PWs)   bands (ev):

     7.1736   9.7411  10.4148  10.4632  10.6748  10.7280  10.7471  11.4747
    11.9821  12.1213  12.2372  12.3544  12.3803  12.8132  13.2345  13.3073
    13.3243  13.3440  13.4958  13.7490  13.7561  14.4330  18.0133  20.5787
    22.0766  24.6037  25.4997  26.5294  27.3959  29.6030  29.8941  29.9543
    31.0104  33.7197  34.4621  37.6752  38.6271  40.3848  40.5638  40.7418
    41.1142  44.0336  45.0256  47.0518  47.7797  48.5826  49.8889  51.3294
    52.9349  53.2546  54.8207  56.2154

          k =-0.0951 0.0000 0.0951 (  1045 PWs)   bands (ev):

     8.1000  10.3284  10.3285  10.6944  10.9423  10.9429  10.9567  11.4050
    11.6516  11.6517  11.8061  12.1248  12.4850  12.7269  13.0187  13.1729
    13.1731  13.3139  13.3140  13.4839  13.6989  15.6785  15.6785  19.2962
    22.1051  25.1544  26.7719  26.7719  27.8920  27.8924  30.9804  31.6326
    31.6359  31.7350  33.5992  36.8337  41.5219  41.8753  41.8755  43.0699
    43.4065  43.7653  43.7653  47.1818  47.3249  48.4698  48.4703  51.6698
    52.1730  52.1839  53.2026  55.3388

          k = 0.0476-0.0476 0.0476 (  1021 PWs)   bands (ev):

     6.4978  10.0937  10.0938  10.0938  10.5075  10.5078  10.5078  11.7206
    12.1279  12.1279  12.6846  12.6846  12.6847  13.0775  13.0775  13.3247
    13.3250  13.3250  13.8684  13.8684  13.8684  17.0263  17.0264  17.0264
    25.3211  25.3212  25.3213  26.5874  26.5874  26.5875  31.1662  31.1664
    31.1664  33.4782  36.1624  36.1625  36.1627  39.2477  41.1324  41.1324
    42.8054  42.8055  42.8055  46.5864  47.6427  47.6427  51.6365  51.6365
    55.1213  55.2225  55.2230  55.2230

          k = 0.0476-0.0476 0.0951 (  1036 PWs)   bands (ev):

     7.4792   9.8997  10.4765  10.4767  10.7930  10.8213  10.8214  11.5113
    11.9723  11.9724  12.1656  12.2096  12.2676  12.9224  12.9924  13.0788
    13.0798  13.3174  13.7711  13.7711  13.8035  14.7947  18.3684  18.3684
    22.7022  22.7023  26.6145  27.2386  27.2386  30.3533  30.3534  30.7404
    30.9435  32.6458  36.6407  37.7720  37.8454  38.7856  38.7856  42.3552
    43.4974  44.4635  47.0142  47.0143  47.8766  49.0778  50.1956  50.1958
    50.6906  53.0119  53.0718  55.6508

          k =-0.0951 0.0476 0.0476 (  1036 PWs)   bands (ev):

     7.4792   9.8997  10.4765  10.4767  10.7930  10.8213  10.8214  11.5113
    11.9723  11.9724  12.1656  12.2096  12.2676  12.9224  12.9924  13.0788
    13.0798  13.3174  13.7711  13.7711  13.8035  14.7947  18.3684  18.3684
    22.7022  22.7023  26.6145  27.2386  27.2386  30.3533  30.3534  30.7404
    30.9435  32.6458  36.6407  37.7720  37.8454  38.7856  38.7856  42.3552
    43.4973  44.4635  47.0142  47.0143  47.8766  49.0778  50.1957  50.1958
    50.6906  53.0119  53.0718  55.6508

          k = 0.0476-0.0476-0.1427 (  1034 PWs)   bands (ev):

     8.8452   8.8579  10.8630  10.8636  10.9217  10.9219  11.1550  11.1752
    11.5788  11.5788  12.0595  12.0821  12.5365  12.5443  12.9111  12.9113
    13.4786  13.4946  13.5914  13.5949  13.7152  13.7152  19.5171  19.5171
    21.1411  21.1411  28.2013  28.2032  28.4366  28.4458  28.9219  28.9250
    34.9221  34.9449  35.3887  35.4340  38.0660  38.1134  42.1985  42.1986
    44.7370  44.7626  45.3641  45.3643  49.4570  49.4926  50.8875  50.8998
    52.1783  52.1785  53.6801  53.6847

          k = 0.0951-0.0476 0.0951 (  1034 PWs)   bands (ev):

     8.3180  10.2173  10.2175  10.5035  11.1086  11.1544  11.1547  11.5562
    11.7686  11.7687  11.9017  12.1269  12.2524  12.7302  12.7304  12.7470
    13.0501  13.6045  13.6729  13.6890  13.6900  15.8092  15.8093  18.6203
    20.7989  23.8988  23.8988  27.9341  28.0537  31.1300  31.1301  32.1153
    32.1155  34.0120  35.2368  36.9042  39.3193  39.3195  40.1491  43.0313
    43.7309  44.7788  46.4570  46.4571  49.1864  49.1866  50.4116  50.5907
    50.9186  51.6117  52.2986  52.9207

          k =-0.0951 0.0476 0.0951 (  1034 PWs)   bands (ev):

     8.3180  10.2173  10.2175  10.5035  11.1086  11.1544  11.1547  11.5562
    11.7686  11.7687  11.9017  12.1269  12.2524  12.7302  12.7304  12.7470
    13.0501  13.6045  13.6729  13.6890  13.6900  15.8093  15.8093  18.6203
    20.7989  23.8988  23.8988  27.9341  28.0537  31.1300  31.1301  32.1153
    32.1155  34.0120  35.2368  36.9042  39.3193  39.3195  40.1491  43.0313
    43.7309  44.7788  46.4570  46.4570  49.1864  49.1867  50.4116  50.5907
    50.9186  51.6117  52.2986  52.9206

          k = 0.0951-0.0476-0.1427 (  1032 PWs)   bands (ev):

     9.3973   9.4052  10.4374  10.4397  11.3216  11.3223  11.4621  11.4785
    11.7719  11.7788  11.8891  11.9041  12.3987  12.4044  12.6105  12.6141
    13.3437  13.3501  13.5712  13.5778  14.2651  14.2677  17.1805  17.1930
    21.8097  21.8195  25.6560  25.6629  29.4282  29.4343  33.0336  33.0361
    33.2459  33.2514  36.8734  36.9261  40.1263  40.1379  40.4358  40.4452
    45.1853  45.1896  45.6667  45.6922  47.6910  47.7046  50.5568  50.5779
    51.7788  51.7911  53.8745  53.8974

          k = 0.0951-0.0951 0.0951 (  1009 PWs)   bands (ev):

     8.8620  10.0523  10.0526  10.0526  11.5129  11.5132  11.5132  12.0261
    12.0835  12.0835  12.0889  12.0978  12.0978  12.3764  12.3764  12.3766
    13.4525  13.4525  13.8171  13.8171  13.8172  16.1875  16.1876  16.1876
    21.4062  21.4062  21.4062  25.1461  32.4958  32.4959  32.4961  35.2392
    35.2393  35.2394  37.2690  37.2690  37.2693  37.7872  39.9466  39.9466
    44.4408  44.4408  47.7675  48.0611  48.0612  48.0621  48.1355  48.1356
    48.1356  52.4426  52.4429  52.4430

          k = 0.0951-0.0951-0.1427 (  1030 PWs)   bands (ev):

     9.4871   9.4892   9.9839   9.9841  11.6328  11.6330  11.9132  11.9256
    12.1352  12.1369  12.2534  12.2565  12.2661  12.2786  12.3710  12.3713
    13.7368  13.7380  13.7454  13.7462  14.1561  14.1568  16.4718  16.4718
    20.3772  20.3772  22.9602  22.9674  33.4116  33.4117  34.6223  34.6226
    36.3151  36.3372  37.2353  37.2472  38.9707  39.0082  39.4344  39.4345
    44.6480  44.6481  44.8892  44.9080  46.0096  46.0146  48.5462  48.5462
    49.5968  49.6047  52.9768  52.9776

 ------ SPIN DOWN ----------


          k = 0.0000 0.0000 0.0000 (  1021 PWs)   bands (ev):

     5.3737  10.1747  10.1748  10.1748  10.8838  10.8842  10.8842  12.8249
    12.8249  12.8249  13.9028  13.9028  14.6547  14.6547  14.6547  14.9397
    14.9397  14.9397  14.9399  14.9399  14.9399  16.9893  16.9894  16.9894
    24.1112  24.1112  24.1112  29.5492  29.5493  29.5493  29.5494  29.5494
    29.5495  34.8064  34.8064  34.8065  38.1286  38.1288  38.1288  38.2847
    42.4365  42.4365  42.4365  46.1384  46.1384  46.1384  48.0081  55.3494
    55.3494  55.3494  58.1949  59.6277

          k =-0.0000-0.0000 0.0476 (  1021 PWs)   bands (ev):

     5.7398  10.1504  10.3689  10.3689  11.0034  11.0077  11.0080  12.6829
    12.9312  12.9312  13.7750  13.9512  14.0969  14.0971  14.4876  14.4877
    14.6028  14.7473  14.7473  14.9402  14.9402  15.5377  18.1334  18.1335
    24.1920  24.1920  26.2570  27.8802  27.8803  28.4668  28.4669  30.1260
    30.1260  34.9099  36.8956  36.8957  37.7164  38.2582  40.0612  40.0613
    40.2883  40.2883  40.8411  47.5058  48.0954  48.0954  49.2137  51.5437
    56.4676  56.4676  56.5942  56.5945

          k =-0.0000-0.0000 0.0951 (  1032 PWs)   bands (ev):

     6.7933   9.7132  10.8302  10.8303  11.3363  11.3851  11.3855  12.3049
    12.9500  12.9504  13.2408  13.2408  13.4540  13.6757  14.0756  14.0756
    14.0863  14.2728  14.2728  14.4622  14.9408  14.9408  20.1738  20.1739
    24.4649  24.4649  25.1790  25.1790  26.7698  26.7698  30.4503  31.7396
    31.7396  35.2360  36.6884  37.0956  37.0956  38.2536  38.8151  40.8633
    40.8635  44.2058  44.2059  44.3571  50.8756  50.9461  50.9461  50.9710
    50.9710  54.9253  56.1920  56.1920

          k = 0.0000 0.0000-0.1427 (  1044 PWs)   bands (ev):

     8.3286   8.3444  11.1219  11.1219  11.7967  11.8206  12.0196  12.0199
    12.0423  12.0426  13.1711  13.2054  13.7070  13.7070  13.7244  13.7244
    13.8089  13.8090  14.2662  14.2791  14.9411  14.9411  22.5358  22.5359
    22.5755  22.5756  24.7884  24.7885  25.8834  25.8835  34.1319  34.1319
    34.1591  34.1591  34.8551  34.9141  35.8124  35.8286  40.4078  40.5011
    45.5728  45.5730  45.6547  45.6549  47.6849  47.6850  52.4800  52.4801
    54.0219  54.0219  54.0956  54.0956

          k =-0.0000 0.0476 0.0476 (  1027 PWs)   bands (ev):

     6.0983  10.3613  10.3613  10.5509  11.1071  11.1175  11.1178  12.6093
    12.9816  12.9860  13.6954  13.7273  13.7370  13.7586  13.9521  14.3493
    14.4753  14.4753  14.7460  14.7461  14.8170  16.7140  16.7140  18.9619
    24.1544  25.2238  26.4312  26.4313  28.3718  28.3718  28.9731  28.9735
    30.6621  36.1054  36.1351  37.0935  37.0938  37.3446  40.2281  40.2283
    41.1841  42.6855  43.4941  45.1695  46.4193  49.9397  50.3745  53.2608
    53.6320  55.3068  55.3074  56.2387

          k =-0.0000 0.0476 0.0951 (  1029 PWs)   bands (ev):

     7.1279   9.9637  10.8774  10.9956  11.3903  11.4230  11.4644  12.2971
    12.6738  12.8427  13.0343  13.0794  13.2569  13.5781  13.9999  14.0846
    14.1551  14.2420  14.2712  14.7428  14.7530  15.1425  18.3520  20.7828
    22.2751  24.8317  25.6513  26.6641  27.5213  29.7114  29.9562  30.0244
    31.1079  33.7976  34.5045  37.7169  38.6649  40.3361  40.5112  40.8617
    41.1135  44.1159  45.2304  47.1183  47.7019  48.5648  49.8728  51.2544
    52.8902  53.1636  55.0403  56.4686

          k = 0.0000 0.0476-0.1427 (  1044 PWs)   bands (ev):

     8.6225   8.6375  11.2645  11.2664  11.8371  11.8590  11.8620  11.8806
    12.0372  12.0595  12.8946  12.9212  13.7101  13.7277  13.7896  13.7936
    13.7990  13.8016  14.4979  14.4987  14.7399  14.7437  20.1531  20.1731
    23.0488  23.0840  25.5648  25.5934  28.4163  28.4268  31.6013  31.6117
    32.0701  32.0771  35.8162  35.8820  38.8229  38.8266  42.3300  42.3884
    43.0902  43.1135  45.8477  45.9251  50.1080  50.1742  50.2655  50.2976
    52.5102  52.5364  53.3628  53.3830

          k =-0.0000 0.0951 0.0951 (  1045 PWs)   bands (ev):

     8.0778  10.6017  10.6018  11.3590  11.4412  11.6783  11.6790  12.1994
    12.3453  12.3453  12.5187  12.9165  13.4007  13.4744  13.7728  13.9110
    13.9113  14.2750  14.2752  14.4652  14.5417  16.2841  16.2842  19.6039
    22.3243  25.3529  26.9386  26.9386  27.9933  27.9935  31.1112  31.7208
    31.7247  31.8030  33.6517  36.8692  41.4582  41.8569  41.8571  43.1045
    43.2888  43.8077  43.8078  47.3031  47.3540  48.5147  48.5151  51.7293
    52.0606  52.1275  53.4062  55.2452

          k = 0.0000 0.0951-0.1427 (  1034 PWs)   bands (ev):

     9.4219   9.4347  11.2122  11.2258  11.8436  11.8449  11.9500  11.9713
    12.0655  12.0866  12.5897  12.6066  13.5669  13.5673  13.6388  13.6413
    13.7590  13.7773  14.3122  14.3233  15.1649  15.1683  17.6665  17.6816
    24.4213  24.4472  26.3622  26.3858  28.8049  28.8161  29.6216  29.6253
    33.0128  33.0200  36.7815  36.8460  40.3526  40.3639  42.9844  42.9959
    43.2265  43.2317  46.6420  46.7046  47.9814  48.0203  50.3515  50.3867
    51.8517  51.9067  53.4651  53.4787

          k = 0.0000-0.1427-0.1427 (  1024 PWs)   bands (ev):

    10.4282  10.4396  10.4396  10.4508  12.0339  12.0544  12.0545  12.0747
    12.2892  12.2955  12.2956  12.3019  13.4222  13.4242  13.4242  13.4266
    13.9335  13.9501  13.9501  13.9668  16.1062  16.1123  16.1124  16.1184
    26.3807  26.3979  26.3979  26.4148  27.6839  27.6984  27.6984  27.7133
    37.9445  37.9614  37.9614  37.9795  38.4410  38.4621  38.4622  38.4805
    47.0513  47.0518  47.0518  47.0538  49.1394  49.1750  49.1750  49.2106
    51.9084  51.9131  51.9132  51.9175

          k = 0.0476 0.0476 0.0476 (  1021 PWs)   bands (ev):

     6.4469  10.5491  10.5491  10.5491  11.2084  11.2089  11.2089  12.5545
    13.0064  13.0064  13.3957  13.3957  13.3957  13.8644  13.8644  14.1563
    14.1566  14.1566  14.8172  14.8172  14.8174  17.3675  17.3676  17.3676
    25.4526  25.4527  25.4527  26.7607  26.7607  26.7609  31.1880  31.1883
    31.1883  33.5446  36.2572  36.2572  36.2574  39.0919  41.1849  41.1849
    42.8895  42.8896  42.8896  46.4988  47.5996  47.5996  51.8033  51.8033
    55.1755  55.1761  55.1761  55.4604

          k = 0.0476 0.0476 0.0951 (  1036 PWs)   bands (ev):

     7.4440  10.1624  11.0085  11.0086  11.4498  11.4502  11.5059  12.3074
    12.6751  12.6752  12.8400  13.0389  13.1284  13.7691  13.8024  13.8662
    13.8677  14.1402  14.7051  14.7348  14.7351  15.4254  18.6954  18.6955
    22.9125  22.9125  26.7587  27.3876  27.3876  30.4282  30.4283  30.8544
    31.0309  32.6923  36.7150  37.6775  37.9225  38.8158  38.8158  42.3627
    43.5776  44.4809  47.0584  47.0584  47.9185  49.0233  50.1844  50.1845
    50.6974  52.9410  53.0317  55.7656

          k = 0.0476 0.0476-0.1427 (  1034 PWs)   bands (ev):

     8.8791   8.8929  11.4359  11.4360  11.5029  11.5035  11.9052  11.9273
    12.2932  12.2933  12.8083  12.8336  13.3883  13.3947  13.6753  13.6755
    14.2833  14.3004  14.4540  14.4558  14.6874  14.6874  19.7744  19.7745
    21.4451  21.4452  28.3161  28.3180  28.5786  28.5871  29.0367  29.0401
    34.9916  35.0141  35.3608  35.4077  38.1431  38.1908  42.1797  42.1797
    44.8229  44.8506  45.3529  45.3531  49.3772  49.4129  50.8415  50.8539
    52.2118  52.2118  53.8568  53.8649

          k = 0.0476 0.0951 0.0951 (  1034 PWs)   bands (ev):

     8.3299  10.6103  10.6104  11.1222  11.6161  11.7565  11.7569  12.2833
    12.4891  12.4893  12.6140  12.9280  13.0771  13.5293  13.5303  13.5335
    13.8939  14.4540  14.6016  14.6027  14.6207  16.3628  16.3629  18.8951
    21.1428  24.1158  24.1158  28.0936  28.1836  31.1936  31.1937  32.2079
    32.2081  34.0667  35.2622  36.9292  39.3340  39.3341  40.0726  43.1450
    43.7223  44.7243  46.4509  46.4509  49.2411  49.2413  50.3430  50.5742
    50.8948  51.6842  52.3639  52.8477

          k = 0.0476 0.0951-0.1427 (  1032 PWs)   bands (ev):

     9.5455   9.5559  10.9715  10.9761  11.8756  11.8778  12.1073  12.1259
    12.4654  12.4739  12.6489  12.6656  13.2040  13.2083  13.3857  13.3887
    14.2080  14.2172  14.5071  14.5145  15.0582  15.0615  17.5919  17.6040
    22.1104  22.1192  25.8565  25.8624  29.5280  29.5356  33.0911  33.0920
    33.3141  33.3210  36.8866  36.9388  40.1109  40.1216  40.4580  40.4681
    45.1727  45.1763  45.6576  45.6845  47.6708  47.6863  50.5949  50.6160
    51.7182  51.7301  53.9563  53.9785

          k = 0.0476-0.1427-0.1427 (  1032 PWs)   bands (ev):

    10.3214  10.3278  10.3278  10.3338  12.2744  12.2835  12.2835  12.2925
    12.4931  12.5042  12.5042  12.5152  13.1458  13.1506  13.1506  13.1556
    14.2305  14.2420  14.2420  14.2535  15.9803  15.9870  15.9870  15.9936
    23.6996  23.7059  23.7059  23.7122  31.0476  31.0513  31.0514  31.0554
    38.2250  38.2332  38.2332  38.2557  38.2719  38.2970  38.2970  38.3064
    46.5805  46.5805  46.5808  46.5824  46.7584  46.7794  46.7794  46.7986
    54.8518  54.8661  54.8661  55.0833

          k = 0.0951 0.0951 0.0951 (  1009 PWs)   bands (ev):

     8.9951  10.5623  10.5626  10.5626  12.0722  12.0724  12.0724  12.5497
    12.7674  12.7674  12.7683  12.8953  12.8953  13.1679  13.1679  13.1681
    14.3339  14.3339  14.7452  14.7452  14.7454  16.6142  16.6144  16.6144
    21.7448  21.7448  21.7449  25.3715  32.5422  32.5422  32.5423  35.3006
    35.3009  35.3009  37.2816  37.2816  37.2818  37.6159  40.0327  40.0327
    44.4498  44.4498  47.7824  48.0094  48.0094  48.0104  48.1367  48.1369
    48.1369  52.4737  52.4740  52.4740

          k = 0.0951 0.0951-0.1427 (  1030 PWs)   bands (ev):

     9.8181   9.8229  10.5223  10.5225  12.2648  12.2650  12.5720  12.5843
    12.8178  12.8333  12.9278  12.9290  12.9714  12.9714  13.0356  13.0356
    14.6460  14.6479  14.6743  14.6748  14.8713  14.8741  16.8035  16.8035
    20.8144  20.8145  23.2501  23.2564  33.4193  33.4193  34.7084  34.7087
    36.2054  36.2288  37.3082  37.3192  39.0512  39.0883  39.4090  39.4090
    44.6742  44.6744  44.8661  44.8851  46.0173  46.0233  48.5058  48.5058
    49.6503  49.6580  53.0856  53.0864

          k = 0.0951-0.1427-0.1427 (  1032 PWs)   bands (ev):

    10.1333  10.1348  10.1348  10.1359  12.6090  12.6122  12.6122  12.6153
    12.8416  12.8448  12.8448  12.8483  13.2500  13.2583  13.2583  13.2666
    14.5782  14.5843  14.5843  14.5906  15.4889  15.4964  15.4964  15.5037
    21.4783  21.4834  21.4835  21.4886  35.1201  35.1247  35.1247  35.1295
    38.1743  38.1830  38.1830  38.1921  38.9948  39.0045  39.0045  39.0130
    44.1121  44.1218  44.1219  44.1313  45.1423  45.1452  45.1452  45.1479
    50.5032  50.5069  50.5069  50.5113

          k =-0.1427-0.1427-0.1427 (  1064 PWs)   bands (ev):

    10.0492  10.0496  10.0496  10.0496  12.7303  12.7303  12.7303  12.7305
    12.7305  12.7306  12.7306  12.7306  14.1896  14.1897  14.1897  14.1901
    14.7169  14.7169  14.7171  14.7171  14.7171  14.7173  14.7173  14.7173
    20.6920  20.6920  20.6920  20.6920  36.7614  36.7617  36.7617  36.7617
    39.6409  39.6409  39.6409  39.6410  39.6410  39.6414  39.6414  39.6415
    42.8284  42.8284  42.8285  42.8285  42.8285  42.8287  42.8287  42.8287
    48.8834  48.8834  48.8834  48.8837

          k =-0.0476 0.0000 0.0476 (  1027 PWs)   bands (ev):

     6.0983  10.3613  10.3613  10.5509  11.1071  11.1175  11.1178  12.6093
    12.9816  12.9860  13.6954  13.7273  13.7370  13.7586  13.9521  14.3493
    14.4753  14.4753  14.7460  14.7461  14.8170  16.7140  16.7140  18.9619
    24.1544  25.2238  26.4311  26.4313  28.3718  28.3719  28.9731  28.9735
    30.6621  36.1054  36.1351  37.0936  37.0938  37.3446  40.2280  40.2284
    41.1841  42.6855  43.4941  45.1695  46.4193  49.9397  50.3745  53.2608
    53.6320  55.3068  55.3074  56.2387

          k =-0.0476-0.0000 0.0951 (  1029 PWs)   bands (ev):

     7.1279   9.9637  10.8774  10.9956  11.3903  11.4230  11.4644  12.2971
    12.6738  12.8427  13.0343  13.0794  13.2569  13.5781  13.9999  14.0846
    14.1551  14.2420  14.2712  14.7428  14.7530  15.1425  18.3520  20.7828
    22.2751  24.8317  25.6513  26.6641  27.5213  29.7114  29.9562  30.0244
    31.1079  33.7976  34.5045  37.7169  38.6649  40.3361  40.5112  40.8617
    41.1135  44.1159  45.2304  47.1183  47.7019  48.5648  49.8728  51.2544
    52.8902  53.1636  55.0403  56.4686

          k =-0.0951 0.0000 0.0951 (  1045 PWs)   bands (ev):

     8.0778  10.6017  10.6018  11.3590  11.4412  11.6783  11.6790  12.1994
    12.3453  12.3453  12.5187  12.9165  13.4007  13.4744  13.7728  13.9110
    13.9113  14.2750  14.2752  14.4652  14.5417  16.2841  16.2841  19.6039
    22.3243  25.3529  26.9385  26.9386  27.9932  27.9936  31.1112  31.7208
    31.7247  31.8030  33.6517  36.8692  41.4582  41.8570  41.8571  43.1045
    43.2888  43.8077  43.8078  47.3031  47.3540  48.5147  48.5151  51.7293
    52.0606  52.1275  53.4062  55.2428

          k = 0.0476-0.0476 0.0476 (  1021 PWs)   bands (ev):

     6.4469  10.5491  10.5491  10.5491  11.2084  11.2089  11.2089  12.5545
    13.0064  13.0064  13.3957  13.3957  13.3957  13.8644  13.8644  14.1563
    14.1565  14.1566  14.8172  14.8172  14.8174  17.3675  17.3676  17.3676
    25.4526  25.4527  25.4527  26.7607  26.7607  26.7609  31.1881  31.1882
    31.1883  33.5446  36.2572  36.2572  36.2574  39.0919  41.1849  41.1849
    42.8895  42.8896  42.8897  46.4988  47.5996  47.5996  51.8033  51.8033
    55.1756  55.1761  55.1761  55.4604

          k = 0.0476-0.0476 0.0951 (  1036 PWs)   bands (ev):

     7.4440  10.1624  11.0085  11.0085  11.4498  11.4502  11.5059  12.3074
    12.6751  12.6752  12.8400  13.0389  13.1284  13.7691  13.8024  13.8662
    13.8677  14.1402  14.7051  14.7348  14.7351  15.4254  18.6954  18.6955
    22.9125  22.9125  26.7587  27.3876  27.3876  30.4282  30.4283  30.8544
    31.0309  32.6923  36.7150  37.6775  37.9225  38.8158  38.8158  42.3627
    43.5776  44.4809  47.0583  47.0584  47.9185  49.0233  50.1844  50.1846
    50.6974  52.9410  53.0317  55.7656

          k =-0.0951 0.0476 0.0476 (  1036 PWs)   bands (ev):

     7.4440  10.1624  11.0085  11.0086  11.4498  11.4502  11.5059  12.3074
    12.6751  12.6752  12.8400  13.0389  13.1284  13.7691  13.8024  13.8662
    13.8677  14.1402  14.7051  14.7348  14.7351  15.4254  18.6954  18.6955
    22.9125  22.9125  26.7587  27.3876  27.3876  30.4282  30.4283  30.8544
    31.0309  32.6923  36.7150  37.6775  37.9225  38.8158  38.8158  42.3627
    43.5776  44.4809  47.0584  47.0584  47.9185  49.0233  50.1844  50.1845
    50.6974  52.9410  53.0317  55.7657

          k = 0.0476-0.0476-0.1427 (  1034 PWs)   bands (ev):

     8.8791   8.8929  11.4360  11.4360  11.5029  11.5035  11.9052  11.9273
    12.2932  12.2933  12.8083  12.8336  13.3883  13.3947  13.6753  13.6755
    14.2833  14.3004  14.4540  14.4558  14.6874  14.6875  19.7744  19.7745
    21.4451  21.4452  28.3162  28.3180  28.5786  28.5871  29.0367  29.0401
    34.9916  35.0141  35.3608  35.4077  38.1431  38.1908  42.1797  42.1798
    44.8229  44.8506  45.3529  45.3531  49.3772  49.4129  50.8415  50.8539
    52.2117  52.2119  53.8568  53.8648

          k = 0.0951-0.0476 0.0951 (  1034 PWs)   bands (ev):

     8.3299  10.6103  10.6104  11.1222  11.6161  11.7565  11.7569  12.2833
    12.4891  12.4893  12.6140  12.9280  13.0771  13.5293  13.5303  13.5335
    13.8939  14.4540  14.6016  14.6027  14.6207  16.3628  16.3629  18.8951
    21.1428  24.1158  24.1158  28.0936  28.1836  31.1936  31.1937  32.2079
    32.2081  34.0667  35.2622  36.9292  39.3340  39.3341  40.0726  43.1450
    43.7223  44.7243  46.4509  46.4509  49.2411  49.2413  50.3430  50.5742
    50.8948  51.6842  52.3639  52.8478

          k =-0.0951 0.0476 0.0951 (  1034 PWs)   bands (ev):

     8.3299  10.6103  10.6104  11.1222  11.6161  11.7565  11.7569  12.2833
    12.4891  12.4893  12.6140  12.9280  13.0771  13.5293  13.5303  13.5335
    13.8939  14.4540  14.6016  14.6027  14.6207  16.3628  16.3629  18.8951
    21.1428  24.1158  24.1159  28.0936  28.1836  31.1936  31.1937  32.2079
    32.2081  34.0667  35.2622  36.9292  39.3340  39.3341  40.0726  43.1450
    43.7223  44.7243  46.4509  46.4509  49.2411  49.2413  50.3430  50.5742
    50.8948  51.6842  52.3639  52.8474

          k = 0.0951-0.0476-0.1427 (  1032 PWs)   bands (ev):

     9.5455   9.5559  10.9715  10.9761  11.8756  11.8778  12.1073  12.1259
    12.4654  12.4739  12.6489  12.6656  13.2040  13.2083  13.3857  13.3887
    14.2080  14.2172  14.5071  14.5145  15.0582  15.0615  17.5919  17.6040
    22.1104  22.1192  25.8565  25.8624  29.5280  29.5356  33.0911  33.0920
    33.3141  33.3210  36.8866  36.9388  40.1109  40.1216  40.4580  40.4681
    45.1727  45.1763  45.6576  45.6845  47.6708  47.6863  50.5949  50.6160
    51.7182  51.7301  53.9563  53.9785

          k = 0.0951-0.0951 0.0951 (  1009 PWs)   bands (ev):

     8.9951  10.5623  10.5626  10.5626  12.0722  12.0724  12.0724  12.5497
    12.7674  12.7674  12.7683  12.8953  12.8953  13.1679  13.1679  13.1682
    14.3339  14.3339  14.7452  14.7452  14.7454  16.6142  16.6143  16.6144
    21.7448  21.7448  21.7449  25.3715  32.5421  32.5422  32.5424  35.3007
    35.3008  35.3009  37.2815  37.2816  37.2819  37.6159  40.0327  40.0327
    44.4498  44.4498  47.7824  48.0093  48.0094  48.0105  48.1367  48.1368
    48.1369  52.4737  52.4740  52.4740

          k = 0.0951-0.0951-0.1427 (  1030 PWs)   bands (ev):

     9.8181   9.8229  10.5222  10.5225  12.2648  12.2650  12.5720  12.5843
    12.8178  12.8333  12.9278  12.9290  12.9714  12.9714  13.0355  13.0356
    14.6460  14.6479  14.6743  14.6748  14.8713  14.8741  16.8035  16.8035
    20.8144  20.8144  23.2502  23.2564  33.4192  33.4193  34.7084  34.7087
    36.2054  36.2288  37.3082  37.3192  39.0512  39.0883  39.4089  39.4091
    44.6743  44.6744  44.8661  44.8851  46.0173  46.0233  48.5058  48.5058
    49.6503  49.6580  53.0856  53.0865

     the Fermi energy is    14.4901 ev

!    total energy              =    -343.62977741 Ry
     Harris-Foulkes estimate   =    -343.62977739 Ry
     estimated scf accuracy    <          7.8E-10 Ry

     The total energy is the sum of the following terms:

     one-electron contribution =      -6.41160680 Ry
     hartree contribution      =      60.35982765 Ry
     xc contribution           =    -120.51427732 Ry
     ewald contribution        =    -277.01531187 Ry
     Dispersion Correction     =      -0.04783377 Ry
     smearing contrib. (-TS)   =      -0.00057531 Ry

     total magnetization       =     2.84 Bohr mag/cell
     absolute magnetization    =     3.25 Bohr mag/cell

     convergence has been achieved in  11 iterations

     Forces acting on atoms (Ry/au):

     atom    1 type  1   force =    -0.00171950   -0.00171950    0.00172005
     atom    2 type  1   force =     0.00171895    0.00171895    0.00171895
     atom    3 type  1   force =    -0.00171950    0.00172005   -0.00171950
     atom    4 type  1   force =     0.00172005   -0.00171950   -0.00171950

     Total force =     0.005957     Total SCF correction =     0.000008


     entering subroutine stress ...

          total   stress  (Ry/bohr**3)                   (kbar)     P=   -0.80
  -0.00000546  -0.00000001  -0.00000001         -0.80     -0.00     -0.00
  -0.00000001  -0.00000546  -0.00000001         -0.00     -0.80     -0.00
  -0.00000001  -0.00000001  -0.00000546         -0.00     -0.00     -0.80


     number of scf cycles    =   2
     number of bfgs steps    =   1

     enthalpy old            =    -343.6291627596 Ry
     enthalpy new            =    -343.6297774122 Ry

     CASE: enthalpy_new < enthalpy_old

     new trust radius        =       0.0032742098 bohr
     new conv_thr            =       0.0000000002 Ry

     new unit-cell volume =    289.87911 a.u.^3 (    42.95565 Ang^3 )

CELL_PARAMETERS (alat=  1.88972590)
   3.502193655  -0.000000482  -0.000000482
  -0.000000482   3.502193655  -0.000000482
  -0.000000482  -0.000000482   3.502193655

ATOMIC_POSITIONS (alat)
Ni1      1.756654347   1.756654347   0.002216472
Ni1      0.002216370   0.002216370   0.002216370
Ni1      1.756654347   0.002216472   1.756654347
Ni1      0.002216472   1.756654347   1.756654347



     Writing output data file Ni-ferromag.save
     NEW-OLD atomic charge density approx. for the potential

     Check: negative/imaginary core charge=   -0.000005    0.000000
     extrapolated charge   39.96188, renormalised to   40.00000

     total cpu time spent up to now is      613.4 secs

     Self-consistent Calculation

     iteration #  1     ecut=    35.00 Ry     beta=0.20
     Davidson diagonalization with overlap
     ethr =  1.00E-06,  avg # of iterations =  2.9

     total cpu time spent up to now is      642.0 secs

     total energy              =    -343.62949163 Ry
     Harris-Foulkes estimate   =    -343.66991276 Ry
     estimated scf accuracy    <       0.00046938 Ry

     total magnetization       =     2.82 Bohr mag/cell
     absolute magnetization    =     3.24 Bohr mag/cell

     iteration #  2     ecut=    35.00 Ry     beta=0.20
     Davidson diagonalization with overlap
     ethr =  1.17E-06,  avg # of iterations =  2.4

     total cpu time spent up to now is      660.9 secs

     total energy              =    -343.62979017 Ry
     Harris-Foulkes estimate   =    -343.62982596 Ry
     estimated scf accuracy    <       0.00018665 Ry

     total magnetization       =     2.84 Bohr mag/cell
     absolute magnetization    =     3.26 Bohr mag/cell

     iteration #  3     ecut=    35.00 Ry     beta=0.20
     Davidson diagonalization with overlap
     ethr =  4.67E-07,  avg # of iterations =  1.0

     total cpu time spent up to now is      678.5 secs

     total energy              =    -343.62974925 Ry
     Harris-Foulkes estimate   =    -343.62979621 Ry
     estimated scf accuracy    <       0.00006481 Ry

     total magnetization       =     2.84 Bohr mag/cell
     absolute magnetization    =     3.25 Bohr mag/cell

     iteration #  4     ecut=    35.00 Ry     beta=0.20
     Davidson diagonalization with overlap
     ethr =  1.62E-07,  avg # of iterations =  2.1

     total cpu time spent up to now is      697.6 secs

     total energy              =    -343.62979530 Ry
     Harris-Foulkes estimate   =    -343.62980303 Ry
     estimated scf accuracy    <       0.00009181 Ry

     total magnetization       =     2.83 Bohr mag/cell
     absolute magnetization    =     3.25 Bohr mag/cell

     iteration #  5     ecut=    35.00 Ry     beta=0.20
     Davidson diagonalization with overlap
     ethr =  1.62E-07,  avg # of iterations =  1.0

     total cpu time spent up to now is      715.1 secs

     total energy              =    -343.62978521 Ry
     Harris-Foulkes estimate   =    -343.62979587 Ry
     estimated scf accuracy    <       0.00006262 Ry

     total magnetization       =     2.83 Bohr mag/cell
     absolute magnetization    =     3.25 Bohr mag/cell

     iteration #  6     ecut=    35.00 Ry     beta=0.20
     Davidson diagonalization with overlap
     ethr =  1.57E-07,  avg # of iterations =  1.0

     total cpu time spent up to now is      732.6 secs

     total energy              =    -343.62977645 Ry
     Harris-Foulkes estimate   =    -343.62978665 Ry
     estimated scf accuracy    <       0.00002535 Ry

     total magnetization       =     2.83 Bohr mag/cell
     absolute magnetization    =     3.25 Bohr mag/cell

     iteration #  7     ecut=    35.00 Ry     beta=0.20
     Davidson diagonalization with overlap
     ethr =  6.34E-08,  avg # of iterations =  1.0

     total cpu time spent up to now is      750.1 secs

     total energy              =    -343.62978052 Ry
     Harris-Foulkes estimate   =    -343.62978042 Ry
     estimated scf accuracy    <       0.00000007 Ry

     total magnetization       =     2.84 Bohr mag/cell
     absolute magnetization    =     3.25 Bohr mag/cell

     iteration #  8     ecut=    35.00 Ry     beta=0.20
     Davidson diagonalization with overlap
     ethr =  1.80E-10,  avg # of iterations =  2.0

     total cpu time spent up to now is      770.7 secs

     total energy              =    -343.62978060 Ry
     Harris-Foulkes estimate   =    -343.62978057 Ry
     estimated scf accuracy    <       0.00000062 Ry

     total magnetization       =     2.83 Bohr mag/cell
     absolute magnetization    =     3.25 Bohr mag/cell

     iteration #  9     ecut=    35.00 Ry     beta=0.20
     Davidson diagonalization with overlap
     ethr =  1.80E-10,  avg # of iterations =  1.0

     total cpu time spent up to now is      788.2 secs

     total energy              =    -343.62978064 Ry
     Harris-Foulkes estimate   =    -343.62978060 Ry
     estimated scf accuracy    <       0.00000070 Ry

     total magnetization       =     2.83 Bohr mag/cell
     absolute magnetization    =     3.25 Bohr mag/cell

     iteration # 10     ecut=    35.00 Ry     beta=0.20
     Davidson diagonalization with overlap
     ethr =  1.80E-10,  avg # of iterations =  1.0

     total cpu time spent up to now is      805.7 secs

     total energy              =    -343.62978028 Ry
     Harris-Foulkes estimate   =    -343.62978064 Ry
     estimated scf accuracy    <       0.00000086 Ry

     total magnetization       =     2.83 Bohr mag/cell
     absolute magnetization    =     3.25 Bohr mag/cell

     iteration # 11     ecut=    35.00 Ry     beta=0.20
     Davidson diagonalization with overlap
     ethr =  1.80E-10,  avg # of iterations =  2.0

     Magnetic moment per site:
     atom:    1    charge:    3.0030    magn:    0.3346    constr:    0.0000
     atom:    2    charge:    3.0012    magn:    0.3344    constr:    0.0000
     atom:    3    charge:    3.0030    magn:    0.3346    constr:    0.0000
     atom:    4    charge:    3.0030    magn:    0.3346    constr:    0.0000

     total cpu time spent up to now is      826.6 secs

     End of self-consistent calculation

 ------ SPIN UP ------------


          k = 0.0000 0.0000 0.0000 (  1021 PWs)   bands (ev):

     5.4400   9.7252   9.7252   9.7252  10.1789  10.1790  10.1790  11.9601
    11.9601  11.9601  13.1401  13.1401  13.8588  13.8588  13.8588  13.9489
    13.9489  13.9489  13.9490  13.9490  13.9490  17.0869  17.0870  17.0870
    23.8325  23.8326  23.8326  29.5902  29.5902  29.5902  29.5902  29.5902
    29.5903  34.6738  34.6738  34.6739  38.0222  38.0223  38.0223  38.5170
    42.4999  42.4999  42.4999  46.1057  46.1057  46.1057  48.2026  55.2078
    55.2078  55.2078  57.6834  59.1175

          k = 0.0000 0.0000 0.0476 (  1021 PWs)   bands (ev):

     5.8064   9.7475   9.9095   9.9095  10.2896  10.3054  10.3055  11.8312
    12.0625  12.0625  13.0219  13.1867  13.2941  13.2941  13.7051  13.7051
    13.7729  13.7729  13.8092  13.9493  13.9493  15.4860  18.0467  18.0467
    23.9282  23.9283  26.0825  27.8383  27.8384  28.4670  28.4670  30.1510
    30.1511  34.7898  36.8469  36.8469  37.8830  38.1542  39.9794  39.9795
    40.2797  40.2797  40.9430  47.5245  48.1593  48.1593  49.1846  51.5921
    56.3059  56.3059  56.7075  56.7076

          k = 0.0000 0.0000 0.0952 (  1032 PWs)   bands (ev):

     6.8563   9.5183  10.3469  10.3469  10.5976  10.6889  10.6891  11.4868
    12.2368  12.2369  12.3595  12.3595  12.7338  13.3156  13.3212  13.3234
    13.3234  13.3364  13.3364  13.6749  13.9498  13.9498  20.0107  20.0108
    24.2449  24.2450  25.0637  25.0637  26.6995  26.6995  30.3832  31.7317
    31.7318  35.1533  36.7526  37.0572  37.0572  38.3738  38.7067  40.8917
    40.8918  44.1456  44.1457  44.1813  50.9595  51.0778  51.0778  51.0822
    51.0822  55.0704  55.9874  55.9875

          k =-0.0000-0.0000-0.1428 (  1044 PWs)   bands (ev):

     8.3515   8.3611  10.6232  10.6232  11.0259  11.0399  11.3294  11.3295
    11.3433  11.3434  12.5467  12.5663  12.8067  12.8067  12.8172  12.8172
    13.0777  13.0777  13.4900  13.4977  13.9501  13.9501  22.3857  22.3857
    22.4100  22.4100  24.6168  24.6168  25.7550  25.7550  34.1029  34.1030
    34.1200  34.1200  34.9154  34.9513  35.7953  35.8038  40.2734  40.3309
    45.6687  45.6688  45.7188  45.7189  47.6520  47.6521  52.3310  52.3311
    54.1836  54.1836  54.2297  54.2298

          k = 0.0000 0.0476 0.0476 (  1027 PWs)   bands (ev):

     6.1642   9.9460   9.9460  10.0728  10.4070  10.4071  10.4209  11.7712
    12.1076  12.1246  12.9474  12.9932  13.0059  13.0101  13.1821  13.5764
    13.7010  13.7010  13.7715  13.7716  13.8331  16.4193  16.4193  18.8172
    23.9216  25.1209  26.2696  26.2696  28.3163  28.3163  28.9599  28.9600
    30.6792  36.0632  36.1442  37.0551  37.0552  37.3593  40.1477  40.1478
    41.2970  42.6359  43.5597  45.2610  46.3981  49.8257  50.4865  53.1359
    53.7029  55.3848  55.3851  56.3379

          k = 0.0000 0.0476 0.0952 (  1029 PWs)   bands (ev):

     7.1863   9.7545  10.4284  10.4769  10.6891  10.7423  10.7615  11.4899
    11.9981  12.1377  12.2536  12.3711  12.3966  12.8303  13.2522  13.3281
    13.3400  13.3616  13.5139  13.7680  13.7745  14.4521  18.0348  20.6013
    22.1003  24.6312  25.5255  26.5551  27.4254  29.6310  29.9239  29.9806
    31.0407  33.7496  34.4928  37.7070  38.6602  40.4167  40.5957  40.7798
    41.1476  44.0724  45.0685  47.0919  47.8154  48.6208  49.9271  51.3671
    52.9738  53.2925  54.8634  56.2516

          k =-0.0000 0.0476-0.1428 (  1044 PWs)   bands (ev):

     8.6334   8.6424  10.7756  10.7762  11.0777  11.0913  11.1984  11.2098
    11.3442  11.3577  12.1754  12.1899  12.8074  12.8182  13.0398  13.0446
    13.0625  13.0630  13.6776  13.6777  13.7648  13.7669  19.8982  19.9105
    22.8865  22.9084  25.4261  25.4428  28.3303  28.3359  31.5182  31.5254
    32.0425  32.0475  35.8344  35.8756  38.8540  38.8571  42.2284  42.2638
    43.1373  43.1506  45.9464  45.9937  50.0967  50.1389  50.3767  50.3966
    52.6376  52.6534  53.2380  53.2508

          k = 0.0000 0.0952 0.0952 (  1045 PWs)   bands (ev):

     8.1133  10.3425  10.3425  10.7088  10.9573  10.9576  10.9710  11.4199
    11.6671  11.6672  11.8219  12.1408  12.5021  12.7439  13.0360  13.1909
    13.1910  13.3317  13.3318  13.5020  13.7173  15.6989  15.6989  19.3187
    22.1289  25.1819  26.7989  26.7989  27.9193  27.9194  31.0093  31.6647
    31.6660  31.7624  33.6299  36.8655  41.5542  41.9089  41.9090  43.1063
    43.4385  43.8025  43.8025  47.2239  47.3637  48.5096  48.5098  51.7112
    52.2113  52.2220  53.2438  55.3839

          k =-0.0000 0.0952-0.1428 (  1034 PWs)   bands (ev):

     9.3772   9.3845  10.8094  10.8181  11.2042  11.2136  11.2215  11.2236
    11.3634  11.3760  11.8717  11.8812  12.8443  12.8492  12.8498  12.8553
    12.9162  12.9180  13.3635  13.3699  14.3785  14.3803  17.2262  17.2359
    24.2462  24.2627  26.2430  26.2566  28.6721  28.6799  29.5609  29.5627
    32.9733  32.9770  36.7979  36.8382  40.3890  40.3969  43.0742  43.0820
    43.2450  43.2486  46.7517  46.7902  47.9479  47.9712  50.4496  50.4711
    51.7843  51.8188  53.5917  53.6007

          k =-0.0000-0.1428-0.1428 (  1024 PWs)   bands (ev):

    10.2281  10.2344  10.2344  10.2407  11.3194  11.3315  11.3315  11.3434
    11.6375  11.6409  11.6409  11.6443  12.7020  12.7031  12.7031  12.7045
    13.0081  13.0180  13.0180  13.0279  15.4459  15.4504  15.4504  15.4549
    26.2185  26.2299  26.2299  26.2412  27.5941  27.6023  27.6023  27.6106
    37.9108  37.9218  37.9218  37.9332  38.5131  38.5267  38.5267  38.5394
    47.2068  47.2068  47.2069  47.2073  49.2025  49.2243  49.2243  49.2460
    51.8551  51.8570  51.8570  51.8587

          k = 0.0476 0.0476 0.0476 (  1021 PWs)   bands (ev):

     6.5101  10.1070  10.1071  10.1071  10.5216  10.5217  10.5217  11.7362
    12.1443  12.1443  12.7016  12.7016  12.7016  13.0952  13.0952  13.3427
    13.3428  13.3428  13.8872  13.8872  13.8873  17.0469  17.0470  17.0470
    25.3467  25.3468  25.3468  26.6153  26.6153  26.6154  31.1949  31.1950
    31.1950  33.5081  36.1949  36.1949  36.1949  39.2759  41.1678  41.1678
    42.8433  42.8434  42.8434  46.6215  47.6791  47.6791  51.6836  51.6836
    55.1560  55.2627  55.2629  55.2629

          k = 0.0476 0.0476 0.0952 (  1036 PWs)   bands (ev):

     7.4921   9.9133  10.4905  10.4905  10.8075  10.8357  10.8357  11.5265
    11.9884  11.9884  12.1832  12.2245  12.2840  12.9400  13.0104  13.0965
    13.0969  13.3352  13.7898  13.7899  13.8222  14.8140  18.3901  18.3901
    22.7270  22.7270  26.6415  27.2662  27.2662  30.3824  30.3824  30.7695
    30.9722  32.6757  36.6732  37.8006  37.8792  38.8186  38.8186  42.3904
    43.5355  44.5002  47.0537  47.0537  47.9166  49.1147  50.2342  50.2342
    50.7303  53.0501  53.1115  55.6998

          k = 0.0476 0.0476-0.1428 (  1034 PWs)   bands (ev):

     8.8611   8.8690  10.8780  10.8783  10.9360  10.9361  11.1735  11.1862
    11.5941  11.5942  12.0797  12.0940  12.5549  12.5598  12.9286  12.9286
    13.4997  13.5097  13.6104  13.6126  13.7338  13.7338  19.5390  19.5390
    21.1658  21.1658  28.2291  28.2299  28.4668  28.4721  28.9517  28.9529
    34.9581  34.9723  35.4258  35.4542  38.1091  38.1387  42.2326  42.2326
    44.7810  44.7971  45.4006  45.4007  49.5005  49.5228  50.9282  50.9359
    52.2211  52.2211  53.7219  53.7238

          k = 0.0476 0.0952 0.0952 (  1034 PWs)   bands (ev):

     8.3313  10.2313  10.2314  10.5177  11.1232  11.1693  11.1694  11.5716
    11.7843  11.7844  11.9176  12.1429  12.2688  12.7475  12.7476  12.7641
    13.0674  13.6229  13.6920  13.7076  13.7080  15.8295  15.8295  18.6416
    20.8236  23.9246  23.9246  27.9650  28.0784  31.1580  31.1580  32.1463
    32.1464  34.0430  35.2671  36.9358  39.3525  39.3525  40.1800  43.0699
    43.7663  44.8137  46.4945  46.4945  49.2270  49.2271  50.4499  50.6297
    50.9585  51.6550  52.3392  52.9596

          k = 0.0476 0.0952-0.1428 (  1032 PWs)   bands (ev):

     9.4125   9.4174  10.4521  10.4535  11.3367  11.3372  11.4804  11.4907
    11.7889  11.7933  11.9075  11.9170  12.4165  12.4200  12.6281  12.6303
    13.3628  13.3668  13.5908  13.5949  14.2848  14.2863  17.2037  17.2116
    21.8365  21.8426  25.6842  25.6885  29.4574  29.4613  33.0638  33.0654
    33.2775  33.2809  36.9149  36.9479  40.1613  40.1686  40.4717  40.4776
    45.2225  45.2252  45.7082  45.7242  47.7314  47.7400  50.6017  50.6150
    51.8200  51.8277  53.9256  53.9404

          k = 0.0476-0.1428-0.1428 (  1032 PWs)   bands (ev):

     9.9825   9.9846   9.9846   9.9866  11.7253  11.7286  11.7286  11.7318
    11.8090  11.8160  11.8160  11.8231  12.3862  12.3897  12.3897  12.3931
    13.3412  13.3474  13.3475  13.3537  15.3560  15.3610  15.3610  15.3660
    23.4693  23.4740  23.4740  23.4787  30.9961  30.9976  30.9976  30.9992
    38.1926  38.2016  38.2016  38.2123  38.3578  38.3703  38.3704  38.3809
    46.6850  46.6851  46.6851  46.6866  46.7796  46.7920  46.7920  46.8031
    54.8395  54.8486  54.8486  54.8589

          k = 0.0952 0.0952 0.0952 (  1009 PWs)   bands (ev):

     8.8753  10.0662  10.0663  10.0663  11.5282  11.5283  11.5283  12.0425
    12.1017  12.1017  12.1043  12.1118  12.1118  12.3931  12.3931  12.3931
    13.4706  13.4706  13.8359  13.8359  13.8360  16.2074  16.2075  16.2075
    21.4313  21.4313  21.4313  25.1728  32.5249  32.5249  32.5250  35.2712
    35.2713  35.2713  37.3009  37.3009  37.3009  37.8139  39.9821  39.9821
    44.4773  44.4773  47.8069  48.0984  48.0984  48.0987  48.1741  48.1742
    48.1742  52.4859  52.4860  52.4860

          k = 0.0952 0.0952-0.1428 (  1030 PWs)   bands (ev):

     9.5009   9.5022   9.9977   9.9977  11.6483  11.6484  11.9314  11.9392
    12.1518  12.1529  12.2716  12.2728  12.2836  12.2916  12.3872  12.3874
    13.7558  13.7566  13.7642  13.7645  14.1749  14.1753  16.4913  16.4914
    20.4024  20.4024  22.9873  22.9918  33.4400  33.4400  34.6549  34.6550
    36.3465  36.3603  37.2710  37.2784  39.0129  39.0363  39.4667  39.4667
    44.6853  44.6854  44.9286  44.9403  46.0480  46.0512  48.5839  48.5840
    49.6394  49.6443  53.0195  53.0198

          k = 0.0952-0.1428-0.1428 (  1032 PWs)   bands (ev):

     9.6771   9.6772   9.6772   9.6772  11.8927  11.8948  11.8948  11.8967
    12.0826  12.0847  12.0848  12.0870  12.8300  12.8345  12.8345  12.8389
    13.6808  13.6842  13.6842  13.6877  14.9777  14.9834  14.9834  14.9890
    21.1121  21.1159  21.1159  21.1197  35.1779  35.1798  35.1798  35.1818
    38.2393  38.2454  38.2454  38.2516  38.9634  38.9697  38.9697  38.9755
    44.1215  44.1269  44.1269  44.1322  45.1879  45.1893  45.1893  45.1907
    50.4561  50.4584  50.4584  50.4610

          k =-0.1428-0.1428-0.1428 (  1064 PWs)   bands (ev):

     9.5610   9.5611   9.5611   9.5612  11.9730  11.9730  11.9730  11.9731
    11.9731  11.9732  11.9732  11.9732  13.8117  13.8117  13.8117  13.8119
    13.8119  13.8119  13.8119  13.8119  14.3060  14.3061  14.3062  14.3062
    20.2348  20.2348  20.2348  20.2349  36.9717  36.9719  36.9719  36.9719
    39.6060  39.6060  39.6060  39.6060  39.6060  39.6062  39.6062  39.6062
    42.8344  42.8344  42.8344  42.8344  42.8344  42.8345  42.8345  42.8345
    48.8113  48.8113  48.8113  48.8114

          k =-0.0476-0.0000 0.0476 (  1027 PWs)   bands (ev):

     6.1642   9.9460   9.9460  10.0728  10.4070  10.4071  10.4209  11.7712
    12.1076  12.1246  12.9474  12.9932  13.0059  13.0101  13.1821  13.5764
    13.7010  13.7010  13.7715  13.7716  13.8331  16.4193  16.4193  18.8172
    23.9216  25.1209  26.2696  26.2697  28.3163  28.3164  28.9599  28.9601
    30.6792  36.0632  36.1442  37.0551  37.0552  37.3593  40.1477  40.1479
    41.2970  42.6359  43.5597  45.2610  46.3981  49.8257  50.4865  53.1359
    53.7029  55.3848  55.3850  56.3379

          k =-0.0476 0.0000 0.0952 (  1029 PWs)   bands (ev):

     7.1863   9.7545  10.4284  10.4769  10.6891  10.7423  10.7615  11.4899
    11.9981  12.1377  12.2536  12.3711  12.3966  12.8303  13.2522  13.3281
    13.3400  13.3616  13.5139  13.7680  13.7745  14.4521  18.0348  20.6013
    22.1003  24.6312  25.5255  26.5551  27.4254  29.6310  29.9239  29.9806
    31.0407  33.7496  34.4928  37.7070  38.6602  40.4167  40.5957  40.7798
    41.1476  44.0724  45.0685  47.0919  47.8154  48.6208  49.9271  51.3671
    52.9738  53.2925  54.8634  56.2516

          k =-0.0952-0.0000 0.0952 (  1045 PWs)   bands (ev):

     8.1133  10.3425  10.3425  10.7088  10.9573  10.9576  10.9710  11.4199
    11.6671  11.6672  11.8219  12.1408  12.5021  12.7439  13.0360  13.1909
    13.1910  13.3317  13.3318  13.5020  13.7173  15.6989  15.6989  19.3186
    22.1289  25.1819  26.7989  26.7990  27.9193  27.9194  31.0093  31.6647
    31.6660  31.7624  33.6299  36.8655  41.5542  41.9089  41.9090  43.1063
    43.4385  43.8025  43.8025  47.2240  47.3637  48.5096  48.5098  51.7112
    52.2114  52.2220  53.2439  55.3815

          k = 0.0476-0.0476 0.0476 (  1021 PWs)   bands (ev):

     6.5101  10.1070  10.1071  10.1071  10.5216  10.5217  10.5217  11.7362
    12.1443  12.1443  12.7016  12.7016  12.7016  13.0952  13.0952  13.3427
    13.3428  13.3428  13.8872  13.8872  13.8873  17.0470  17.0470  17.0470
    25.3467  25.3468  25.3468  26.6153  26.6153  26.6154  31.1949  31.1949
    31.1950  33.5081  36.1948  36.1949  36.1949  39.2759  41.1678  41.1678
    42.8433  42.8434  42.8434  46.6215  47.6791  47.6791  51.6836  51.6836
    55.1560  55.2627  55.2629  55.2629

          k = 0.0476-0.0476 0.0952 (  1036 PWs)   bands (ev):

     7.4921   9.9133  10.4905  10.4905  10.8075  10.8357  10.8357  11.5265
    11.9884  11.9884  12.1832  12.2245  12.2840  12.9400  13.0104  13.0965
    13.0969  13.3352  13.7898  13.7899  13.8222  14.8140  18.3901  18.3901
    22.7270  22.7270  26.6415  27.2662  27.2662  30.3824  30.3824  30.7694
    30.9722  32.6757  36.6732  37.8007  37.8792  38.8186  38.8186  42.3904
    43.5355  44.5002  47.0536  47.0537  47.9166  49.1147  50.2342  50.2342
    50.7303  53.0501  53.1115  55.6998

          k =-0.0952 0.0476 0.0476 (  1036 PWs)   bands (ev):

     7.4921   9.9133  10.4905  10.4905  10.8075  10.8357  10.8357  11.5265
    11.9884  11.9884  12.1832  12.2245  12.2840  12.9400  13.0104  13.0965
    13.0969  13.3352  13.7898  13.7899  13.8222  14.8140  18.3901  18.3901
    22.7270  22.7270  26.6415  27.2662  27.2662  30.3824  30.3824  30.7694
    30.9722  32.6757  36.6732  37.8006  37.8792  38.8186  38.8186  42.3904
    43.5355  44.5002  47.0536  47.0536  47.9166  49.1147  50.2342  50.2342
    50.7303  53.0501  53.1115  55.6998

          k = 0.0476-0.0476-0.1428 (  1034 PWs)   bands (ev):

     8.8611   8.8690  10.8780  10.8783  10.9360  10.9360  11.1735  11.1862
    11.5941  11.5942  12.0797  12.0940  12.5549  12.5598  12.9286  12.9286
    13.4997  13.5097  13.6104  13.6126  13.7338  13.7338  19.5390  19.5390
    21.1658  21.1658  28.2291  28.2299  28.4668  28.4721  28.9517  28.9529
    34.9581  34.9723  35.4258  35.4542  38.1091  38.1387  42.2326  42.2327
    44.7810  44.7970  45.4006  45.4007  49.5005  49.5228  50.9282  50.9359
    52.2211  52.2211  53.7220  53.7237

          k = 0.0952-0.0476 0.0952 (  1034 PWs)   bands (ev):

     8.3313  10.2313  10.2314  10.5177  11.1232  11.1693  11.1694  11.5716
    11.7843  11.7844  11.9176  12.1429  12.2688  12.7475  12.7476  12.7641
    13.0674  13.6229  13.6920  13.7076  13.7080  15.8295  15.8295  18.6416
    20.8236  23.9246  23.9246  27.9650  28.0784  31.1580  31.1580  32.1463
    32.1464  34.0430  35.2672  36.9358  39.3525  39.3525  40.1800  43.0699
    43.7663  44.8137  46.4945  46.4945  49.2270  49.2271  50.4499  50.6297
    50.9585  51.6550  52.3392  52.9596

          k =-0.0952 0.0476 0.0952 (  1034 PWs)   bands (ev):

     8.3313  10.2313  10.2314  10.5177  11.1232  11.1693  11.1694  11.5716
    11.7843  11.7844  11.9176  12.1429  12.2688  12.7475  12.7476  12.7641
    13.0674  13.6229  13.6920  13.7076  13.7080  15.8295  15.8295  18.6416
    20.8236  23.9246  23.9246  27.9650  28.0784  31.1580  31.1581  32.1463
    32.1464  34.0431  35.2672  36.9358  39.3524  39.3525  40.1800  43.0699
    43.7663  44.8137  46.4945  46.4945  49.2270  49.2271  50.4499  50.6297
    50.9585  51.6550  52.3391  52.9596

          k = 0.0952-0.0476-0.1428 (  1032 PWs)   bands (ev):

     9.4125   9.4174  10.4520  10.4535  11.3367  11.3372  11.4804  11.4907
    11.7889  11.7933  11.9075  11.9170  12.4165  12.4200  12.6281  12.6303
    13.3628  13.3668  13.5908  13.5949  14.2848  14.2863  17.2037  17.2116
    21.8365  21.8426  25.6841  25.6885  29.4574  29.4613  33.0638  33.0654
    33.2774  33.2809  36.9149  36.9479  40.1613  40.1686  40.4717  40.4776
    45.2225  45.2252  45.7082  45.7242  47.7314  47.7400  50.6017  50.6150
    51.8200  51.8277  53.9259  53.9405

          k = 0.0952-0.0952 0.0952 (  1009 PWs)   bands (ev):

     8.8753  10.0662  10.0663  10.0663  11.5282  11.5283  11.5283  12.0425
    12.1017  12.1017  12.1043  12.1117  12.1118  12.3931  12.3931  12.3932
    13.4706  13.4706  13.8359  13.8359  13.8360  16.2075  16.2075  16.2075
    21.4313  21.4313  21.4313  25.1728  32.5249  32.5249  32.5250  35.2712
    35.2713  35.2713  37.3008  37.3009  37.3010  37.8139  39.9822  39.9822
    44.4773  44.4773  47.8069  48.0983  48.0984  48.0987  48.1741  48.1741
    48.1742  52.4859  52.4860  52.4860

          k = 0.0952-0.0952-0.1428 (  1030 PWs)   bands (ev):

     9.5009   9.5022   9.9977   9.9977  11.6483  11.6484  11.9314  11.9392
    12.1518  12.1529  12.2716  12.2728  12.2836  12.2916  12.3872  12.3874
    13.7558  13.7566  13.7642  13.7645  14.1749  14.1753  16.4914  16.4914
    20.4024  20.4024  22.9873  22.9918  33.4400  33.4400  34.6549  34.6550
    36.3465  36.3603  37.2710  37.2784  39.0129  39.0363  39.4666  39.4667
    44.6853  44.6854  44.9286  44.9403  46.0481  46.0512  48.5839  48.5840
    49.6394  49.6443  53.0194  53.0198

 ------ SPIN DOWN ----------


          k = 0.0000 0.0000 0.0000 (  1021 PWs)   bands (ev):

     5.3854  10.1870  10.1870  10.1870  10.8969  10.8971  10.8971  12.8403
    12.8403  12.8403  13.9200  13.9200  14.6728  14.6728  14.6728  14.9582
    14.9582  14.9582  14.9583  14.9583  14.9583  17.0083  17.0083  17.0083
    24.1382  24.1382  24.1382  29.5765  29.5766  29.5766  29.5766  29.5766
    29.5767  34.8379  34.8379  34.8379  38.1659  38.1661  38.1661  38.3114
    42.4704  42.4704  42.4704  46.1780  46.1780  46.1780  48.0432  55.3971
    55.3971  55.3971  58.2149  59.6462

          k = 0.0000 0.0000 0.0476 (  1021 PWs)   bands (ev):

     5.7518  10.1629  10.3814  10.3814  11.0164  11.0209  11.0210  12.6982
    12.9468  12.9468  13.7922  13.9688  14.1138  14.1139  14.5055  14.5056
    14.6208  14.7654  14.7654  14.9586  14.9586  15.5561  18.1537  18.1538
    24.2188  24.2189  26.2845  27.9070  27.9070  28.4944  28.4945  30.1537
    30.1538  34.9413  36.9277  36.9277  37.7440  38.2956  40.1000  40.1001
    40.3216  40.3217  40.8730  47.5450  48.1331  48.1331  49.2559  51.5836
    56.5174  56.5174  56.6341  56.6342

          k = 0.0000 0.0000 0.0952 (  1032 PWs)   bands (ev):

     6.8060   9.7264  10.8432  10.8432  11.3499  11.3990  11.3991  12.3195
    12.9659  12.9660  13.2569  13.2569  13.4710  13.6919  14.0930  14.0931
    14.1037  14.2900  14.2900  14.4800  14.9592  14.9592  20.1960  20.1961
    24.4911  24.4911  25.2045  25.2045  26.7978  26.7978  30.4788  31.7688
    31.7688  35.2669  36.7175  37.1287  37.1287  38.2834  38.8530  40.8970
    40.8970  44.2453  44.2454  44.3999  50.9152  50.9828  50.9828  51.0087
    51.0087  54.9658  56.2303  56.2304

          k =-0.0000-0.0000-0.1428 (  1044 PWs)   bands (ev):

     8.3449   8.3548  11.1351  11.1352  11.8156  11.8306  12.0383  12.0384
    12.0525  12.0527  13.1936  13.2150  13.7277  13.7277  13.7387  13.7387
    13.8242  13.8243  14.2862  14.2943  14.9595  14.9595  22.5671  22.5672
    22.5920  22.5920  24.8135  24.8136  25.9125  25.9125  34.1681  34.1681
    34.1851  34.1851  34.8949  34.9319  35.8456  35.8558  40.4655  40.5239
    45.6236  45.6237  45.6749  45.6750  47.7262  47.7263  52.5214  52.5215
    54.0732  54.0732  54.1194  54.1194

          k = 0.0000 0.0476 0.0476 (  1027 PWs)   bands (ev):

     6.1105  10.3740  10.3740  10.5636  11.1204  11.1309  11.1310  12.6244
    12.9973  13.0017  13.7122  13.7489  13.7537  13.7707  13.9692  14.3669
    14.4931  14.4932  14.7642  14.7642  14.8351  16.7339  16.7339  18.9831
    24.1802  25.2508  26.4584  26.4584  28.3993  28.3993  29.0011  29.0012
    30.6903  36.1354  36.1674  37.1256  37.1257  37.3767  40.2659  40.2659
    41.2162  42.7235  43.5286  45.2047  46.4587  49.9847  50.4119  53.3069
    53.6709  55.3467  55.3470  56.2781

          k = 0.0000 0.0476 0.0952 (  1029 PWs)   bands (ev):

     7.1408   9.9771  10.8906  11.0088  11.4041  11.4368  11.4783  12.3117
    12.6892  12.8584  13.0516  13.0938  13.2731  13.5946  14.0170  14.1023
    14.1726  14.2592  14.2884  14.7612  14.7707  15.1612  18.3735  20.8055
    22.2989  24.8592  25.6772  26.6899  27.5508  29.7395  29.9859  30.0511
    31.1382  33.8276  34.5352  37.7488  38.6981  40.3681  40.5433  40.8999
    41.1471  44.1548  45.2733  47.1586  47.7378  48.6033  49.9112  51.2923
    52.9294  53.2019  55.0840  56.5063

          k =-0.0000 0.0476-0.1428 (  1044 PWs)   bands (ev):

     8.6389   8.6482  11.2784  11.2796  11.8582  11.8723  11.8772  11.8885
    12.0557  12.0697  12.9151  12.9318  13.7310  13.7421  13.8085  13.8109
    13.8141  13.8161  14.5158  14.5163  14.7586  14.7610  20.1796  20.1922
    23.0797  23.1017  25.5970  25.6150  28.4469  28.4535  31.6326  31.6390
    32.1007  32.1050  35.8596  35.9008  38.8556  38.8579  42.3808  42.4175
    43.1297  43.1443  45.8978  45.9462  50.1626  50.2041  50.3089  50.3290
    52.5537  52.5701  53.4073  53.4200

          k = 0.0000 0.0952 0.0952 (  1045 PWs)   bands (ev):

     8.0912  10.6156  10.6157  11.3728  11.4551  11.6928  11.6930  12.2137
    12.3602  12.3602  12.5339  12.9319  13.4172  13.4908  13.7894  13.9283
    13.9284  14.2924  14.2925  14.4826  14.5596  16.3041  16.3042  19.6264
    22.3483  25.3804  26.9658  26.9658  28.0206  28.0207  31.1402  31.7533
    31.7549  31.8302  33.6825  36.9011  41.4907  41.8907  41.8908  43.1408
    43.3211  43.8450  43.8451  47.3455  47.3929  48.5547  48.5549  51.7710
    52.0988  52.1661  53.4484  55.2860

          k =-0.0000 0.0952-0.1428 (  1034 PWs)   bands (ev):

     9.4382   9.4462  11.2290  11.2375  11.8586  11.8594  11.9682  11.9816
    12.0836  12.0968  12.6079  12.6185  13.5836  13.5839  13.6565  13.6581
    13.7786  13.7901  14.3316  14.3386  15.1843  15.1864  17.6905  17.7000
    24.4516  24.4678  26.3943  26.4091  28.8348  28.8418  29.6508  29.6531
    33.0447  33.0493  36.8255  36.8659  40.3883  40.3953  43.0202  43.0274
    43.2636  43.2668  46.6894  46.7287  48.0298  48.0542  50.3966  50.4186
    51.9056  51.9400  53.5066  53.5151

          k =-0.0000-0.1428-0.1428 (  1024 PWs)   bands (ev):

    10.4467  10.4538  10.4538  10.4608  12.0563  12.0691  12.0691  12.0819
    12.3061  12.3101  12.3101  12.3140  13.4394  13.4408  13.4408  13.4422
    13.9565  13.9669  13.9669  13.9774  16.1284  16.1322  16.1322  16.1361
    26.4142  26.4249  26.4250  26.4356  27.7168  27.7259  27.7260  27.7353
    37.9853  37.9960  37.9960  38.0072  38.4800  38.4928  38.4929  38.5046
    47.0863  47.0868  47.0868  47.0879  49.1911  49.2134  49.2135  49.2357
    51.9552  51.9581  51.9582  51.9610

          k = 0.0476 0.0476 0.0476 (  1021 PWs)   bands (ev):

     6.4594  10.5620  10.5620  10.5620  11.2221  11.2223  11.2223  12.5695
    13.0223  13.0223  13.4120  13.4120  13.4120  13.8814  13.8814  14.1736
    14.1738  14.1738  14.8354  14.8354  14.8355  17.3881  17.3881  17.3881
    25.4783  25.4784  25.4784  26.7887  26.7887  26.7887  31.2168  31.2170
    31.2170  33.5746  36.2898  36.2898  36.2898  39.1204  41.2203  41.2203
    42.9276  42.9277  42.9277  46.5342  47.6363  47.6363  51.8504  51.8504
    55.2159  55.2162  55.2162  55.4961

          k = 0.0476 0.0476 0.0952 (  1036 PWs)   bands (ev):

     7.4571  10.1759  11.0219  11.0219  11.4638  11.4640  11.5198  12.3220
    12.6906  12.6906  12.8561  13.0542  13.1442  13.7861  13.8200  13.8832
    13.8838  14.1574  14.7233  14.7530  14.7531  15.4443  18.7171  18.7171
    22.9373  22.9374  26.7857  27.4153  27.4153  30.4573  30.4574  30.8835
    31.0596  32.7223  36.7477  37.7064  37.9564  38.8489  38.8489  42.3978
    43.6160  44.5178  47.0979  47.0980  47.9587  49.0603  50.2232  50.2233
    50.7375  52.9796  53.0716  55.8147

          k = 0.0476 0.0476-0.1428 (  1034 PWs)   bands (ev):

     8.8954   8.9040  11.4498  11.4498  11.5173  11.5175  11.9236  11.9375
    12.3079  12.3080  12.8285  12.8443  13.4058  13.4098  13.6921  13.6922
    14.3039  14.3146  14.4720  14.4732  14.7054  14.7054  19.7964  19.7965
    21.4698  21.4698  28.3441  28.3448  28.6090  28.6137  29.0665  29.0679
    35.0276  35.0416  35.3985  35.4278  38.1862  38.2161  42.2139  42.2140
    44.8675  44.8849  45.3895  45.3896  49.4210  49.4434  50.8823  50.8901
    52.2546  52.2546  53.9017  53.9049

          k = 0.0476 0.0952 0.0952 (  1034 PWs)   bands (ev):

     8.3434  10.6240  10.6241  11.1359  11.6301  11.7709  11.7711  12.2980
    12.5042  12.5043  12.6293  12.9434  13.0929  13.5464  13.5469  13.5495
    13.9106  14.4718  14.6202  14.6206  14.6379  16.3828  16.3829  18.9164
    21.1675  24.1417  24.1417  28.1259  28.2072  31.2218  31.2218  32.2390
    32.2391  34.0978  35.2926  36.9610  39.3672  39.3673  40.1038  43.1836
    43.7579  44.7593  46.4884  46.4885  49.2820  49.2821  50.3814  50.6133
    50.9348  51.7277  52.4052  52.8867

          k = 0.0476 0.0952-0.1428 (  1032 PWs)   bands (ev):

     9.5613   9.5677  10.9862  10.9891  11.8903  11.8917  12.1255  12.1371
    12.4820  12.4874  12.6671  12.6776  13.2209  13.2236  13.4026  13.4045
    14.2271  14.2328  14.5262  14.5308  15.0774  15.0795  17.6150  17.6225
    22.1371  22.1426  25.8846  25.8882  29.5576  29.5623  33.1211  33.1216
    33.3461  33.3504  36.9281  36.9607  40.1459  40.1526  40.4941  40.5005
    45.2099  45.2121  45.6995  45.7163  47.7118  47.7215  50.6401  50.6534
    51.7596  51.7669  54.0071  54.0204

          k = 0.0476-0.1428-0.1428 (  1032 PWs)   bands (ev):

    10.3376  10.3415  10.3415  10.3453  12.2929  12.2986  12.2986  12.3042
    12.5121  12.5191  12.5191  12.5260  13.1636  13.1667  13.1667  13.1698
    14.2521  14.2593  14.2593  14.2666  16.0025  16.0066  16.0067  16.0108
    23.7279  23.7318  23.7318  23.7358  31.0778  31.0803  31.0803  31.0828
    38.2652  38.2715  38.2715  38.2843  38.3094  38.3237  38.3237  38.3310
    46.6170  46.6170  46.6171  46.6180  46.8044  46.8174  46.8174  46.8296
    54.9032  54.9127  54.9128  55.1260

          k = 0.0952 0.0952 0.0952 (  1009 PWs)   bands (ev):

     9.0085  10.5758  10.5760  10.5760  12.0869  12.0870  12.0870  12.5652
    12.7831  12.7831  12.7835  12.9106  12.9106  13.1840  13.1840  13.1840
    14.3514  14.3514  14.7634  14.7634  14.7635  16.6341  16.6341  16.6341
    21.7699  21.7699  21.7700  25.3983  32.5713  32.5713  32.5713  35.3327
    35.3328  35.3328  37.3136  37.3136  37.3137  37.6429  40.0683  40.0683
    44.4864  44.4864  47.8220  48.0468  48.0468  48.0472  48.1754  48.1755
    48.1755  52.5171  52.5173  52.5173

          k = 0.0952 0.0952-0.1428 (  1030 PWs)   bands (ev):

     9.8324   9.8354  10.5356  10.5357  12.2796  12.2797  12.5896  12.5974
    12.8363  12.8461  12.9438  12.9446  12.9869  12.9870  13.0514  13.0514
    14.6644  14.6656  14.6924  14.6926  14.8900  14.8917  16.8231  16.8232
    20.8394  20.8395  23.2772  23.2811  33.4477  33.4477  34.7410  34.7412
    36.2373  36.2520  37.3438  37.3507  39.0933  39.1166  39.4414  39.4414
    44.7117  44.7118  44.9058  44.9176  46.0560  46.0598  48.5438  48.5438
    49.6930  49.6978  53.1289  53.1292

          k = 0.0952-0.1428-0.1428 (  1032 PWs)   bands (ev):

    10.1469  10.1478  10.1478  10.1486  12.6255  12.6274  12.6275  12.6294
    12.8583  12.8604  12.8604  12.8625  13.2692  13.2744  13.2744  13.2796
    14.5984  14.6022  14.6022  14.6061  15.5105  15.5151  15.5151  15.5197
    21.5055  21.5087  21.5087  21.5119  35.1507  35.1537  35.1537  35.1567
    38.2093  38.2147  38.2148  38.2204  39.0330  39.0390  39.0390  39.0444
    44.1528  44.1589  44.1589  44.1649  45.1802  45.1820  45.1820  45.1837
    50.5468  50.5492  50.5492  50.5518

          k =-0.1428-0.1428-0.1428 (  1064 PWs)   bands (ev):

    10.0623  10.0624  10.0624  10.0624  12.7458  12.7458  12.7458  12.7459
    12.7459  12.7459  12.7459  12.7459  14.2066  14.2066  14.2066  14.2068
    14.7351  14.7351  14.7352  14.7352  14.7352  14.7352  14.7352  14.7352
    20.7171  20.7171  20.7171  20.7172  36.7876  36.7879  36.7879  36.7879
    39.6762  39.6762  39.6762  39.6763  39.6763  39.6764  39.6764  39.6765
    42.8647  42.8647  42.8647  42.8647  42.8647  42.8648  42.8648  42.8648
    48.9257  48.9257  48.9257  48.9258

          k =-0.0476-0.0000 0.0476 (  1027 PWs)   bands (ev):

     6.1105  10.3740  10.3740  10.5636  11.1204  11.1309  11.1310  12.6244
    12.9973  13.0017  13.7122  13.7489  13.7537  13.7707  13.9692  14.3669
    14.4931  14.4931  14.7642  14.7642  14.8351  16.7339  16.7339  18.9831
    24.1802  25.2507  26.4583  26.4584  28.3993  28.3994  29.0011  29.0012
    30.6903  36.1354  36.1674  37.1256  37.1256  37.3767  40.2658  40.2660
    41.2162  42.7235  43.5286  45.2047  46.4587  49.9847  50.4119  53.3069
    53.6709  55.3467  55.3469  56.2782

          k =-0.0476 0.0000 0.0952 (  1029 PWs)   bands (ev):

     7.1408   9.9771  10.8906  11.0088  11.4041  11.4368  11.4783  12.3117
    12.6892  12.8584  13.0516  13.0937  13.2731  13.5946  14.0170  14.1023
    14.1726  14.2592  14.2884  14.7612  14.7707  15.1612  18.3735  20.8055
    22.2989  24.8592  25.6772  26.6899  27.5508  29.7395  29.9859  30.0511
    31.1382  33.8276  34.5352  37.7488  38.6981  40.3681  40.5433  40.8999
    41.1471  44.1548  45.2733  47.1586  47.7378  48.6033  49.9112  51.2923
    52.9294  53.2019  55.0840  56.5063

          k =-0.0952-0.0000 0.0952 (  1045 PWs)   bands (ev):

     8.0912  10.6156  10.6157  11.3728  11.4551  11.6928  11.6931  12.2137
    12.3602  12.3602  12.5339  12.9319  13.4172  13.4908  13.7894  13.9283
    13.9284  14.2924  14.2925  14.4826  14.5596  16.3041  16.3041  19.6264
    22.3483  25.3804  26.9658  26.9659  28.0205  28.0207  31.1402  31.7533
    31.7549  31.8302  33.6825  36.9011  41.4907  41.8907  41.8908  43.1408
    43.3211  43.8450  43.8451  47.3455  47.3929  48.5547  48.5549  51.7710
    52.0988  52.1661  53.4484  55.2847

          k = 0.0476-0.0476 0.0476 (  1021 PWs)   bands (ev):

     6.4594  10.5620  10.5620  10.5620  11.2221  11.2223  11.2223  12.5695
    13.0223  13.0223  13.4120  13.4120  13.4120  13.8814  13.8814  14.1737
    14.1738  14.1738  14.8354  14.8354  14.8355  17.3881  17.3881  17.3881
    25.4783  25.4784  25.4784  26.7887  26.7887  26.7887  31.2169  31.2169
    31.2170  33.5746  36.2897  36.2898  36.2898  39.1204  41.2203  41.2203
    42.9276  42.9277  42.9277  46.5342  47.6363  47.6363  51.8504  51.8504
    55.2160  55.2162  55.2162  55.4961

          k = 0.0476-0.0476 0.0952 (  1036 PWs)   bands (ev):

     7.4571  10.1759  11.0219  11.0219  11.4638  11.4640  11.5198  12.3220
    12.6906  12.6906  12.8561  13.0542  13.1442  13.7861  13.8200  13.8832
    13.8838  14.1574  14.7233  14.7530  14.7531  15.4443  18.7171  18.7171
    22.9373  22.9373  26.7857  27.4153  27.4153  30.4574  30.4574  30.8835
    31.0596  32.7223  36.7477  37.7064  37.9564  38.8489  38.8489  42.3978
    43.6160  44.5178  47.0979  47.0980  47.9587  49.0603  50.2232  50.2233
    50.7375  52.9796  53.0716  55.8147

          k =-0.0952 0.0476 0.0476 (  1036 PWs)   bands (ev):

     7.4571  10.1759  11.0219  11.0219  11.4638  11.4640  11.5198  12.3220
    12.6906  12.6906  12.8561  13.0542  13.1442  13.7861  13.8200  13.8832
    13.8838  14.1574  14.7233  14.7530  14.7531  15.4443  18.7171  18.7171
    22.9373  22.9374  26.7858  27.4153  27.4153  30.4573  30.4574  30.8835
    31.0596  32.7223  36.7477  37.7064  37.9564  38.8489  38.8489  42.3978
    43.6160  44.5179  47.0979  47.0979  47.9587  49.0603  50.2232  50.2233
    50.7375  52.9796  53.0716  55.8147

          k = 0.0476-0.0476-0.1428 (  1034 PWs)   bands (ev):

     8.8954   8.9040  11.4498  11.4498  11.5173  11.5175  11.9236  11.9375
    12.3079  12.3080  12.8285  12.8443  13.4058  13.4098  13.6921  13.6922
    14.3039  14.3146  14.4720  14.4732  14.7054  14.7054  19.7965  19.7965
    21.4698  21.4698  28.3441  28.3448  28.6089  28.6137  29.0666  29.0678
    35.0276  35.0416  35.3985  35.4278  38.1862  38.2161  42.2139  42.2140
    44.8675  44.8849  45.3895  45.3896  49.4210  49.4434  50.8823  50.8901
    52.2546  52.2547  53.9017  53.9049

          k = 0.0952-0.0476 0.0952 (  1034 PWs)   bands (ev):

     8.3434  10.6240  10.6241  11.1359  11.6301  11.7709  11.7711  12.2980
    12.5042  12.5043  12.6293  12.9434  13.0929  13.5464  13.5469  13.5495
    13.9106  14.4718  14.6202  14.6206  14.6379  16.3828  16.3829  18.9164
    21.1675  24.1417  24.1417  28.1259  28.2072  31.2218  31.2218  32.2390
    32.2391  34.0978  35.2926  36.9610  39.3672  39.3673  40.1038  43.1836
    43.7579  44.7593  46.4884  46.4885  49.2820  49.2821  50.3814  50.6133
    50.9348  51.7277  52.4052  52.8867

          k =-0.0952 0.0476 0.0952 (  1034 PWs)   bands (ev):

     8.3434  10.6240  10.6241  11.1359  11.6301  11.7709  11.7711  12.2980
    12.5042  12.5043  12.6293  12.9434  13.0929  13.5464  13.5469  13.5495
    13.9106  14.4718  14.6202  14.6206  14.6379  16.3828  16.3829  18.9164
    21.1675  24.1417  24.1417  28.1259  28.2072  31.2218  31.2218  32.2390
    32.2390  34.0978  35.2926  36.9610  39.3672  39.3673  40.1039  43.1836
    43.7579  44.7593  46.4884  46.4885  49.2820  49.2821  50.3814  50.6133
    50.9348  51.7277  52.4052  52.8866

          k = 0.0952-0.0476-0.1428 (  1032 PWs)   bands (ev):

     9.5613   9.5677  10.9862  10.9891  11.8903  11.8917  12.1255  12.1372
    12.4820  12.4874  12.6671  12.6776  13.2209  13.2236  13.4026  13.4045
    14.2271  14.2328  14.5262  14.5308  15.0774  15.0795  17.6150  17.6225
    22.1371  22.1426  25.8846  25.8882  29.5576  29.5623  33.1211  33.1216
    33.3461  33.3504  36.9281  36.9607  40.1459  40.1526  40.4942  40.5005
    45.2099  45.2121  45.6995  45.7163  47.7118  47.7215  50.6401  50.6533
    51.7595  51.7669  54.0071  54.0204

          k = 0.0952-0.0952 0.0952 (  1009 PWs)   bands (ev):

     9.0085  10.5758  10.5760  10.5760  12.0869  12.0870  12.0870  12.5652
    12.7831  12.7831  12.7835  12.9106  12.9106  13.1840  13.1840  13.1841
    14.3514  14.3514  14.7634  14.7634  14.7635  16.6341  16.6341  16.6341
    21.7699  21.7699  21.7700  25.3983  32.5712  32.5713  32.5714  35.3328
    35.3328  35.3329  37.3135  37.3136  37.3137  37.6429  40.0683  40.0684
    44.4864  44.4864  47.8220  48.0468  48.0468  48.0472  48.1754  48.1755
    48.1755  52.5171  52.5173  52.5173

          k = 0.0952-0.0952-0.1428 (  1030 PWs)   bands (ev):

     9.8324   9.8354  10.5356  10.5357  12.2797  12.2797  12.5896  12.5974
    12.8363  12.8461  12.9438  12.9446  12.9869  12.9870  13.0514  13.0514
    14.6644  14.6656  14.6924  14.6927  14.8900  14.8917  16.8232  16.8232
    20.8395  20.8395  23.2772  23.2811  33.4477  33.4478  34.7411  34.7412
    36.2373  36.2520  37.3438  37.3507  39.0933  39.1166  39.4413  39.4414
    44.7117  44.7118  44.9058  44.9176  46.0560  46.0598  48.5438  48.5438
    49.6930  49.6978  53.1288  53.1292

     the Fermi energy is    14.5080 ev

!    total energy              =    -343.62978044 Ry
     Harris-Foulkes estimate   =    -343.62978043 Ry
     estimated scf accuracy    <          1.4E-10 Ry

     The total energy is the sum of the following terms:

     one-electron contribution =      -6.27599338 Ry
     hartree contribution      =      60.31661522 Ry
     xc contribution           =    -120.51646165 Ry
     ewald contribution        =    -277.10546453 Ry
     Dispersion Correction     =      -0.04789626 Ry
     smearing contrib. (-TS)   =      -0.00057984 Ry

     total magnetization       =     2.84 Bohr mag/cell
     absolute magnetization    =     3.25 Bohr mag/cell

     convergence has been achieved in  11 iterations

     Forces acting on atoms (Ry/au):

     atom    1 type  1   force =    -0.00107680   -0.00107680    0.00107703
     atom    2 type  1   force =     0.00107657    0.00107657    0.00107657
     atom    3 type  1   force =    -0.00107680    0.00107703   -0.00107680
     atom    4 type  1   force =     0.00107703   -0.00107680   -0.00107680

     Total force =     0.003730     Total SCF correction =     0.000004


     entering subroutine stress ...

          total   stress  (Ry/bohr**3)                   (kbar)     P=    0.99
   0.00000672   0.00000004   0.00000004          0.99      0.01      0.01
   0.00000004   0.00000672   0.00000004          0.01      0.99      0.01
   0.00000004   0.00000004   0.00000672          0.01      0.01      0.99


     number of scf cycles    =   3
     number of bfgs steps    =   2

     enthalpy old            =    -343.6297774122 Ry
     enthalpy new            =    -343.6297804383 Ry

     CASE: enthalpy_new < enthalpy_old

     new trust radius        =       0.0049097562 bohr
     new conv_thr            =            1.0E-10 Ry

     new unit-cell volume =    289.91659 a.u.^3 (    42.96121 Ang^3 )

CELL_PARAMETERS (alat=  1.88972590)
   3.502344609   0.000007071   0.000007071
   0.000007071   3.502344609   0.000007071
   0.000007071   0.000007071   3.502344609

ATOMIC_POSITIONS (alat)
Ni1      1.755233871   1.755233871   0.003724456
Ni1      0.003716136   0.003716136   0.003716136
Ni1      1.755233871   0.003724456   1.755233871
Ni1      0.003724456   1.755233871   1.755233871



     Writing output data file Ni-ferromag.save
     NEW-OLD atomic charge density approx. for the potential

     Check: negative/imaginary core charge=   -0.000005    0.000000
     extrapolated charge   40.00517, renormalised to   40.00000

     total cpu time spent up to now is      852.4 secs

     Self-consistent Calculation

     iteration #  1     ecut=    35.00 Ry     beta=0.20
     Davidson diagonalization with overlap
     ethr =  1.00E-06,  avg # of iterations =  3.5

     Threshold (ethr) on eigenvalues was too large:
     Diagonalizing with lowered threshold

     Davidson diagonalization with overlap
     ethr =  3.66E-08,  avg # of iterations =  1.0

     total cpu time spent up to now is      898.8 secs

     total energy              =    -343.62982014 Ry
     Harris-Foulkes estimate   =    -343.62439560 Ry
     estimated scf accuracy    <       0.00001471 Ry

     total magnetization       =     2.84 Bohr mag/cell
     absolute magnetization    =     3.25 Bohr mag/cell

     iteration #  2     ecut=    35.00 Ry     beta=0.20
     Davidson diagonalization with overlap
     ethr =  3.68E-08,  avg # of iterations =  1.0

     total cpu time spent up to now is      916.7 secs

     total energy              =    -343.62982556 Ry
     Harris-Foulkes estimate   =    -343.62982629 Ry
     estimated scf accuracy    <       0.00000715 Ry

     total magnetization       =     2.83 Bohr mag/cell
     absolute magnetization    =     3.25 Bohr mag/cell

     iteration #  3     ecut=    35.00 Ry     beta=0.20
     Davidson diagonalization with overlap
     ethr =  1.79E-08,  avg # of iterations =  1.0

     total cpu time spent up to now is      934.5 secs

     total energy              =    -343.62982475 Ry
     Harris-Foulkes estimate   =    -343.62982570 Ry
     estimated scf accuracy    <       0.00000377 Ry

     total magnetization       =     2.83 Bohr mag/cell
     absolute magnetization    =     3.25 Bohr mag/cell

     iteration #  4     ecut=    35.00 Ry     beta=0.20
     Davidson diagonalization with overlap
     ethr =  9.42E-09,  avg # of iterations =  1.0

     total cpu time spent up to now is      952.3 secs

     total energy              =    -343.62982509 Ry
     Harris-Foulkes estimate   =    -343.62982597 Ry
     estimated scf accuracy    <       0.00000243 Ry

     total magnetization       =     2.84 Bohr mag/cell
     absolute magnetization    =     3.25 Bohr mag/cell

     iteration #  5     ecut=    35.00 Ry     beta=0.20
     Davidson diagonalization with overlap
     ethr =  6.07E-09,  avg # of iterations =  1.0

     total cpu time spent up to now is      970.1 secs

     total energy              =    -343.62982541 Ry
     Harris-Foulkes estimate   =    -343.62982543 Ry
     estimated scf accuracy    <       0.00000022 Ry

     total magnetization       =     2.84 Bohr mag/cell
     absolute magnetization    =     3.25 Bohr mag/cell

     iteration #  6     ecut=    35.00 Ry     beta=0.20
     Davidson diagonalization with overlap
     ethr =  5.51E-10,  avg # of iterations =  1.0

     total cpu time spent up to now is      988.0 secs

     total energy              =    -343.62982546 Ry
     Harris-Foulkes estimate   =    -343.62982547 Ry
     estimated scf accuracy    <       0.00000014 Ry

     total magnetization       =     2.84 Bohr mag/cell
     absolute magnetization    =     3.25 Bohr mag/cell

     iteration #  7     ecut=    35.00 Ry     beta=0.20
     Davidson diagonalization with overlap
     ethr =  3.41E-10,  avg # of iterations =  1.0

     total cpu time spent up to now is     1005.8 secs

     total energy              =    -343.62982546 Ry
     Harris-Foulkes estimate   =    -343.62982547 Ry
     estimated scf accuracy    <       0.00000002 Ry

     total magnetization       =     2.84 Bohr mag/cell
     absolute magnetization    =     3.25 Bohr mag/cell

     iteration #  8     ecut=    35.00 Ry     beta=0.20
     Davidson diagonalization with overlap
     ethr =  6.04E-11,  avg # of iterations =  2.0

     total cpu time spent up to now is     1026.3 secs

     total energy              =    -343.62982549 Ry
     Harris-Foulkes estimate   =    -343.62982550 Ry
     estimated scf accuracy    <       0.00000008 Ry

     total magnetization       =     2.84 Bohr mag/cell
     absolute magnetization    =     3.25 Bohr mag/cell

     iteration #  9     ecut=    35.00 Ry     beta=0.20
     Davidson diagonalization with overlap
     ethr =  6.04E-11,  avg # of iterations =  1.0

     total cpu time spent up to now is     1044.1 secs

     total energy              =    -343.62982550 Ry
     Harris-Foulkes estimate   =    -343.62982549 Ry
     estimated scf accuracy    <       0.00000002 Ry

     total magnetization       =     2.84 Bohr mag/cell
     absolute magnetization    =     3.25 Bohr mag/cell

     iteration # 10     ecut=    35.00 Ry     beta=0.20
     Davidson diagonalization with overlap
     ethr =  4.43E-11,  avg # of iterations =  1.0

     total cpu time spent up to now is     1061.9 secs

     total energy              =    -343.62982550 Ry
     Harris-Foulkes estimate   =    -343.62982550 Ry
     estimated scf accuracy    <       0.00000001 Ry

     total magnetization       =     2.84 Bohr mag/cell
     absolute magnetization    =     3.25 Bohr mag/cell

     iteration # 11     ecut=    35.00 Ry     beta=0.20
     Davidson diagonalization with overlap
     ethr =  2.99E-11,  avg # of iterations =  1.0

     Magnetic moment per site:
     atom:    1    charge:    3.0029    magn:    0.3346    constr:    0.0000
     atom:    2    charge:    3.0011    magn:    0.3344    constr:    0.0000
     atom:    3    charge:    3.0029    magn:    0.3346    constr:    0.0000
     atom:    4    charge:    3.0029    magn:    0.3346    constr:    0.0000

     total cpu time spent up to now is     1079.8 secs

     End of self-consistent calculation

 ------ SPIN UP ------------


          k = 0.0000 0.0000 0.0000 (  1021 PWs)   bands (ev):

     5.4384   9.7235   9.7235   9.7235  10.1772  10.1772  10.1772  11.9579
    11.9579  11.9579  13.1378  13.1378  13.8562  13.8562  13.8562  13.9464
    13.9464  13.9464  13.9464  13.9464  13.9464  17.0843  17.0843  17.0843
    23.8289  23.8290  23.8290  29.5863  29.5863  29.5863  29.5865  29.5865
    29.5865  34.6697  34.6697  34.6697  38.0173  38.0174  38.0174  38.5132
    42.4949  42.4952  42.4952  46.1002  46.1005  46.1005  48.1981  55.2011
    55.2012  55.2012  57.6806  59.1149

          k =-0.0000-0.0000 0.0476 (  1021 PWs)   bands (ev):

     5.8048   9.7458   9.9078   9.9078  10.2878  10.3037  10.3037  11.8291
    12.0604  12.0604  13.0197  13.1845  13.2915  13.2915  13.7027  13.7027
    13.7703  13.7703  13.8067  13.9467  13.9467  15.4834  18.0439  18.0439
    23.9247  23.9247  26.0789  27.8346  27.8346  28.4633  28.4633  30.1470
    30.1472  34.7856  36.8426  36.8426  37.8791  38.1494  39.9750  39.9751
    40.2743  40.2745  40.9386  47.5193  48.1542  48.1543  49.1788  51.5869
    56.2990  56.2991  56.7020  56.7020

          k =-0.0000-0.0000 0.0952 (  1032 PWs)   bands (ev):

     6.8546   9.5165  10.3451  10.3451  10.5958  10.6872  10.6872  11.4846
    12.2347  12.2347  12.3573  12.3573  12.7316  13.3132  13.3186  13.3237
    13.3237  13.3311  13.3311  13.6724  13.9472  13.9472  20.0077  20.0077
    24.2414  24.2415  25.0602  25.0602  26.6957  26.6957  30.3794  31.7276
    31.7278  35.1491  36.7485  37.0526  37.0528  38.3698  38.7016  40.8872
    40.8872  44.1404  44.1404  44.1753  50.9542  51.0727  51.0729  51.0770
    51.0770  55.0650  55.9825  55.9826

          k = 0.0000 0.0000-0.1428 (  1044 PWs)   bands (ev):

     8.3540   8.3550  10.6214  10.6214  11.0304  11.0318  11.3336  11.3336
    11.3350  11.3350  12.5532  12.5552  12.8093  12.8093  12.8103  12.8103
    13.0750  13.0750  13.4910  13.4918  13.9475  13.9475  22.3933  22.3933
    22.3958  22.3958  24.6135  24.6135  25.7510  25.7510  34.1062  34.1064
    34.1079  34.1081  34.9276  34.9313  35.7950  35.7959  40.2938  40.2997
    45.6864  45.6864  45.6915  45.6915  47.6466  47.6466  52.3256  52.3256
    54.1991  54.1992  54.2038  54.2039

          k =-0.0000 0.0476 0.0476 (  1027 PWs)   bands (ev):

     6.1625   9.9442   9.9443  10.0711  10.4053  10.4053  10.4191  11.7690
    12.1054  12.1224  12.9452  12.9950  13.0035  13.0036  13.1797  13.5739
    13.6985  13.6985  13.7690  13.7690  13.8305  16.4165  16.4165  18.8143
    23.9181  25.1172  26.2659  26.2659  28.3127  28.3128  28.9559  28.9559
    30.6752  36.0590  36.1400  37.0508  37.0508  37.3549  40.1427  40.1428
    41.2926  42.6307  43.5550  45.2563  46.3930  49.8196  50.4813  53.1297
    53.6979  55.3794  55.3794  56.3323

          k =-0.0000 0.0476 0.0952 (  1029 PWs)   bands (ev):

     7.1846   9.7527  10.4266  10.4751  10.6873  10.7405  10.7597  11.4877
    11.9959  12.1357  12.2513  12.3690  12.3942  12.8279  13.2497  13.3284
    13.3352  13.3589  13.5114  13.7657  13.7717  14.4494  18.0319  20.5982
    22.0970  24.6275  25.5219  26.5515  27.4215  29.6270  29.9218  29.9752
    31.0365  33.7454  34.4885  37.7026  38.6558  40.4123  40.5914  40.7747
    41.1430  44.0672  45.0626  47.0866  47.8106  48.6158  49.9216  51.3618
    52.9684  53.2873  54.8578  56.2467

          k = 0.0000 0.0476-0.1428 (  1044 PWs)   bands (ev):

     8.6356   8.6366  10.7741  10.7741  11.0822  11.0836  11.2013  11.2025
    11.3482  11.3495  12.1797  12.1812  12.8101  12.8112  13.0399  13.0404
    13.0600  13.0600  13.6751  13.6751  13.7631  13.7634  19.9006  19.9019
    22.8930  22.8953  25.4300  25.4317  28.3290  28.3296  31.5174  31.5181
    32.0407  32.0412  35.8487  35.8529  38.8510  38.8513  42.2389  42.2425
    43.1385  43.1399  45.9627  45.9676  50.1100  50.1144  50.3805  50.3825
    52.6396  52.6412  53.2384  53.2397

          k =-0.0000 0.0952 0.0952 (  1045 PWs)   bands (ev):

     8.1115  10.3406  10.3406  10.7069  10.9556  10.9557  10.9691  11.4177
    11.6651  11.6651  11.8198  12.1385  12.4999  12.7416  13.0336  13.1888
    13.1888  13.3291  13.3291  13.4993  13.7148  15.6961  15.6961  19.3155
    22.1257  25.1783  26.7955  26.7955  27.9154  27.9154  31.0052  31.6619
    31.6619  31.7570  33.6257  36.8612  41.5498  41.9044  41.9044  43.1014
    43.4341  43.7973  43.7974  47.2184  47.3586  48.5043  48.5043  51.7054
    52.2060  52.2172  53.2381  55.3784

          k = 0.0000 0.0952-0.1428 (  1034 PWs)   bands (ev):

     9.3786   9.3794  10.8114  10.8123  11.2095  11.2108  11.2175  11.2176
    11.3669  11.3682  11.8738  11.8748  12.8472  12.8473  12.8476  12.8487
    12.9140  12.9142  13.3638  13.3645  14.3767  14.3769  17.2276  17.2286
    24.2502  24.2519  26.2455  26.2469  28.6716  28.6725  29.5578  29.5580
    32.9707  32.9711  36.8116  36.8157  40.3879  40.3887  43.0731  43.0739
    43.2416  43.2420  46.7641  46.7680  47.9528  47.9552  50.4541  50.4563
    51.7939  51.7974  53.5904  53.5913

          k = 0.0000-0.1428-0.1428 (  1024 PWs)   bands (ev):

    10.2319  10.2325  10.2325  10.2331  11.3283  11.3295  11.3295  11.3307
    11.6384  11.6388  11.6388  11.6391  12.7009  12.7010  12.7010  12.7012
    13.0145  13.0155  13.0155  13.0165  15.4472  15.4476  15.4477  15.4481
    26.2253  26.2265  26.2265  26.2277  27.5974  27.5982  27.5983  27.5991
    37.9162  37.9173  37.9175  37.9185  38.5206  38.5219  38.5220  38.5233
    47.2023  47.2023  47.2024  47.2024  49.2167  49.2189  49.2190  49.2212
    51.8506  51.8507  51.8509  51.8511

          k = 0.0476 0.0476 0.0476 (  1021 PWs)   bands (ev):

     6.5084  10.1053  10.1053  10.1053  10.5199  10.5199  10.5199  11.7341
    12.1421  12.1421  12.6993  12.6993  12.6993  13.0929  13.0929  13.3402
    13.3402  13.3402  13.8847  13.8847  13.8847  17.0441  17.0441  17.0441
    25.3433  25.3433  25.3433  26.6115  26.6115  26.6115  31.1910  31.1910
    31.1910  33.5037  36.1906  36.1906  36.1906  39.2720  41.1631  41.1631
    42.8381  42.8382  42.8382  46.6168  47.6742  47.6742  51.6773  51.6773
    55.1515  55.2572  55.2572  55.2572

          k = 0.0476 0.0476 0.0952 (  1036 PWs)   bands (ev):

     7.4903   9.9115  10.4887  10.4887  10.8058  10.8338  10.8338  11.5243
    11.9863  11.9863  12.1818  12.2214  12.2817  12.9377  13.0084  13.0941
    13.0941  13.3327  13.7873  13.7873  13.8196  14.8114  18.3871  18.3871
    22.7236  22.7236  26.6379  27.2624  27.2624  30.3784  30.3784  30.7653
    30.9680  32.6716  36.6689  37.7967  37.8747  38.8141  38.8142  42.3856
    43.5302  44.4952  47.0483  47.0483  47.9113  49.1097  50.2288  50.2288
    50.7249  53.0447  53.1060  55.6936

          k = 0.0476 0.0476-0.1428 (  1034 PWs)   bands (ev):

     8.8628   8.8636  10.8764  10.8764  10.9341  10.9342  11.1772  11.1785
    11.5920  11.5920  12.0839  12.0854  12.5549  12.5554  12.9263  12.9263
    13.5017  13.5027  13.6089  13.6091  13.7312  13.7312  19.5360  19.5360
    21.1624  21.1625  28.2262  28.2262  28.4655  28.4660  28.9476  28.9476
    34.9602  34.9616  35.4347  35.4376  38.1177  38.1208  42.2280  42.2280
    44.7827  44.7844  45.3957  45.3957  49.5055  49.5078  50.9265  50.9273
    52.2152  52.2153  53.7184  53.7185

          k = 0.0476 0.0952 0.0952 (  1034 PWs)   bands (ev):

     8.3295  10.2295  10.2295  10.5159  11.1214  11.1675  11.1675  11.5694
    11.7822  11.7822  11.9155  12.1405  12.2666  12.7454  12.7454  12.7618
    13.0649  13.6204  13.6898  13.7050  13.7050  15.8268  15.8268  18.6386
    20.8203  23.9211  23.9211  27.9632  28.0724  31.1542  31.1542  32.1420
    32.1420  34.0388  35.2631  36.9316  39.3480  39.3480  40.1757  43.0647
    43.7616  44.8090  46.4893  46.4893  49.2216  49.2216  50.4446  50.6242
    50.9533  51.6491  52.3335  52.9541

          k = 0.0476 0.0952-0.1428 (  1032 PWs)   bands (ev):

     9.4129   9.4134  10.4509  10.4510  11.3351  11.3351  11.4829  11.4840
    11.7888  11.7893  11.9095  11.9105  12.4159  12.4162  12.6269  12.6271
    13.3622  13.3626  13.5900  13.5905  14.2828  14.2830  17.2044  17.2052
    21.8359  21.8365  25.6825  25.6829  29.4551  29.4556  33.0606  33.0608
    33.2746  33.2750  36.9253  36.9287  40.1601  40.1608  40.4697  40.4703
    45.2188  45.2191  45.7105  45.7121  47.7300  47.7309  50.6022  50.6036
    51.8180  51.8188  53.9356  53.9374

          k = 0.0476-0.1428-0.1428 (  1032 PWs)   bands (ev):

     9.9826   9.9828   9.9828   9.9830  11.7264  11.7267  11.7267  11.7270
    11.8130  11.8137  11.8137  11.8144  12.3871  12.3874  12.3875  12.3878
    13.3443  13.3450  13.3450  13.3456  15.3578  15.3583  15.3583  15.3588
    23.4701  23.4705  23.4706  23.4710  30.9934  30.9936  30.9936  30.9938
    38.1968  38.1977  38.1979  38.1988  38.3639  38.3651  38.3651  38.3663
    46.6809  46.6809  46.6810  46.6811  46.7849  46.7861  46.7862  46.7874
    54.8420  54.8430  54.8431  54.8441

          k = 0.0952 0.0952 0.0952 (  1009 PWs)   bands (ev):

     8.8735  10.0645  10.0645  10.0645  11.5263  11.5263  11.5263  12.0406
    12.1017  12.1017  12.1017  12.1074  12.1074  12.3909  12.3909  12.3909
    13.4681  13.4681  13.8334  13.8334  13.8334  16.2047  16.2048  16.2048
    21.4279  21.4279  21.4279  25.1691  32.5208  32.5209  32.5209  35.2668
    35.2669  35.2669  37.2965  37.2966  37.2966  37.8102  39.9773  39.9773
    44.4724  44.4724  47.8021  48.0933  48.0933  48.0933  48.1689  48.1689
    48.1689  52.4801  52.4801  52.4801

          k = 0.0952 0.0952-0.1428 (  1030 PWs)   bands (ev):

     9.4997   9.4998   9.9959   9.9959  11.6463  11.6463  11.9328  11.9336
    12.1501  12.1502  12.2706  12.2706  12.2844  12.2853  12.3850  12.3850
    13.7538  13.7538  13.7617  13.7617  14.1725  14.1726  16.4887  16.4887
    20.3990  20.3991  22.9858  22.9863  33.4360  33.4361  34.6504  34.6504
    36.3489  36.3504  37.2698  37.2705  39.0185  39.0209  39.4621  39.4622
    44.6804  44.6804  44.9290  44.9302  46.0444  46.0448  48.5788  48.5788
    49.6361  49.6367  53.0142  53.0142

          k = 0.0952-0.1428-0.1428 (  1032 PWs)   bands (ev):

     9.6754   9.6754   9.6754   9.6754  11.8924  11.8926  11.8927  11.8928
    12.0824  12.0826  12.0826  12.0828  12.8318  12.8322  12.8322  12.8327
    13.6814  13.6817  13.6817  13.6821  14.9802  14.9807  14.9808  14.9813
    21.1121  21.1125  21.1125  21.1129  35.1755  35.1758  35.1758  35.1760
    38.2405  38.2411  38.2412  38.2417  38.9641  38.9647  38.9648  38.9653
    44.1213  44.1218  44.1220  44.1225  45.1842  45.1844  45.1844  45.1846
    50.4528  50.4530  50.4530  50.4533

          k =-0.1428-0.1428-0.1428 (  1064 PWs)   bands (ev):

     9.5594   9.5594   9.5594   9.5594  11.9709  11.9709  11.9709  11.9709
    11.9709  11.9710  11.9710  11.9710  13.8093  13.8093  13.8093  13.8093
    13.8093  13.8093  13.8093  13.8093  14.3036  14.3037  14.3038  14.3038
    20.2314  20.2315  20.2315  20.2315  36.9681  36.9682  36.9682  36.9683
    39.6010  39.6010  39.6010  39.6011  39.6011  39.6011  39.6012  39.6012
    42.8295  42.8296  42.8296  42.8296  42.8296  42.8297  42.8298  42.8298
    48.8059  48.8059  48.8059  48.8060

          k =-0.0476-0.0000 0.0476 (  1027 PWs)   bands (ev):

     6.1625   9.9442   9.9443  10.0711  10.4053  10.4053  10.4191  11.7690
    12.1054  12.1225  12.9452  12.9950  13.0035  13.0036  13.1797  13.5739
    13.6985  13.6985  13.7690  13.7690  13.8305  16.4165  16.4165  18.8143
    23.9181  25.1174  26.2659  26.2660  28.3127  28.3127  28.9559  28.9559
    30.6751  36.0588  36.1401  37.0508  37.0508  37.3550  40.1427  40.1428
    41.2925  42.6309  43.5548  45.2562  46.3928  49.8195  50.4815  53.1297
    53.6980  55.3796  55.3796  56.3322

          k =-0.0476-0.0000 0.0952 (  1029 PWs)   bands (ev):

     7.1846   9.7527  10.4266  10.4752  10.6873  10.7405  10.7597  11.4877
    11.9959  12.1357  12.2514  12.3689  12.3942  12.8279  13.2497  13.3284
    13.3352  13.3589  13.5114  13.7657  13.7717  14.4494  18.0319  20.5982
    22.0971  24.6275  25.5219  26.5515  27.4215  29.6269  29.9218  29.9750
    31.0365  33.7455  34.4886  37.7027  38.6556  40.4122  40.5913  40.7747
    41.1431  44.0672  45.0625  47.0868  47.8105  48.6156  49.9218  51.3618
    52.9686  53.2875  54.8577  56.2467

          k =-0.0952-0.0000 0.0952 (  1045 PWs)   bands (ev):

     8.1115  10.3406  10.3406  10.7069  10.9557  10.9557  10.9691  11.4177
    11.6650  11.6650  11.8198  12.1385  12.4999  12.7416  13.0335  13.1888
    13.1888  13.3291  13.3291  13.4993  13.7148  15.6961  15.6961  19.3156
    22.1257  25.1783  26.7955  26.7955  27.9153  27.9154  31.0053  31.6620
    31.6620  31.7571  33.6255  36.8611  41.5497  41.9044  41.9045  43.1013
    43.4340  43.7974  43.7975  47.2182  47.3584  48.5045  48.5045  51.7057
    52.2058  52.2172  53.2380  55.3785

          k = 0.0476-0.0476 0.0476 (  1021 PWs)   bands (ev):

     6.5085  10.1053  10.1053  10.1053  10.5199  10.5199  10.5199  11.7341
    12.1421  12.1421  12.6993  12.6993  12.6993  13.0929  13.0929  13.3402
    13.3402  13.3403  13.8847  13.8847  13.8847  17.0441  17.0441  17.0441
    25.3432  25.3434  25.3434  26.6115  26.6115  26.6115  31.1908  31.1908
    31.1910  33.5040  36.1904  36.1905  36.1906  39.2719  41.1628  41.1630
    42.8382  42.8384  42.8384  46.6167  47.6740  47.6742  51.6771  51.6773
    55.1515  55.2572  55.2572  55.2574

          k = 0.0476-0.0476 0.0952 (  1036 PWs)   bands (ev):

     7.4903   9.9115  10.4887  10.4887  10.8058  10.8338  10.8338  11.5244
    11.9863  11.9863  12.1818  12.2214  12.2817  12.9377  13.0084  13.0941
    13.0941  13.3326  13.7873  13.7873  13.8196  14.8114  18.3871  18.3871
    22.7236  22.7237  26.6380  27.2624  27.2625  30.3783  30.3785  30.7656
    30.9681  32.6714  36.6688  37.7966  37.8745  38.8139  38.8142  42.3856
    43.5304  44.4952  47.0484  47.0486  47.9113  49.1095  50.2288  50.2290
    50.7248  53.0449  53.1060  55.6935

          k =-0.0952 0.0476 0.0476 (  1036 PWs)   bands (ev):

     7.4903   9.9115  10.4887  10.4887  10.8058  10.8338  10.8338  11.5244
    11.9863  11.9863  12.1818  12.2214  12.2817  12.9377  13.0084  13.0941
    13.0941  13.3326  13.7873  13.7873  13.8196  14.8113  18.3871  18.3871
    22.7237  22.7237  26.6378  27.2625  27.2625  30.3783  30.3783  30.7656
    30.9681  32.6716  36.6689  37.7967  37.8747  38.8140  38.8140  42.3855
    43.5303  44.4949  47.0486  47.0486  47.9111  49.1096  50.2290  50.2290
    50.7248  53.0450  53.1061  55.6936

          k = 0.0476-0.0476-0.1428 (  1034 PWs)   bands (ev):

     8.8628   8.8636  10.8764  10.8764  10.9341  10.9342  11.1772  11.1785
    11.5920  11.5920  12.0839  12.0854  12.5549  12.5553  12.9263  12.9263
    13.5017  13.5027  13.6089  13.6091  13.7312  13.7312  19.5360  19.5361
    21.1623  21.1625  28.2262  28.2263  28.4656  28.4661  28.9476  28.9477
    34.9600  34.9614  35.4346  35.4375  38.1177  38.1207  42.2278  42.2281
    44.7829  44.7846  45.3956  45.3958  49.5055  49.5078  50.9264  50.9272
    52.2152  52.2154  53.7184  53.7185

          k = 0.0952-0.0476 0.0952 (  1034 PWs)   bands (ev):

     8.3295  10.2295  10.2295  10.5159  11.1214  11.1675  11.1675  11.5694
    11.7822  11.7822  11.9155  12.1405  12.2666  12.7453  12.7453  12.7618
    13.0649  13.6204  13.6898  13.7050  13.7050  15.8268  15.8268  18.6386
    20.8202  23.9212  23.9212  27.9634  28.0726  31.1541  31.1542  32.1420
    32.1420  34.0388  35.2628  36.9316  39.3478  39.3478  40.1757  43.0646
    43.7615  44.8090  46.4894  46.4894  49.2218  49.2218  50.4448  50.6243
    50.9531  51.6492  52.3336  52.9543

          k =-0.0952 0.0476 0.0952 (  1034 PWs)   bands (ev):

     8.3295  10.2295  10.2295  10.5159  11.1214  11.1675  11.1675  11.5694
    11.7822  11.7822  11.9155  12.1405  12.2666  12.7454  12.7454  12.7618
    13.0649  13.6204  13.6898  13.7050  13.7050  15.8267  15.8267  18.6387
    20.8203  23.9210  23.9212  27.9634  28.0725  31.1541  31.1542  32.1420
    32.1421  34.0386  35.2630  36.9314  39.3479  39.3481  40.1756  43.0645
    43.7614  44.8089  46.4894  46.4895  49.2218  49.2219  50.4447  50.6241
    50.9532  51.6490  52.3338  52.9542

          k = 0.0952-0.0476-0.1428 (  1032 PWs)   bands (ev):

     9.4129   9.4134  10.4509  10.4510  11.3351  11.3351  11.4829  11.4840
    11.7888  11.7893  11.9095  11.9105  12.4159  12.4162  12.6269  12.6271
    13.3622  13.3626  13.5900  13.5905  14.2828  14.2830  17.2044  17.2052
    21.8358  21.8365  25.6826  25.6830  29.4552  29.4556  33.0604  33.0607
    33.2747  33.2751  36.9253  36.9287  40.1600  40.1608  40.4695  40.4702
    45.2188  45.2191  45.7104  45.7121  47.7301  47.7310  50.6023  50.6037
    51.8182  51.8190  53.9358  53.9375

          k = 0.0952-0.0952 0.0952 (  1009 PWs)   bands (ev):

     8.8735  10.0645  10.0645  10.0645  11.5263  11.5263  11.5264  12.0406
    12.1017  12.1017  12.1017  12.1074  12.1074  12.3909  12.3909  12.3909
    13.4681  13.4681  13.8334  13.8334  13.8334  16.2047  16.2048  16.2048
    21.4278  21.4279  21.4279  25.1693  32.5209  32.5210  32.5210  35.2667
    35.2667  35.2669  37.2964  37.2965  37.2966  37.8101  39.9771  39.9772
    44.4722  44.4723  47.8020  48.0934  48.0934  48.0935  48.1688  48.1688
    48.1690  52.4803  52.4804  52.4804

          k = 0.0952-0.0952-0.1428 (  1030 PWs)   bands (ev):

     9.4997   9.4998   9.9959   9.9959  11.6463  11.6464  11.9328  11.9336
    12.1501  12.1502  12.2706  12.2706  12.2844  12.2853  12.3850  12.3850
    13.7538  13.7538  13.7617  13.7617  14.1725  14.1726  16.4886  16.4887
    20.3989  20.3990  22.9859  22.9864  33.4361  33.4362  34.6505  34.6506
    36.3489  36.3503  37.2696  37.2703  39.0185  39.0209  39.4620  39.4623
    44.6802  44.6805  44.9290  44.9302  46.0443  46.0446  48.5789  48.5790
    49.6362  49.6367  53.0143  53.0144

 ------ SPIN DOWN ----------


          k = 0.0000 0.0000 0.0000 (  1021 PWs)   bands (ev):

     5.3838  10.1854  10.1854  10.1854  10.8953  10.8953  10.8953  12.8382
    12.8382  12.8382  13.9178  13.9178  14.6703  14.6703  14.6703  14.9557
    14.9557  14.9557  14.9557  14.9557  14.9557  17.0056  17.0056  17.0056
    24.1346  24.1347  24.1347  29.5726  29.5726  29.5727  29.5728  29.5729
    29.5729  34.8337  34.8337  34.8337  38.1611  38.1613  38.1613  38.3075
    42.4654  42.4657  42.4657  46.1726  46.1728  46.1728  48.0387  55.3903
    55.3905  55.3905  58.2122  59.6436

          k =-0.0000-0.0000 0.0476 (  1021 PWs)   bands (ev):

     5.7502  10.1612  10.3797  10.3797  11.0147  11.0192  11.0192  12.6961
    12.9447  12.9447  13.7902  13.9667  14.1114  14.1114  14.5031  14.5031
    14.6183  14.7629  14.7629  14.9560  14.9560  15.5535  18.1509  18.1509
    24.2153  24.2153  26.2808  27.9033  27.9033  28.4906  28.4907  30.1497
    30.1499  34.9371  36.9234  36.9234  37.7401  38.2907  40.0958  40.0959
    40.3160  40.3162  40.8686  47.5398  48.1279  48.1281  49.2502  51.5783
    56.5105  56.5106  56.6285  56.6285

          k =-0.0000-0.0000 0.0952 (  1032 PWs)   bands (ev):

     6.8042   9.7247  10.8415  10.8415  11.3482  11.3973  11.3973  12.3174
    12.9638  12.9638  13.2548  13.2548  13.4691  13.6890  14.0908  14.0908
    14.1013  14.2875  14.2875  14.4775  14.9566  14.9566  20.1930  20.1930
    24.4876  24.4877  25.2009  25.2009  26.7939  26.7940  30.4750  31.7646
    31.7648  35.2628  36.7135  37.1240  37.1242  38.2794  38.8480  40.8925
    40.8925  44.2400  44.2401  44.3939  50.9099  50.9778  50.9779  51.0035
    51.0035  54.9604  56.2252  56.2253

          k = 0.0000 0.0000-0.1428 (  1044 PWs)   bands (ev):

     8.3476   8.3486  11.1334  11.1334  11.8207  11.8222  12.0427  12.0427
    12.0441  12.0441  13.2010  13.2031  13.7309  13.7309  13.7320  13.7320
    13.8209  13.8209  14.2875  14.2883  14.9569  14.9569  22.5750  22.5750
    22.5776  22.5776  24.8102  24.8102  25.9085  25.9085  34.1713  34.1715
    34.1730  34.1732  34.9075  34.9114  35.8460  35.8471  40.4862  40.4922
    45.6418  45.6418  45.6470  45.6470  47.7207  47.7208  52.5159  52.5160
    54.0887  54.0888  54.0934  54.0935

          k =-0.0000 0.0476 0.0476 (  1027 PWs)   bands (ev):

     6.1089  10.3723  10.3723  10.5619  11.1187  11.1292  11.1292  12.6223
    12.9952  12.9996  13.7100  13.7513  13.7514  13.7636  13.9668  14.3645
    14.4907  14.4907  14.7617  14.7617  14.8325  16.7312  16.7312  18.9801
    24.1767  25.2471  26.4547  26.4547  28.3957  28.3958  28.9971  28.9971
    30.6864  36.1314  36.1630  37.1212  37.1213  37.3723  40.2608  40.2609
    41.2118  42.7183  43.5239  45.2000  46.4535  49.9785  50.4068  53.3007
    53.6657  55.3412  55.3412  56.2726

          k =-0.0000 0.0476 0.0952 (  1029 PWs)   bands (ev):

     7.1390   9.9753  10.8888  11.0070  11.4023  11.4351  11.4765  12.3096
    12.6871  12.8564  13.0503  13.0906  13.2710  13.5923  14.0146  14.1002
    14.1703  14.2566  14.2858  14.7589  14.7680  15.1586  18.3706  20.8024
    22.2956  24.8555  25.6736  26.6863  27.5469  29.7355  29.9835  30.0458
    31.1340  33.8234  34.5309  37.7445  38.6937  40.3638  40.5389  40.8948
    41.1425  44.1496  45.2673  47.1532  47.7330  48.5982  49.9058  51.2870
    52.9240  53.1967  55.0783  56.5012

          k = 0.0000 0.0476-0.1428 (  1044 PWs)   bands (ev):

     8.6413   8.6422  11.2771  11.2773  11.8652  11.8667  11.8780  11.8791
    12.0599  12.0614  12.9205  12.9222  13.7343  13.7355  13.8095  13.8096
    13.8100  13.8103  14.5135  14.5136  14.7572  14.7574  20.1821  20.1834
    23.0862  23.0885  25.6015  25.6033  28.4460  28.4467  31.6314  31.6321
    32.0986  32.0990  35.8738  35.8781  38.8522  38.8525  42.3918  42.3956
    43.1314  43.1330  45.9146  45.9196  50.1756  50.1799  50.3128  50.3148
    52.5559  52.5576  53.4076  53.4089

          k =-0.0000 0.0952 0.0952 (  1045 PWs)   bands (ev):

     8.0894  10.6138  10.6138  11.3710  11.4532  11.6912  11.6912  12.2115
    12.3582  12.3582  12.5319  12.9296  13.4152  13.4885  13.7870  13.9261
    13.9261  14.2900  14.2900  14.4800  14.5571  16.3014  16.3014  19.6232
    22.3450  25.3768  26.9624  26.9624  28.0166  28.0166  31.1361  31.7508
    31.7508  31.8245  33.6783  36.8969  41.4863  41.8861  41.8862  43.1359
    43.3166  43.8398  43.8399  47.3399  47.3878  48.5494  48.5494  51.7651
    52.0939  52.1607  53.4426  55.2811

          k = 0.0000 0.0952-0.1428 (  1034 PWs)   bands (ev):

     9.4400   9.4408  11.2309  11.2318  11.8574  11.8575  11.9722  11.9736
    12.0873  12.0887  12.6105  12.6116  13.5815  13.5816  13.6553  13.6555
    13.7811  13.7823  14.3322  14.3329  15.1827  15.1829  17.6919  17.6928
    24.4554  24.4571  26.3973  26.3989  28.8339  28.8347  29.6479  29.6481
    33.0425  33.0430  36.8393  36.8434  40.3868  40.3876  43.0188  43.0196
    43.2600  43.2604  46.7022  46.7062  48.0352  48.0377  50.4014  50.4036
    51.9151  51.9186  53.5050  53.5059

          k = 0.0000-0.1428-0.1428 (  1024 PWs)   bands (ev):

    10.4512  10.4518  10.4519  10.4526  12.0660  12.0673  12.0673  12.0686
    12.3075  12.3079  12.3079  12.3083  13.4385  13.4386  13.4387  13.4388
    13.9634  13.9645  13.9645  13.9656  16.1291  16.1295  16.1295  16.1299
    26.4205  26.4216  26.4216  26.4227  27.7209  27.7218  27.7219  27.7228
    37.9905  37.9916  37.9917  37.9927  38.4867  38.4880  38.4881  38.4893
    47.0822  47.0822  47.0824  47.0824  49.2058  49.2080  49.2082  49.2104
    51.9517  51.9519  51.9521  51.9523

          k = 0.0476 0.0476 0.0476 (  1021 PWs)   bands (ev):

     6.4577  10.5603  10.5603  10.5603  11.2204  11.2204  11.2204  12.5674
    13.0202  13.0202  13.4098  13.4098  13.4098  13.8791  13.8791  14.1713
    14.1713  14.1713  14.8330  14.8330  14.8330  17.3853  17.3853  17.3853
    25.4748  25.4748  25.4748  26.7848  26.7849  26.7849  31.2129  31.2130
    31.2130  33.5702  36.2854  36.2855  36.2855  39.1165  41.2156  41.2156
    42.9224  42.9225  42.9225  46.5294  47.6314  47.6314  51.8441  51.8441
    55.2104  55.2105  55.2105  55.4914

          k = 0.0476 0.0476 0.0952 (  1036 PWs)   bands (ev):

     7.4553  10.1741  11.0201  11.0201  11.4621  11.4621  11.5180  12.3199
    12.6885  12.6885  12.8541  13.0518  13.1420  13.7839  13.8183  13.8810
    13.8810  14.1549  14.7208  14.7505  14.7505  15.4417  18.7141  18.7141
    22.9339  22.9339  26.7822  27.4115  27.4115  30.4534  30.4534  30.8795
    31.0555  32.7181  36.7434  37.7024  37.9519  38.8444  38.8444  42.3930
    43.6107  44.5128  47.0926  47.0926  47.9534  49.0553  50.2178  50.2178
    50.7321  52.9742  53.0661  55.8087

          k = 0.0476 0.0476-0.1428 (  1034 PWs)   bands (ev):

     8.8974   8.8983  11.4480  11.4480  11.5156  11.5156  11.9279  11.9294
    12.3059  12.3059  12.8334  12.8350  13.4055  13.4059  13.6899  13.6900
    14.3063  14.3074  14.4701  14.4702  14.7029  14.7029  19.7934  19.7935
    21.4665  21.4665  28.3411  28.3411  28.6075  28.6079  29.0624  29.0625
    35.0296  35.0310  35.4077  35.4108  38.1950  38.1980  42.2093  42.2093
    44.8698  44.8716  45.3847  45.3847  49.4260  49.4283  50.8806  50.8814
    52.2487  52.2488  53.8994  53.8995

          k = 0.0476 0.0952 0.0952 (  1034 PWs)   bands (ev):

     8.3415  10.6223  10.6223  11.1341  11.6282  11.7692  11.7692  12.2959
    12.5022  12.5022  12.6272  12.9412  13.0907  13.5447  13.5447  13.5469
    13.9082  14.4693  14.6182  14.6182  14.6350  16.3801  16.3801  18.9135
    21.1642  24.1382  24.1382  28.1251  28.2002  31.2179  31.2179  32.2347
    32.2347  34.0935  35.2885  36.9567  39.3628  39.3628  40.0995  43.1783
    43.7532  44.7546  46.4833  46.4833  49.2766  49.2766  50.3762  50.6077
    50.9295  51.7217  52.3995  52.8811

          k = 0.0476 0.0952-0.1428 (  1032 PWs)   bands (ev):

     9.5623   9.5630  10.9857  10.9860  11.8891  11.8893  12.1288  12.1300
    12.4824  12.4829  12.6697  12.6708  13.2200  13.2202  13.4013  13.4015
    14.2272  14.2278  14.5258  14.5263  15.0758  15.0760  17.6155  17.6163
    22.1362  22.1368  25.8826  25.8830  29.5557  29.5562  33.1173  33.1174
    33.3436  33.3441  36.9384  36.9417  40.1443  40.1450  40.4923  40.4930
    45.2060  45.2063  45.7021  45.7038  47.7108  47.7119  50.6406  50.6419
    51.7574  51.7582  54.0139  54.0173

          k = 0.0476-0.1428-0.1428 (  1032 PWs)   bands (ev):

    10.3392  10.3396  10.3396  10.3400  12.2961  12.2967  12.2967  12.2973
    12.5162  12.5169  12.5169  12.5176  13.1642  13.1645  13.1646  13.1649
    14.2562  14.2569  14.2569  14.2576  16.0035  16.0039  16.0040  16.0044
    23.7280  23.7284  23.7284  23.7288  31.0760  31.0762  31.0763  31.0766
    38.2691  38.2700  38.2701  38.2711  38.3148  38.3159  38.3160  38.3170
    46.6126  46.6126  46.6127  46.6127  46.8105  46.8117  46.8119  46.8131
    54.9064  54.9074  54.9075  55.1194

          k = 0.0952 0.0952 0.0952 (  1009 PWs)   bands (ev):

     9.0067  10.5741  10.5741  10.5742  12.0851  12.0851  12.0851  12.5632
    12.7812  12.7812  12.7812  12.9083  12.9083  13.1819  13.1819  13.1819
    14.3490  14.3490  14.7609  14.7610  14.7610  16.6314  16.6314  16.6314
    21.7666  21.7666  21.7666  25.3946  32.5672  32.5672  32.5672  35.3283
    35.3284  35.3284  37.3092  37.3093  37.3093  37.6391  40.0635  40.0635
    44.4816  44.4816  47.8173  48.0417  48.0418  48.0418  48.1702  48.1702
    48.1702  52.5113  52.5113  52.5113

          k = 0.0952 0.0952-0.1428 (  1030 PWs)   bands (ev):

     9.8319   9.8322  10.5339  10.5339  12.2777  12.2777  12.5911  12.5919
    12.8386  12.8396  12.9421  12.9422  12.9847  12.9847  13.0492  13.0493
    14.6625  14.6626  14.6901  14.6901  14.8882  14.8884  16.8204  16.8205
    20.8361  20.8361  23.2754  23.2758  33.4437  33.4438  34.7365  34.7366
    36.2401  36.2416  37.3423  37.3430  39.0989  39.1013  39.4368  39.4369
    44.7068  44.7068  44.9062  44.9074  46.0527  46.0531  48.5386  48.5386
    49.6897  49.6902  53.1236  53.1236

          k = 0.0952-0.1428-0.1428 (  1032 PWs)   bands (ev):

    10.1460  10.1461  10.1461  10.1461  12.6252  12.6254  12.6254  12.6256
    12.8581  12.8583  12.8583  12.8585  13.2717  13.2722  13.2722  13.2727
    14.5994  14.5998  14.5998  14.6002  15.5121  15.5125  15.5125  15.5130
    21.5050  21.5053  21.5053  21.5056  35.1493  35.1496  35.1497  35.1500
    38.2098  38.2103  38.2104  38.2110  39.0334  39.0339  39.0341  39.0346
    44.1532  44.1538  44.1539  44.1545  45.1768  45.1770  45.1771  45.1772
    50.5435  50.5438  50.5438  50.5440

          k =-0.1428-0.1428-0.1428 (  1064 PWs)   bands (ev):

    10.0606  10.0607  10.0607  10.0607  12.7437  12.7437  12.7438  12.7438
    12.7438  12.7438  12.7438  12.7438  14.2044  14.2045  14.2045  14.2045
    14.7326  14.7326  14.7326  14.7326  14.7326  14.7326  14.7326  14.7326
    20.7137  20.7138  20.7138  20.7138  36.7839  36.7841  36.7841  36.7842
    39.6712  39.6712  39.6713  39.6713  39.6714  39.6714  39.6715  39.6715
    42.8598  42.8598  42.8598  42.8599  42.8600  42.8600  42.8601  42.8601
    48.9203  48.9203  48.9203  48.9204

          k =-0.0476-0.0000 0.0476 (  1027 PWs)   bands (ev):

     6.1089  10.3723  10.3723  10.5619  11.1187  11.1292  11.1292  12.6224
    12.9951  12.9996  13.7100  13.7513  13.7514  13.7636  13.9668  14.3645
    14.4907  14.4907  14.7617  14.7618  14.8325  16.7311  16.7312  18.9801
    24.1767  25.2472  26.4547  26.4547  28.3957  28.3957  28.9971  28.9971
    30.6862  36.1315  36.1628  37.1213  37.1213  37.3724  40.2608  40.2610
    41.2117  42.7185  43.5237  45.1999  46.4533  49.9784  50.4069  53.3008
    53.6658  55.3414  55.3414  56.2725

          k =-0.0476-0.0000 0.0952 (  1029 PWs)   bands (ev):

     7.1390   9.9753  10.8888  11.0070  11.4023  11.4351  11.4765  12.3096
    12.6871  12.8564  13.0503  13.0906  13.2710  13.5923  14.0146  14.1002
    14.1703  14.2566  14.2859  14.7589  14.7680  15.1585  18.3706  20.8024
    22.2957  24.8556  25.6736  26.6864  27.5469  29.7354  29.9835  30.0456
    31.1340  33.8235  34.5310  37.7445  38.6935  40.3636  40.5389  40.8949
    41.1425  44.1496  45.2672  47.1535  47.7329  48.5980  49.9059  51.2869
    52.9242  53.1968  55.0782  56.5012

          k =-0.0952-0.0000 0.0952 (  1045 PWs)   bands (ev):

     8.0894  10.6138  10.6138  11.3711  11.4532  11.6912  11.6912  12.2115
    12.3581  12.3582  12.5319  12.9296  13.4151  13.4885  13.7870  13.9261
    13.9261  14.2900  14.2900  14.4800  14.5571  16.3014  16.3014  19.6233
    22.3450  25.3768  26.9623  26.9624  28.0165  28.0166  31.1362  31.7508
    31.7508  31.8246  33.6781  36.8967  41.4862  41.8862  41.8862  43.1358
    43.3165  43.8399  43.8400  47.3397  47.3876  48.5495  48.5496  51.7655
    52.0938  52.1606  53.4425  55.2812

          k = 0.0476-0.0476 0.0476 (  1021 PWs)   bands (ev):

     6.4577  10.5603  10.5603  10.5603  11.2204  11.2204  11.2205  12.5674
    13.0202  13.0202  13.4098  13.4098  13.4098  13.8791  13.8791  14.1713
    14.1713  14.1713  14.8329  14.8330  14.8330  17.3852  17.3853  17.3853
    25.4748  25.4749  25.4750  26.7849  26.7849  26.7849  31.2128  31.2128
    31.2130  33.5705  36.2853  36.2854  36.2855  39.1164  41.2153  41.2155
    42.9225  42.9227  42.9227  46.5294  47.6312  47.6314  51.8439  51.8441
    55.2104  55.2105  55.2106  55.4914

          k = 0.0476-0.0476 0.0952 (  1036 PWs)   bands (ev):

     7.4553  10.1741  11.0201  11.0201  11.4621  11.4621  11.5180  12.3199
    12.6885  12.6885  12.8541  13.0518  13.1420  13.7839  13.8183  13.8810
    13.8810  14.1549  14.7208  14.7505  14.7505  15.4417  18.7141  18.7141
    22.9339  22.9340  26.7823  27.4115  27.4116  30.4533  30.4534  30.8797
    31.0555  32.7180  36.7432  37.7023  37.9517  38.8442  38.8444  42.3930
    43.6109  44.5128  47.0927  47.0928  47.9533  49.0552  50.2178  50.2180
    50.7320  52.9743  53.0660  55.8085

          k =-0.0952 0.0476 0.0476 (  1036 PWs)   bands (ev):

     7.4553  10.1741  11.0201  11.0201  11.4621  11.4621  11.5180  12.3199
    12.6885  12.6885  12.8541  13.0518  13.1420  13.7839  13.8182  13.8809
    13.8810  14.1549  14.7208  14.7505  14.7505  15.4417  18.7141  18.7141
    22.9340  22.9340  26.7821  27.4116  27.4116  30.4532  30.4533  30.8797
    31.0555  32.7182  36.7434  37.7024  37.9519  38.8443  38.8443  42.3929
    43.6108  44.5125  47.0929  47.0929  47.9532  49.0553  50.2179  50.2180
    50.7320  52.9744  53.0662  55.8087

          k = 0.0476-0.0476-0.1428 (  1034 PWs)   bands (ev):

     8.8974   8.8983  11.4480  11.4480  11.5156  11.5156  11.9279  11.9294
    12.3058  12.3059  12.8334  12.8351  13.4054  13.4059  13.6899  13.6900
    14.3063  14.3074  14.4701  14.4702  14.7028  14.7028  19.7934  19.7935
    21.4664  21.4665  28.3411  28.3412  28.6076  28.6080  29.0624  29.0625
    35.0294  35.0308  35.4077  35.4107  38.1949  38.1980  42.2091  42.2094
    44.8700  44.8718  45.3846  45.3847  49.4261  49.4283  50.8805  50.8813
    52.2487  52.2490  53.8994  53.8995

          k = 0.0952-0.0476 0.0952 (  1034 PWs)   bands (ev):

     8.3415  10.6223  10.6223  11.1342  11.6282  11.7692  11.7692  12.2960
    12.5022  12.5022  12.6272  12.9412  13.0908  13.5447  13.5447  13.5469
    13.9082  14.4693  14.6182  14.6182  14.6349  16.3801  16.3801  18.9135
    21.1641  24.1383  24.1383  28.1253  28.2004  31.2179  31.2179  32.2347
    32.2347  34.0936  35.2882  36.9567  39.3626  39.3626  40.0995  43.1783
    43.7531  44.7546  46.4833  46.4834  49.2768  49.2768  50.3763  50.6079
    50.9293  51.7219  52.3996  52.8812

          k =-0.0952 0.0476 0.0952 (  1034 PWs)   bands (ev):

     8.3416  10.6222  10.6222  11.1342  11.6283  11.7692  11.7692  12.2960
    12.5022  12.5022  12.6272  12.9412  13.0907  13.5447  13.5447  13.5469
    13.9082  14.4693  14.6182  14.6182  14.6349  16.3801  16.3801  18.9135
    21.1642  24.1381  24.1383  28.1253  28.2003  31.2178  31.2180  32.2347
    32.2348  34.0934  35.2884  36.9566  39.3627  39.3628  40.0994  43.1782
    43.7530  44.7545  46.4834  46.4835  49.2768  49.2768  50.3762  50.6077
    50.9295  51.7216  52.3998  52.8813

          k = 0.0952-0.0476-0.1428 (  1032 PWs)   bands (ev):

     9.5623   9.5630  10.9857  10.9860  11.8891  11.8893  12.1288  12.1300
    12.4823  12.4829  12.6697  12.6708  13.2199  13.2202  13.4013  13.4015
    14.2272  14.2278  14.5258  14.5263  15.0758  15.0760  17.6155  17.6163
    22.1362  22.1367  25.8827  25.8831  29.5558  29.5563  33.1172  33.1173
    33.3437  33.3442  36.9383  36.9417  40.1443  40.1450  40.4922  40.4928
    45.2060  45.2062  45.7021  45.7038  47.7110  47.7120  50.6407  50.6420
    51.7576  51.7583  54.0140  54.0173

          k = 0.0952-0.0952 0.0952 (  1009 PWs)   bands (ev):

     9.0067  10.5741  10.5742  10.5742  12.0851  12.0851  12.0851  12.5632
    12.7812  12.7812  12.7812  12.9083  12.9083  13.1818  13.1819  13.1819
    14.3490  14.3490  14.7609  14.7609  14.7609  16.6314  16.6314  16.6314
    21.7665  21.7666  21.7666  25.3947  32.5673  32.5673  32.5674  35.3282
    35.3283  35.3285  37.3091  37.3092  37.3093  37.6390  40.0633  40.0634
    44.4814  44.4815  47.8172  48.0418  48.0418  48.0420  48.1701  48.1702
    48.1704  52.5115  52.5117  52.5117

          k = 0.0952-0.0952-0.1428 (  1030 PWs)   bands (ev):

     9.8319   9.8322  10.5339  10.5339  12.2777  12.2778  12.5911  12.5919
    12.8386  12.8396  12.9421  12.9422  12.9846  12.9847  13.0492  13.0492
    14.6625  14.6626  14.6900  14.6901  14.8882  14.8884  16.8204  16.8205
    20.8360  20.8361  23.2755  23.2759  33.4438  33.4439  34.7366  34.7367
    36.2400  36.2415  37.3421  37.3428  39.0989  39.1012  39.4367  39.4369
    44.7066  44.7069  44.9062  44.9074  46.0526  46.0530  48.5387  48.5388
    49.6897  49.6902  53.1237  53.1238

     the Fermi energy is    14.5055 ev

!    total energy              =    -343.62982550 Ry
     Harris-Foulkes estimate   =    -343.62982550 Ry
     estimated scf accuracy    <          2.0E-12 Ry

     The total energy is the sum of the following terms:

     one-electron contribution =      -6.29132381 Ry
     hartree contribution      =      60.32102812 Ry
     xc contribution           =    -120.51615205 Ry
     ewald contribution        =    -277.09491275 Ry
     Dispersion Correction     =      -0.04788737 Ry
     smearing contrib. (-TS)   =      -0.00057764 Ry

     total magnetization       =     2.84 Bohr mag/cell
     absolute magnetization    =     3.25 Bohr mag/cell

     convergence has been achieved in  11 iterations

     Forces acting on atoms (Ry/au):

     atom    1 type  1   force =    -0.00010380   -0.00010380    0.00010365
     atom    2 type  1   force =     0.00010394    0.00010394    0.00010394
     atom    3 type  1   force =    -0.00010380    0.00010365   -0.00010380
     atom    4 type  1   force =     0.00010365   -0.00010380   -0.00010380

     Total force =     0.000360     Total SCF correction =     0.000002


     entering subroutine stress ...

          total   stress  (Ry/bohr**3)                   (kbar)     P=    0.79
   0.00000539  -0.00000004  -0.00000004          0.79     -0.01     -0.01
  -0.00000004   0.00000539  -0.00000004         -0.01      0.79     -0.01
  -0.00000004  -0.00000004   0.00000539         -0.01     -0.01      0.79


     number of scf cycles    =   4
     number of bfgs steps    =   3

     enthalpy old            =    -343.6297804383 Ry
     enthalpy new            =    -343.6298255049 Ry

     CASE: enthalpy_new < enthalpy_old

     new trust radius        =       0.0005337481 bohr
     new conv_thr            =            1.0E-10 Ry

     new unit-cell volume =    290.01877 a.u.^3 (    42.97635 Ang^3 )

CELL_PARAMETERS (alat=  1.88972590)
   3.502755997   0.000003704   0.000003704
   0.000003704   3.502755997   0.000003704
   0.000003704   0.000003704   3.502755997

ATOMIC_POSITIONS (alat)
Ni1      1.755275317   1.755275317   0.003884496
Ni1      0.003879655   0.003879655   0.003879655
Ni1      1.755275317   0.003884496   1.755275317
Ni1      0.003884496   1.755275317   1.755275317



     Writing output data file Ni-ferromag.save
     NEW-OLD atomic charge density approx. for the potential

     Check: negative/imaginary core charge=   -0.000005    0.000000
     extrapolated charge   40.01409, renormalised to   40.00000

     total cpu time spent up to now is     1106.1 secs

     Self-consistent Calculation

     iteration #  1     ecut=    35.00 Ry     beta=0.20
     Davidson diagonalization with overlap
     ethr =  1.00E-06,  avg # of iterations =  2.0

     total cpu time spent up to now is     1133.2 secs

     total energy              =    -343.62978103 Ry
     Harris-Foulkes estimate   =    -343.61502345 Ry
     estimated scf accuracy    <       0.00006362 Ry

     total magnetization       =     2.84 Bohr mag/cell
     absolute magnetization    =     3.26 Bohr mag/cell

     iteration #  2     ecut=    35.00 Ry     beta=0.20
     Davidson diagonalization with overlap
     ethr =  1.59E-07,  avg # of iterations =  1.5

     total cpu time spent up to now is     1151.5 secs

     total energy              =    -343.62982173 Ry
     Harris-Foulkes estimate   =    -343.62982662 Ry
     estimated scf accuracy    <       0.00002532 Ry

     total magnetization       =     2.83 Bohr mag/cell
     absolute magnetization    =     3.25 Bohr mag/cell

     iteration #  3     ecut=    35.00 Ry     beta=0.20
     Davidson diagonalization with overlap
     ethr =  6.33E-08,  avg # of iterations =  1.0

     total cpu time spent up to now is     1169.3 secs

     total energy              =    -343.62981711 Ry
     Harris-Foulkes estimate   =    -343.62982257 Ry
     estimated scf accuracy    <       0.00000872 Ry

     total magnetization       =     2.83 Bohr mag/cell
     absolute magnetization    =     3.25 Bohr mag/cell

     iteration #  4     ecut=    35.00 Ry     beta=0.20
     Davidson diagonalization with overlap
     ethr =  2.18E-08,  avg # of iterations =  1.1

     total cpu time spent up to now is     1187.2 secs

     total energy              =    -343.62982154 Ry
     Harris-Foulkes estimate   =    -343.62982141 Ry
     estimated scf accuracy    <       0.00000406 Ry

     total magnetization       =     2.84 Bohr mag/cell
     absolute magnetization    =     3.25 Bohr mag/cell

     iteration #  5     ecut=    35.00 Ry     beta=0.20
     Davidson diagonalization with overlap
     ethr =  1.01E-08,  avg # of iterations =  1.0

     total cpu time spent up to now is     1205.0 secs

     total energy              =    -343.62982125 Ry
     Harris-Foulkes estimate   =    -343.62982155 Ry
     estimated scf accuracy    <       0.00000463 Ry

     total magnetization       =     2.84 Bohr mag/cell
     absolute magnetization    =     3.25 Bohr mag/cell

     iteration #  6     ecut=    35.00 Ry     beta=0.20
     Davidson diagonalization with overlap
     ethr =  1.01E-08,  avg # of iterations =  1.0

     total cpu time spent up to now is     1222.8 secs

     total energy              =    -343.62982012 Ry
     Harris-Foulkes estimate   =    -343.62982126 Ry
     estimated scf accuracy    <       0.00000346 Ry

     total magnetization       =     2.84 Bohr mag/cell
     absolute magnetization    =     3.25 Bohr mag/cell

     iteration #  7     ecut=    35.00 Ry     beta=0.20
     Davidson diagonalization with overlap
     ethr =  8.66E-09,  avg # of iterations =  1.0

     total cpu time spent up to now is     1240.6 secs

     total energy              =    -343.62982044 Ry
     Harris-Foulkes estimate   =    -343.62982046 Ry
     estimated scf accuracy    <       0.00000022 Ry

     total magnetization       =     2.84 Bohr mag/cell
     absolute magnetization    =     3.25 Bohr mag/cell

     iteration #  8     ecut=    35.00 Ry     beta=0.20
     Davidson diagonalization with overlap
     ethr =  5.50E-10,  avg # of iterations =  1.0

     total cpu time spent up to now is     1258.4 secs

     total energy              =    -343.62982043 Ry
     Harris-Foulkes estimate   =    -343.62982044 Ry
     estimated scf accuracy    <       0.00000015 Ry

     total magnetization       =     2.84 Bohr mag/cell
     absolute magnetization    =     3.25 Bohr mag/cell

     iteration #  9     ecut=    35.00 Ry     beta=0.20
     Davidson diagonalization with overlap
     ethr =  3.82E-10,  avg # of iterations =  1.0

     total cpu time spent up to now is     1276.1 secs

     total energy              =    -343.62982042 Ry
     Harris-Foulkes estimate   =    -343.62982043 Ry
     estimated scf accuracy    <       0.00000010 Ry

     total magnetization       =     2.84 Bohr mag/cell
     absolute magnetization    =     3.25 Bohr mag/cell

     iteration # 10     ecut=    35.00 Ry     beta=0.20
     Davidson diagonalization with overlap
     ethr =  2.60E-10,  avg # of iterations =  1.0

     total cpu time spent up to now is     1294.0 secs

     total energy              =    -343.62982040 Ry
     Harris-Foulkes estimate   =    -343.62982042 Ry
     estimated scf accuracy    <       0.00000005 Ry

     total magnetization       =     2.84 Bohr mag/cell
     absolute magnetization    =     3.25 Bohr mag/cell

     iteration # 11     ecut=    35.00 Ry     beta=0.20
     Davidson diagonalization with overlap
     ethr =  1.15E-10,  avg # of iterations =  1.0

     Magnetic moment per site:
     atom:    1    charge:    3.0039    magn:    0.3348    constr:    0.0000
     atom:    2    charge:    3.0021    magn:    0.3346    constr:    0.0000
     atom:    3    charge:    3.0039    magn:    0.3348    constr:    0.0000
     atom:    4    charge:    3.0039    magn:    0.3348    constr:    0.0000

     total cpu time spent up to now is     1311.7 secs

     End of self-consistent calculation

 ------ SPIN UP ------------


          k = 0.0000 0.0000 0.0000 (  1021 PWs)   bands (ev):

     5.4341   9.7188   9.7188   9.7188  10.1723  10.1723  10.1723  11.9520
    11.9520  11.9520  13.1312  13.1312  13.8493  13.8493  13.8493  13.9394
    13.9394  13.9394  13.9394  13.9394  13.9394  17.0773  17.0773  17.0773
    23.8189  23.8190  23.8190  29.5762  29.5762  29.5762  29.5763  29.5763
    29.5763  34.6581  34.6581  34.6581  38.0036  38.0038  38.0038  38.5034
    42.4823  42.4825  42.4825  46.0858  46.0859  46.0859  48.1853  55.1835
    55.1836  55.1836  57.6731  59.1078

          k =-0.0000-0.0000 0.0476 (  1021 PWs)   bands (ev):

     5.8004   9.7410   9.9030   9.9031  10.2828  10.2987  10.2987  11.8232
    12.0544  12.0544  13.0133  13.1780  13.2850  13.2850  13.6958  13.6958
    13.7633  13.7633  13.7998  13.9397  13.9397  15.4765  18.0364  18.0364
    23.9147  23.9148  26.0688  27.8247  27.8247  28.4530  28.4531  30.1367
    30.1368  34.7741  36.8308  36.8308  37.8688  38.1357  39.9611  39.9612
    40.2615  40.2616  40.9267  47.5049  48.1404  48.1404  49.1630  51.5725
    56.2807  56.2807  56.6872  56.6872

          k =-0.0000-0.0000 0.0952 (  1032 PWs)   bands (ev):

     6.8499   9.5116  10.3402  10.3402  10.5906  10.6820  10.6820  11.4790
    12.2287  12.2287  12.3511  12.3512  12.7253  13.3066  13.3121  13.3172
    13.3172  13.3244  13.3244  13.6656  13.9402  13.9402  19.9996  19.9996
    24.2317  24.2318  25.0507  25.0507  26.6853  26.6853  30.3689  31.7168
    31.7169  35.1378  36.7378  37.0403  37.0404  38.3589  38.6876  40.8748
    40.8748  44.1259  44.1259  44.1594  50.9397  51.0593  51.0594  51.0630
    51.0630  55.0502  55.9688  55.9689

          k = 0.0000 0.0000-0.1427 (  1044 PWs)   bands (ev):

     8.3496   8.3496  10.6163  10.6163  11.0257  11.0257  11.3288  11.3288
    11.3288  11.3288  12.5480  12.5481  12.8034  12.8034  12.8035  12.8035
    13.0685  13.0685  13.4847  13.4847  13.9405  13.9405  22.3857  22.3857
    22.3858  22.3858  24.6043  24.6043  25.7402  25.7403  34.0955  34.0956
    34.0956  34.0957  34.9187  34.9189  35.7843  35.7843  40.2818  40.2820
    45.6757  45.6757  45.6760  45.6760  47.6314  47.6315  52.3105  52.3106
    54.1875  54.1876  54.1877  54.1878

          k =-0.0000 0.0476 0.0476 (  1027 PWs)   bands (ev):

     6.1580   9.9394   9.9394  10.0663  10.4002  10.4002  10.4141  11.7632
    12.0994  12.1164  12.9388  12.9887  12.9971  12.9971  13.1732  13.5671
    13.6917  13.6917  13.7621  13.7621  13.8235  16.4091  16.4091  18.8065
    23.9085  25.1074  26.2559  26.2559  28.3027  28.3027  28.9455  28.9455
    30.6647  36.0470  36.1290  37.0390  37.0390  37.3430  40.1288  40.1289
    41.2808  42.6168  43.5421  45.2433  46.3784  49.8030  50.4676  53.1126
    53.6840  55.3648  55.3648  56.3176

          k =-0.0000 0.0476 0.0952 (  1029 PWs)   bands (ev):

     7.1799   9.7478  10.4216  10.4701  10.6821  10.7352  10.7545  11.4821
    11.9900  12.1298  12.2453  12.3628  12.3881  12.8215  13.2431  13.3218
    13.3286  13.3523  13.5047  13.7588  13.7648  14.4423  18.0239  20.5898
    22.0882  24.6174  25.5124  26.5420  27.4106  29.6165  29.9116  29.9645
    31.0253  33.7343  34.4771  37.6909  38.6435  40.4005  40.5796  40.7606
    41.1307  44.0529  45.0466  47.0719  47.7974  48.6016  49.9075  51.3478
    52.9540  53.2734  54.8420  56.2333

          k = 0.0000 0.0476-0.1427 (  1044 PWs)   bands (ev):

     8.6311   8.6311  10.7689  10.7690  11.0774  11.0775  11.1964  11.1964
    11.3433  11.3433  12.1744  12.1745  12.8042  12.8043  13.0337  13.0337
    13.0535  13.0535  13.6682  13.6682  13.7563  13.7563  19.8928  19.8928
    22.8851  22.8852  25.4208  25.4209  28.3187  28.3187  31.5068  31.5069
    32.0300  32.0301  35.8392  35.8394  38.8393  38.8394  42.2258  42.2260
    43.1261  43.1263  45.9519  45.9521  50.0966  50.0968  50.3676  50.3677
    52.6261  52.6263  53.2243  53.2244

          k =-0.0000 0.0952 0.0952 (  1045 PWs)   bands (ev):

     8.1066  10.3354  10.3355  10.7017  10.9503  10.9503  10.9639  11.4121
    11.6593  11.6593  11.8140  12.1325  12.4937  12.7354  13.0271  13.1823
    13.1823  13.3225  13.3225  13.4926  13.7079  15.6886  15.6886  19.3072
    22.1169  25.1682  26.7856  26.7856  27.9051  27.9052  30.9945  31.6508
    31.6508  31.7461  33.6142  36.8494  41.5377  41.8920  41.8920  43.0879
    43.4222  43.7835  43.7836  47.2028  47.3442  48.4897  48.4897  51.6901
    52.1916  52.2033  53.2227  55.3639

          k = 0.0000 0.0952-0.1427 (  1034 PWs)   bands (ev):

     9.3738   9.3739  10.8065  10.8065  11.2046  11.2047  11.2121  11.2121
    11.3620  11.3620  11.8685  11.8685  12.8409  12.8409  12.8417  12.8418
    12.9077  12.9078  13.3574  13.3575  14.3696  14.3696  17.2202  17.2202
    24.2417  24.2418  26.2361  26.2361  28.6617  28.6618  29.5473  29.5473
    32.9596  32.9597  36.8017  36.8019  40.3759  40.3760  43.0611  43.0611
    43.2284  43.2285  46.7527  46.7529  47.9388  47.9390  50.4411  50.4412
    51.7795  51.7797  53.5765  53.5766

          k = 0.0000-0.1427-0.1427 (  1024 PWs)   bands (ev):

    10.2272  10.2272  10.2273  10.2273  11.3239  11.3240  11.3240  11.3240
    11.6331  11.6331  11.6332  11.6332  12.6948  12.6948  12.6948  12.6948
    13.0089  13.0090  13.0090  13.0090  15.4401  15.4401  15.4401  15.4401
    26.2166  26.2167  26.2167  26.2167  27.5879  27.5879  27.5880  27.5880
    37.9047  37.9047  37.9048  37.9048  38.5103  38.5103  38.5104  38.5105
    47.1896  47.1896  47.1896  47.1896  49.2046  49.2047  49.2048  49.2048
    51.8341  51.8341  51.8342  51.8343

          k = 0.0476 0.0476 0.0476 (  1021 PWs)   bands (ev):

     6.5039  10.1004  10.1004  10.1004  10.5148  10.5148  10.5148  11.7283
    12.1361  12.1361  12.6930  12.6930  12.6930  13.0864  13.0864  13.3336
    13.3336  13.3336  13.8777  13.8777  13.8777  17.0365  17.0365  17.0365
    25.3338  25.3339  25.3339  26.6011  26.6012  26.6012  31.1803  31.1803
    31.1803  33.4928  36.1786  36.1786  36.1786  39.2615  41.1499  41.1499
    42.8242  42.8242  42.8242  46.6037  47.6607  47.6607  51.6599  51.6599
    55.1386  55.2423  55.2424  55.2424

          k = 0.0476 0.0476 0.0952 (  1036 PWs)   bands (ev):

     7.4856   9.9065  10.4836  10.4836  10.8005  10.8286  10.8286  11.5187
    11.9804  11.9804  12.1758  12.2153  12.2756  12.9313  13.0019  13.0877
    13.0877  13.3260  13.7804  13.7804  13.8127  14.8042  18.3791  18.3791
    22.7145  22.7145  26.6280  27.2522  27.2522  30.3676  30.3676  30.7547
    30.9573  32.6604  36.6568  37.7860  37.8621  38.8019  38.8019  42.3726
    43.5161  44.4815  47.0339  47.0339  47.8965  49.0959  50.2146  50.2146
    50.7102  53.0306  53.0913  55.6756

          k = 0.0476 0.0476-0.1427 (  1034 PWs)   bands (ev):

     8.8582   8.8582  10.8710  10.8710  10.9289  10.9289  11.1724  11.1724
    11.5863  11.5863  12.0787  12.0787  12.5489  12.5489  12.9199  12.9199
    13.4955  13.4956  13.6022  13.6022  13.7243  13.7243  19.5279  19.5279
    21.1533  21.1533  28.2163  28.2164  28.4554  28.4555  28.9366  28.9366
    34.9490  34.9491  35.4254  35.4256  38.1065  38.1066  42.2153  42.2153
    44.7690  44.7692  45.3823  45.3823  49.4929  49.4931  50.9126  50.9126
    52.1994  52.1995  53.7039  53.7040

          k = 0.0476 0.0952 0.0952 (  1034 PWs)   bands (ev):

     8.3246  10.2244  10.2244  10.5107  11.1160  11.1621  11.1621  11.5637
    11.7764  11.7764  11.9097  12.1345  12.2605  12.7391  12.7391  12.7555
    13.0584  13.6136  13.6830  13.6982  13.6982  15.8193  15.8193  18.6308
    20.8111  23.9116  23.9116  27.9530  28.0621  31.1438  31.1438  32.1305
    32.1306  34.0272  35.2517  36.9198  39.3357  39.3357  40.1642  43.0502
    43.7485  44.7960  46.4755  46.4755  49.2068  49.2068  50.4305  50.6096
    50.9385  51.6330  52.3185  52.9397

          k = 0.0476 0.0952-0.1427 (  1032 PWs)   bands (ev):

     9.4081   9.4081  10.4458  10.4458  11.3296  11.3296  11.4778  11.4779
    11.7833  11.7833  11.9041  11.9042  12.4099  12.4099  12.6207  12.6208
    13.3557  13.3557  13.5835  13.5835  14.2758  14.2759  17.1970  17.1971
    21.8269  21.8270  25.6728  25.6729  29.4449  29.4450  33.0496  33.0497
    33.2634  33.2635  36.9152  36.9154  40.1482  40.1482  40.4572  40.4573
    45.2055  45.2056  45.6976  45.6977  47.7164  47.7165  50.5877  50.5879
    51.8040  51.8040  53.9221  53.9223

          k = 0.0476-0.1427-0.1427 (  1032 PWs)   bands (ev):

     9.9776   9.9777   9.9777   9.9777  11.7210  11.7210  11.7210  11.7210
    11.8079  11.8080  11.8080  11.8080  12.3813  12.3813  12.3814  12.3814
    13.3383  13.3383  13.3383  13.3383  15.3509  15.3509  15.3509  15.3509
    23.4610  23.4610  23.4610  23.4611  30.9828  30.9829  30.9829  30.9829
    38.1850  38.1851  38.1851  38.1852  38.3535  38.3536  38.3537  38.3537
    46.6677  46.6677  46.6678  46.6678  46.7719  46.7719  46.7720  46.7720
    54.8263  54.8263  54.8264  54.8265

          k = 0.0952 0.0952 0.0952 (  1009 PWs)   bands (ev):

     8.8686  10.0594  10.0594  10.0595  11.5208  11.5208  11.5208  12.0347
    12.0958  12.0958  12.0958  12.1014  12.1014  12.3848  12.3848  12.3848
    13.4614  13.4614  13.8265  13.8265  13.8265  16.1974  16.1974  16.1974
    21.4186  21.4186  21.4186  25.1593  32.5101  32.5101  32.5101  35.2549
    35.2550  35.2550  37.2847  37.2848  37.2848  37.8002  39.9640  39.9640
    44.4588  44.4588  47.7877  48.0796  48.0797  48.0797  48.1546  48.1546
    48.1546  52.4643  52.4643  52.4643

          k = 0.0952 0.0952-0.1427 (  1030 PWs)   bands (ev):

     9.4948   9.4948   9.9909   9.9909  11.6407  11.6407  11.9273  11.9274
    12.1441  12.1442  12.2646  12.2646  12.2789  12.2789  12.3790  12.3790
    13.7469  13.7469  13.7548  13.7548  14.1656  14.1656  16.4814  16.4814
    20.3897  20.3898  22.9765  22.9766  33.4255  33.4256  34.6384  34.6384
    36.3394  36.3395  37.2576  37.2577  39.0066  39.0067  39.4501  39.4502
    44.6666  44.6666  44.9163  44.9164  46.0306  46.0307  48.5648  48.5649
    49.6212  49.6213  52.9987  52.9987

          k = 0.0952-0.1427-0.1427 (  1032 PWs)   bands (ev):

     9.6705   9.6705   9.6705   9.6705  11.8868  11.8868  11.8868  11.8868
    12.0766  12.0766  12.0767  12.0767  12.8260  12.8261  12.8261  12.8261
    13.6749  13.6749  13.6749  13.6749  14.9737  14.9738  14.9738  14.9738
    21.1031  21.1032  21.1032  21.1032  35.1649  35.1650  35.1650  35.1651
    38.2294  38.2294  38.2295  38.2295  38.9518  38.9518  38.9519  38.9519
    44.1082  44.1082  44.1082  44.1083  45.1708  45.1708  45.1709  45.1709
    50.4376  50.4376  50.4376  50.4377

          k =-0.1427-0.1427-0.1427 (  1064 PWs)   bands (ev):

     9.5545   9.5545   9.5545   9.5545  11.9650  11.9650  11.9650  11.9651
    11.9651  11.9651  11.9651  11.9651  13.8024  13.8024  13.8024  13.8024
    13.8024  13.8024  13.8024  13.8024  14.2975  14.2976  14.2976  14.2976
    20.2221  20.2221  20.2221  20.2221  36.9584  36.9586  36.9586  36.9586
    39.5879  39.5879  39.5880  39.5880  39.5880  39.5880  39.5881  39.5881
    42.8163  42.8163  42.8163  42.8163  42.8163  42.8164  42.8164  42.8164
    48.7905  48.7905  48.7905  48.7906

          k =-0.0476-0.0000 0.0476 (  1027 PWs)   bands (ev):

     6.1580   9.9394   9.9394  10.0663  10.4002  10.4002  10.4141  11.7632
    12.0994  12.1165  12.9388  12.9887  12.9971  12.9971  13.1732  13.5671
    13.6917  13.6917  13.7621  13.7621  13.8235  16.4091  16.4091  18.8065
    23.9085  25.1075  26.2559  26.2559  28.3026  28.3027  28.9455  28.9455
    30.6646  36.0469  36.1290  37.0390  37.0390  37.3431  40.1289  40.1289
    41.2807  42.6169  43.5420  45.2433  46.3783  49.8029  50.4677  53.1126
    53.6841  55.3649  55.3649  56.3176

          k =-0.0476-0.0000 0.0952 (  1029 PWs)   bands (ev):

     7.1799   9.7478  10.4216  10.4701  10.6821  10.7353  10.7545  11.4821
    11.9900  12.1298  12.2453  12.3628  12.3881  12.8215  13.2431  13.3218
    13.3286  13.3523  13.5047  13.7588  13.7648  14.4423  18.0239  20.5898
    22.0883  24.6174  25.5124  26.5420  27.4106  29.6165  29.9116  29.9644
    31.0253  33.7344  34.4772  37.6909  38.6434  40.4004  40.5795  40.7607
    41.1307  44.0529  45.0465  47.0720  47.7973  48.6015  49.9075  51.3478
    52.9541  53.2734  54.8419  56.2333

          k =-0.0952-0.0000 0.0952 (  1045 PWs)   bands (ev):

     8.1066  10.3354  10.3354  10.7017  10.9503  10.9503  10.9639  11.4121
    11.6593  11.6593  11.8140  12.1325  12.4937  12.7353  13.0271  13.1823
    13.1823  13.3225  13.3225  13.4926  13.7079  15.6886  15.6886  19.3073
    22.1169  25.1682  26.7856  26.7856  27.9051  27.9051  30.9945  31.6508
    31.6508  31.7461  33.6141  36.8493  41.5377  41.8920  41.8920  43.0878
    43.4221  43.7836  43.7837  47.2027  47.3441  48.4898  48.4898  51.6902
    52.1916  52.2033  53.2226  55.3640

          k = 0.0476-0.0476 0.0476 (  1021 PWs)   bands (ev):

     6.5039  10.1004  10.1004  10.1004  10.5148  10.5148  10.5148  11.7283
    12.1361  12.1361  12.6930  12.6930  12.6930  13.0864  13.0864  13.3336
    13.3336  13.3336  13.8777  13.8777  13.8777  17.0365  17.0365  17.0365
    25.3338  25.3339  25.3339  26.6012  26.6012  26.6012  31.1802  31.1802
    31.1803  33.4929  36.1785  36.1785  36.1786  39.2614  41.1498  41.1499
    42.8242  42.8243  42.8244  46.6037  47.6606  47.6607  51.6598  51.6599
    55.1386  55.2423  55.2424  55.2424

          k = 0.0476-0.0476 0.0952 (  1036 PWs)   bands (ev):

     7.4856   9.9065  10.4836  10.4836  10.8005  10.8286  10.8286  11.5187
    11.9804  11.9804  12.1758  12.2154  12.2756  12.9313  13.0019  13.0876
    13.0877  13.3260  13.7804  13.7804  13.8127  14.8042  18.3791  18.3791
    22.7144  22.7145  26.6281  27.2522  27.2523  30.3676  30.3676  30.7548
    30.9574  32.6603  36.6568  37.7859  37.8620  38.8018  38.8019  42.3726
    43.5163  44.4815  47.0339  47.0340  47.8964  49.0959  50.2146  50.2146
    50.7101  53.0307  53.0912  55.6755

          k =-0.0952 0.0476 0.0476 (  1036 PWs)   bands (ev):

     7.4856   9.9065  10.4836  10.4836  10.8005  10.8286  10.8286  11.5187
    11.9804  11.9804  12.1758  12.2153  12.2756  12.9313  13.0019  13.0876
    13.0876  13.3260  13.7804  13.7804  13.8127  14.8042  18.3791  18.3791
    22.7145  22.7145  26.6280  27.2522  27.2523  30.3675  30.3675  30.7548
    30.9574  32.6604  36.6568  37.7860  37.8621  38.8018  38.8018  42.3725
    43.5162  44.4814  47.0340  47.0340  47.8964  49.0959  50.2146  50.2146
    50.7101  53.0308  53.0913  55.6756

          k = 0.0476-0.0476-0.1427 (  1034 PWs)   bands (ev):

     8.8582   8.8582  10.8710  10.8710  10.9289  10.9289  11.1724  11.1724
    11.5863  11.5863  12.0787  12.0787  12.5489  12.5489  12.9199  12.9199
    13.4955  13.4956  13.6022  13.6022  13.7243  13.7243  19.5279  19.5279
    21.1533  21.1533  28.2163  28.2164  28.4555  28.4555  28.9366  28.9366
    34.9489  34.9490  35.4254  35.4255  38.1064  38.1066  42.2153  42.2154
    44.7691  44.7692  45.3822  45.3823  49.4930  49.4931  50.9125  50.9126
    52.1994  52.1995  53.7039  53.7040

          k = 0.0952-0.0476 0.0952 (  1034 PWs)   bands (ev):

     8.3246  10.2244  10.2244  10.5107  11.1160  11.1621  11.1621  11.5638
    11.7764  11.7764  11.9097  12.1345  12.2605  12.7390  12.7390  12.7555
    13.0584  13.6136  13.6830  13.6982  13.6982  15.8193  15.8193  18.6308
    20.8111  23.9116  23.9116  27.9531  28.0622  31.1437  31.1438  32.1306
    32.1306  34.0272  35.2516  36.9198  39.3356  39.3356  40.1641  43.0502
    43.7484  44.7960  46.4755  46.4755  49.2069  49.2069  50.4306  50.6097
    50.9384  51.6331  52.3186  52.9398

          k =-0.0952 0.0476 0.0952 (  1034 PWs)   bands (ev):

     8.3246  10.2244  10.2244  10.5107  11.1161  11.1621  11.1621  11.5638
    11.7764  11.7764  11.9097  12.1346  12.2605  12.7391  12.7391  12.7555
    13.0584  13.6136  13.6830  13.6982  13.6982  15.8192  15.8193  18.6308
    20.8111  23.9116  23.9116  27.9531  28.0622  31.1437  31.1438  32.1306
    32.1306  34.0271  35.2517  36.9197  39.3357  39.3357  40.1641  43.0502
    43.7484  44.7960  46.4756  46.4756  49.2069  49.2069  50.4306  50.6096
    50.9384  51.6330  52.3187  52.9398

          k = 0.0952-0.0476-0.1427 (  1032 PWs)   bands (ev):

     9.4081   9.4081  10.4458  10.4458  11.3296  11.3296  11.4778  11.4779
    11.7833  11.7833  11.9041  11.9042  12.4099  12.4099  12.6207  12.6207
    13.3557  13.3557  13.5834  13.5835  14.2758  14.2759  17.1970  17.1971
    21.8269  21.8270  25.6729  25.6729  29.4449  29.4450  33.0495  33.0496
    33.2634  33.2635  36.9152  36.9154  40.1481  40.1483  40.4571  40.4572
    45.2055  45.2055  45.6976  45.6977  47.7165  47.7165  50.5878  50.5879
    51.8041  51.8041  53.9222  53.9223

          k = 0.0952-0.0952 0.0952 (  1009 PWs)   bands (ev):

     8.8686  10.0594  10.0595  10.0595  11.5208  11.5208  11.5208  12.0347
    12.0958  12.0958  12.0958  12.1014  12.1014  12.3847  12.3848  12.3848
    13.4614  13.4614  13.8265  13.8265  13.8265  16.1973  16.1974  16.1974
    21.4186  21.4186  21.4187  25.1594  32.5101  32.5102  32.5102  35.2549
    35.2549  35.2550  37.2847  37.2847  37.2848  37.8001  39.9639  39.9640
    44.4587  44.4588  47.7877  48.0797  48.0797  48.0798  48.1546  48.1546
    48.1547  52.4644  52.4645  52.4645

          k = 0.0952-0.0952-0.1427 (  1030 PWs)   bands (ev):

     9.4948   9.4948   9.9909   9.9909  11.6407  11.6407  11.9273  11.9274
    12.1441  12.1441  12.2646  12.2646  12.2789  12.2789  12.3790  12.3790
    13.7469  13.7469  13.7548  13.7548  14.1656  14.1656  16.4814  16.4814
    20.3897  20.3898  22.9766  22.9766  33.4255  33.4256  34.6384  34.6385
    36.3394  36.3395  37.2576  37.2576  39.0066  39.0067  39.4501  39.4502
    44.6665  44.6667  44.9163  44.9164  46.0306  46.0306  48.5649  48.5650
    49.6212  49.6213  52.9988  52.9988

 ------ SPIN DOWN ----------


          k = 0.0000 0.0000 0.0000 (  1021 PWs)   bands (ev):

     5.3795  10.1809  10.1809  10.1809  10.8906  10.8906  10.8906  12.8325
    12.8325  12.8325  13.9115  13.9115  14.6636  14.6636  14.6636  14.9489
    14.9489  14.9489  14.9489  14.9489  14.9489  16.9985  16.9985  16.9985
    24.1247  24.1247  24.1247  29.5625  29.5625  29.5626  29.5626  29.5627
    29.5627  34.8221  34.8221  34.8221  38.1474  38.1476  38.1476  38.2976
    42.4529  42.4530  42.4530  46.1581  46.1582  46.1582  48.0258  55.3726
    55.3727  55.3727  58.2047  59.6366

          k =-0.0000-0.0000 0.0476 (  1021 PWs)   bands (ev):

     5.7457  10.1566  10.3751  10.3752  11.0099  11.0144  11.0144  12.6904
    12.9389  12.9390  13.7839  13.9604  14.1050  14.1050  14.4965  14.4965
    14.6117  14.7562  14.7562  14.9492  14.9492  15.5466  18.1434  18.1434
    24.2054  24.2054  26.2707  27.8933  27.8933  28.4804  28.4805  30.1394
    30.1395  34.9255  36.9116  36.9116  37.7298  38.2770  40.0819  40.0820
    40.3033  40.3034  40.8567  47.5253  48.1140  48.1141  49.2346  51.5636
    56.4920  56.4921  56.6137  56.6137

          k =-0.0000-0.0000 0.0952 (  1032 PWs)   bands (ev):

     6.7996   9.7198  10.8367  10.8368  11.3432  11.3923  11.3923  12.3119
    12.9580  12.9580  13.2488  13.2488  13.4630  13.6827  14.0844  14.0844
    14.0949  14.2810  14.2810  14.4709  14.9498  14.9498  20.1848  20.1848
    24.4780  24.4780  25.1915  25.1915  26.7836  26.7836  30.4645  31.7537
    31.7539  35.2514  36.7027  37.1118  37.1119  38.2684  38.8340  40.8801
    40.8801  44.2255  44.2256  44.3779  50.8953  50.9642  50.9643  50.9894
    50.9894  54.9455  56.2111  56.2111

          k = 0.0000 0.0000-0.1427 (  1044 PWs)   bands (ev):

     8.3431   8.3431  11.1285  11.1285  11.8163  11.8163  12.0380  12.0380
    12.0381  12.0381  13.1960  13.1961  13.7252  13.7252  13.7253  13.7253
    13.8146  13.8147  14.2814  14.2814  14.9501  14.9501  22.5674  22.5674
    22.5675  22.5675  24.8010  24.8010  25.8977  25.8978  34.1606  34.1607
    34.1607  34.1608  34.8987  34.8990  35.8354  35.8354  40.4742  40.4745
    45.6312  45.6312  45.6314  45.6314  47.7055  47.7056  52.5007  52.5007
    54.0770  54.0771  54.0772  54.0773

          k =-0.0000 0.0476 0.0476 (  1027 PWs)   bands (ev):

     6.1044  10.3676  10.3676  10.5572  11.1138  11.1243  11.1243  12.6167
    12.9894  12.9938  13.7038  13.7452  13.7452  13.7574  13.9605  14.3580
    14.4841  14.4841  14.7550  14.7550  14.8257  16.7238  16.7238  18.9723
    24.1672  25.2372  26.4446  26.4447  28.3856  28.3857  28.9866  28.9866
    30.6758  36.1204  36.1509  37.1094  37.1095  37.3605  40.2469  40.2470
    41.1999  42.7043  43.5110  45.1869  46.4389  49.9618  50.3930  53.2837
    53.6515  55.3265  55.3265  56.2578

          k =-0.0000 0.0476 0.0952 (  1029 PWs)   bands (ev):

     7.1343   9.9704  10.8840  11.0022  11.3973  11.4300  11.4715  12.3041
    12.6814  12.8506  13.0444  13.0847  13.2650  13.5861  14.0083  14.0939
    14.1639  14.2501  14.2794  14.7521  14.7613  15.1516  18.3627  20.7940
    22.2868  24.8454  25.6640  26.6768  27.5360  29.7250  29.9733  30.0351
    31.1228  33.8123  34.5196  37.7327  38.6814  40.3518  40.5270  40.8807
    41.1301  44.1352  45.2513  47.1385  47.7197  48.5840  49.8915  51.2729
    52.9095  53.1826  55.0622  56.4872

          k = 0.0000 0.0476-0.1427 (  1044 PWs)   bands (ev):

     8.6367   8.6367  11.2722  11.2722  11.8607  11.8608  11.8732  11.8732
    12.0552  12.0553  12.9155  12.9156  13.7287  13.7287  13.8034  13.8035
    13.8037  13.8038  14.5069  14.5070  14.7506  14.7506  20.1743  20.1744
    23.0783  23.0784  25.5924  25.5925  28.4357  28.4358  31.6208  31.6209
    32.0879  32.0879  35.8643  35.8646  38.8405  38.8405  42.3788  42.3790
    43.1191  43.1193  45.9038  45.9040  50.1621  50.1623  50.2999  50.3000
    52.5424  52.5425  53.3932  53.3933

          k =-0.0000 0.0952 0.0952 (  1045 PWs)   bands (ev):

     8.0844  10.6087  10.6087  11.3660  11.4481  11.6861  11.6861  12.2061
    12.3526  12.3526  12.5263  12.9238  13.4092  13.4825  13.7808  13.9198
    13.9198  14.2835  14.2835  14.4735  14.5504  16.2940  16.2940  19.6149
    22.3362  25.3666  26.9524  26.9525  28.0063  28.0064  31.1254  31.7396
    31.7396  31.8135  33.6668  36.8850  41.4742  41.8737  41.8737  43.1224
    43.3046  43.8260  43.8261  47.3242  47.3734  48.5347  48.5347  51.7497
    52.0799  52.1463  53.4269  55.2665

          k = 0.0000 0.0952-0.1427 (  1034 PWs)   bands (ev):

     9.4352   9.4352  11.2261  11.2261  11.8522  11.8523  11.9676  11.9677
    12.0826  12.0827  12.6055  12.6055  13.5754  13.5754  13.6492  13.6493
    13.7755  13.7755  14.3261  14.3261  15.1758  15.1758  17.6844  17.6845
    24.4468  24.4469  26.3879  26.3880  28.8239  28.8240  29.6374  29.6375
    33.0314  33.0315  36.8294  36.8296  40.3747  40.3748  43.0067  43.0068
    43.2468  43.2469  46.6908  46.6910  48.0212  48.0213  50.3883  50.3884
    51.9006  51.9008  53.4910  53.4911

          k = 0.0000-0.1427-0.1427 (  1024 PWs)   bands (ev):

    10.4466  10.4466  10.4466  10.4467  12.0619  12.0620  12.0620  12.0620
    12.3025  12.3025  12.3025  12.3025  13.4326  13.4326  13.4326  13.4327
    13.9582  13.9582  13.9582  13.9583  16.1221  16.1221  16.1221  16.1221
    26.4117  26.4117  26.4117  26.4118  27.7114  27.7115  27.7116  27.7116
    37.9789  37.9789  37.9790  37.9790  38.4762  38.4763  38.4764  38.4765
    47.0694  47.0695  47.0695  47.0696  49.1937  49.1938  49.1939  49.1940
    51.9353  51.9353  51.9354  51.9354

          k = 0.0476 0.0476 0.0476 (  1021 PWs)   bands (ev):

     6.4531  10.5555  10.5556  10.5556  11.2155  11.2155  11.2155  12.5618
    13.0144  13.0144  13.4037  13.4037  13.4037  13.8728  13.8728  14.1649
    14.1649  14.1649  14.8262  14.8262  14.8262  17.3776  17.3776  17.3776
    25.4654  25.4654  25.4654  26.7745  26.7745  26.7745  31.2022  31.2023
    31.2023  33.5592  36.2734  36.2735  36.2735  39.1059  41.2024  41.2024
    42.9084  42.9085  42.9085  46.5163  47.6178  47.6178  51.8267  51.8267
    55.1955  55.1956  55.1956  55.4783

          k = 0.0476 0.0476 0.0952 (  1036 PWs)   bands (ev):

     7.4505  10.1691  11.0152  11.0152  11.4570  11.4570  11.5129  12.3144
    12.6828  12.6828  12.8483  13.0460  13.1361  13.7777  13.8120  13.8747
    13.8747  14.1485  14.7141  14.7438  14.7438  15.4346  18.7061  18.7061
    22.9247  22.9248  26.7722  27.4013  27.4013  30.4426  30.4426  30.8688
    31.0448  32.7069  36.7313  37.6917  37.9393  38.8321  38.8321  42.3800
    43.5966  44.4991  47.0781  47.0781  47.9385  49.0415  50.2035  50.2035
    50.7172  52.9599  53.0513  55.7906

          k = 0.0476 0.0476-0.1427 (  1034 PWs)   bands (ev):

     8.8928   8.8928  11.4430  11.4430  11.5104  11.5104  11.9234  11.9234
    12.3004  12.3004  12.8285  12.8285  13.3996  13.3997  13.6838  13.6838
    14.3003  14.3004  14.4635  14.4636  14.6962  14.6962  19.7853  19.7853
    21.4573  21.4573  28.3312  28.3312  28.5973  28.5974  29.0514  29.0514
    35.0184  35.0185  35.3985  35.3987  38.1837  38.1839  42.1966  42.1966
    44.8561  44.8562  45.3712  45.3712  49.4133  49.4135  50.8667  50.8668
    52.2329  52.2330  53.8846  53.8846

          k = 0.0476 0.0952 0.0952 (  1034 PWs)   bands (ev):

     8.3366  10.6172  10.6172  11.1291  11.6231  11.7640  11.7640  12.2905
    12.4966  12.4966  12.6215  12.9354  13.0849  13.5386  13.5386  13.5408
    13.9019  14.4627  14.6115  14.6115  14.6283  16.3727  16.3727  18.9056
    21.1551  24.1287  24.1287  28.1149  28.1899  31.2075  31.2075  32.2232
    32.2232  34.0819  35.2772  36.9449  39.3504  39.3505  40.0878  43.1640
    43.7400  44.7417  46.4694  46.4695  49.2617  49.2617  50.3620  50.5932
    50.9147  51.7056  52.3844  52.8666

          k = 0.0476 0.0952-0.1427 (  1032 PWs)   bands (ev):

     9.5575   9.5576  10.9807  10.9808  11.8839  11.8840  12.1239  12.1240
    12.4770  12.4771  12.6646  12.6646  13.2142  13.2142  13.3954  13.3954
    14.2211  14.2211  14.5194  14.5194  15.0690  15.0690  17.6082  17.6082
    22.1272  22.1273  25.8728  25.8729  29.5454  29.5455  33.1063  33.1064
    33.3324  33.3325  36.9282  36.9284  40.1324  40.1325  40.4798  40.4799
    45.1926  45.1927  45.6893  45.6894  47.6972  47.6974  50.6260  50.6262
    51.7433  51.7434  53.9992  54.0026

          k = 0.0476-0.1427-0.1427 (  1032 PWs)   bands (ev):

    10.3345  10.3346  10.3346  10.3346  12.2912  12.2912  12.2912  12.2912
    12.5113  12.5113  12.5113  12.5114  13.1586  13.1586  13.1587  13.1587
    14.2504  14.2504  14.2504  14.2505  15.9966  15.9967  15.9967  15.9967
    23.7187  23.7188  23.7188  23.7189  31.0655  31.0655  31.0656  31.0656
    38.2574  38.2574  38.2574  38.2575  38.3043  38.3044  38.3045  38.3045
    46.5993  46.5994  46.5994  46.5995  46.7975  46.7975  46.7976  46.7976
    54.8906  54.8907  54.8908  55.1032

          k = 0.0952 0.0952 0.0952 (  1009 PWs)   bands (ev):

     9.0018  10.5692  10.5692  10.5692  12.0797  12.0797  12.0797  12.5575
    12.7754  12.7754  12.7754  12.9025  12.9025  13.1760  13.1760  13.1760
    14.3425  14.3425  14.7542  14.7542  14.7542  16.6240  16.6241  16.6241
    21.7573  21.7573  21.7573  25.3847  32.5564  32.5565  32.5565  35.3164
    35.3165  35.3165  37.2974  37.2975  37.2975  37.6291  40.0502  40.0502
    44.4680  44.4680  47.8028  48.0280  48.0280  48.0280  48.1559  48.1559
    48.1559  52.4955  52.4955  52.4955

          k = 0.0952 0.0952-0.1427 (  1030 PWs)   bands (ev):

     9.8271   9.8272  10.5290  10.5290  12.2723  12.2723  12.5858  12.5859
    12.8333  12.8333  12.9364  12.9364  12.9788  12.9788  13.0434  13.0434
    14.6559  14.6559  14.6834  14.6834  14.8816  14.8816  16.8132  16.8132
    20.8269  20.8269  23.2660  23.2661  33.4332  33.4332  34.7245  34.7245
    36.2305  36.2307  37.3301  37.3302  39.0870  39.0871  39.4248  39.4248
    44.6930  44.6930  44.8934  44.8936  46.0389  46.0390  48.5246  48.5246
    49.6747  49.6748  53.1079  53.1079

          k = 0.0952-0.1427-0.1427 (  1032 PWs)   bands (ev):

    10.1412  10.1412  10.1412  10.1412  12.6198  12.6198  12.6198  12.6198
    12.8526  12.8526  12.8526  12.8526  13.2662  13.2662  13.2662  13.2663
    14.5931  14.5931  14.5931  14.5931  15.5055  15.5056  15.5056  15.5056
    21.4959  21.4960  21.4960  21.4960  35.1388  35.1389  35.1390  35.1390
    38.1986  38.1986  38.1987  38.1987  39.0211  39.0211  39.0211  39.0212
    44.1401  44.1401  44.1402  44.1403  45.1634  45.1634  45.1635  45.1635
    50.5282  50.5283  50.5283  50.5283

          k =-0.1427-0.1427-0.1427 (  1064 PWs)   bands (ev):

    10.0559  10.0559  10.0559  10.0559  12.7381  12.7381  12.7381  12.7381
    12.7381  12.7381  12.7381  12.7381  14.1982  14.1983  14.1983  14.1983
    14.7259  14.7259  14.7259  14.7259  14.7259  14.7259  14.7259  14.7259
    20.7044  20.7045  20.7045  20.7045  36.7741  36.7744  36.7744  36.7744
    39.6582  39.6582  39.6582  39.6582  39.6583  39.6583  39.6583  39.6583
    42.8465  42.8465  42.8465  42.8466  42.8466  42.8466  42.8467  42.8467
    48.9048  48.9048  48.9049  48.9049

          k =-0.0476-0.0000 0.0476 (  1027 PWs)   bands (ev):

     6.1044  10.3676  10.3676  10.5572  11.1138  11.1243  11.1243  12.6167
    12.9894  12.9938  13.7038  13.7452  13.7452  13.7574  13.9605  14.3580
    14.4841  14.4841  14.7550  14.7550  14.8257  16.7238  16.7238  18.9723
    24.1672  25.2373  26.4447  26.4447  28.3856  28.3856  28.9866  28.9866
    30.6757  36.1205  36.1509  37.1095  37.1095  37.3605  40.2469  40.2470
    41.1998  42.7044  43.5109  45.1869  46.4388  49.9618  50.3931  53.2838
    53.6515  55.3266  55.3266  56.2578

          k =-0.0476-0.0000 0.0952 (  1029 PWs)   bands (ev):

     7.1343   9.9704  10.8840  11.0022  11.3973  11.4300  11.4715  12.3041
    12.6814  12.8506  13.0444  13.0847  13.2650  13.5861  14.0083  14.0939
    14.1639  14.2502  14.2794  14.7521  14.7613  15.1516  18.3626  20.7940
    22.2868  24.8454  25.6640  26.6768  27.5360  29.7250  29.9733  30.0350
    31.1228  33.8123  34.5196  37.7327  38.6813  40.3518  40.5270  40.8807
    41.1301  44.1353  45.2513  47.1386  47.7196  48.5839  49.8916  51.2729
    52.9096  53.1827  55.0621  56.4872

          k =-0.0952-0.0000 0.0952 (  1045 PWs)   bands (ev):

     8.0845  10.6087  10.6087  11.3660  11.4481  11.6861  11.6861  12.2061
    12.3526  12.3526  12.5263  12.9239  13.4091  13.4825  13.7808  13.9198
    13.9198  14.2835  14.2835  14.4735  14.5504  16.2940  16.2940  19.6150
    22.3362  25.3667  26.9524  26.9525  28.0063  28.0063  31.1254  31.7397
    31.7397  31.8136  33.6667  36.8849  41.4741  41.8737  41.8738  43.1224
    43.3046  43.8261  43.8262  47.3241  47.3733  48.5348  48.5348  51.7499
    52.0799  52.1462  53.4268  55.2666

          k = 0.0476-0.0476 0.0476 (  1021 PWs)   bands (ev):

     6.4531  10.5555  10.5556  10.5556  11.2155  11.2155  11.2155  12.5618
    13.0144  13.0144  13.4037  13.4037  13.4037  13.8728  13.8728  14.1649
    14.1649  14.1649  14.8262  14.8262  14.8262  17.3776  17.3776  17.3776
    25.4653  25.4654  25.4654  26.7745  26.7746  26.7746  31.2021  31.2022
    31.2023  33.5593  36.2734  36.2734  36.2735  39.1058  41.2023  41.2024
    42.9085  42.9086  42.9086  46.5163  47.6177  47.6178  51.8266  51.8267
    55.1955  55.1956  55.1956  55.4782

          k = 0.0476-0.0476 0.0952 (  1036 PWs)   bands (ev):

     7.4505  10.1691  11.0152  11.0152  11.4570  11.4570  11.5129  12.3144
    12.6828  12.6828  12.8483  13.0460  13.1361  13.7777  13.8120  13.8747
    13.8747  14.1485  14.7141  14.7438  14.7438  15.4346  18.7061  18.7061
    22.9247  22.9248  26.7723  27.4013  27.4013  30.4425  30.4426  30.8689
    31.0448  32.7069  36.7312  37.6916  37.9392  38.8320  38.8321  42.3800
    43.5967  44.4990  47.0782  47.0782  47.9385  49.0415  50.2035  50.2035
    50.7172  52.9600  53.0513  55.7906

          k =-0.0952 0.0476 0.0476 (  1036 PWs)   bands (ev):

     7.4505  10.1691  11.0152  11.0152  11.4570  11.4570  11.5129  12.3144
    12.6828  12.6828  12.8483  13.0460  13.1361  13.7777  13.8120  13.8747
    13.8747  14.1485  14.7141  14.7438  14.7438  15.4346  18.7061  18.7061
    22.9248  22.9248  26.7722  27.4013  27.4013  30.4425  30.4425  30.8689
    31.0448  32.7070  36.7313  37.6916  37.9393  38.8320  38.8321  42.3800
    43.5966  44.4989  47.0782  47.0783  47.9384  49.0415  50.2035  50.2035
    50.7172  52.9601  53.0514  55.7907

          k = 0.0476-0.0476-0.1427 (  1034 PWs)   bands (ev):

     8.8928   8.8928  11.4430  11.4430  11.5104  11.5104  11.9234  11.9234
    12.3004  12.3004  12.8285  12.8286  13.3996  13.3997  13.6838  13.6838
    14.3003  14.3004  14.4635  14.4636  14.6962  14.6962  19.7853  19.7853
    21.4573  21.4573  28.3312  28.3313  28.5974  28.5974  29.0514  29.0515
    35.0183  35.0184  35.3984  35.3986  38.1837  38.1838  42.1965  42.1967
    44.8562  44.8563  45.3711  45.3712  49.4134  49.4135  50.8667  50.8667
    52.2329  52.2330  53.8846  53.8847

          k = 0.0952-0.0476 0.0952 (  1034 PWs)   bands (ev):

     8.3366  10.6172  10.6172  11.1291  11.6231  11.7640  11.7640  12.2905
    12.4966  12.4966  12.6215  12.9354  13.0849  13.5386  13.5386  13.5408
    13.9019  14.4627  14.6115  14.6115  14.6283  16.3727  16.3727  18.9056
    21.1550  24.1287  24.1287  28.1150  28.1899  31.2074  31.2075  32.2232
    32.2232  34.0819  35.2770  36.9449  39.3503  39.3503  40.0878  43.1639
    43.7400  44.7417  46.4695  46.4695  49.2618  49.2618  50.3621  50.5933
    50.9146  51.7057  52.3844  52.8667

          k =-0.0952 0.0476 0.0952 (  1034 PWs)   bands (ev):

     8.3366  10.6172  10.6172  11.1291  11.6231  11.7640  11.7640  12.2905
    12.4966  12.4966  12.6215  12.9354  13.0849  13.5386  13.5386  13.5408
    13.9019  14.4627  14.6115  14.6115  14.6283  16.3727  16.3727  18.9056
    21.1551  24.1286  24.1287  28.1150  28.1899  31.2074  31.2075  32.2232
    32.2233  34.0818  35.2771  36.9449  39.3504  39.3505  40.0878  43.1639
    43.7399  44.7416  46.4695  46.4696  49.2618  49.2618  50.3621  50.5932
    50.9147  51.7056  52.3845  52.8667

          k = 0.0952-0.0476-0.1427 (  1032 PWs)   bands (ev):

     9.5576   9.5576  10.9807  10.9808  11.8839  11.8840  12.1239  12.1240
    12.4770  12.4770  12.6646  12.6646  13.2141  13.2142  13.3954  13.3954
    14.2211  14.2211  14.5194  14.5194  15.0690  15.0690  17.6082  17.6082
    22.1272  22.1272  25.8729  25.8730  29.5455  29.5456  33.1062  33.1063
    33.3325  33.3325  36.9282  36.9284  40.1323  40.1325  40.4797  40.4798
    45.1926  45.1927  45.6892  45.6894  47.6973  47.6974  50.6261  50.6262
    51.7434  51.7435  53.9992  54.0025

          k = 0.0952-0.0952 0.0952 (  1009 PWs)   bands (ev):

     9.0018  10.5692  10.5692  10.5692  12.0797  12.0797  12.0797  12.5575
    12.7754  12.7754  12.7754  12.9025  12.9026  13.1759  13.1760  13.1760
    14.3425  14.3425  14.7542  14.7542  14.7542  16.6240  16.6241  16.6241
    21.7572  21.7573  21.7573  25.3848  32.5565  32.5565  32.5566  35.3164
    35.3164  35.3165  37.2973  37.2974  37.2975  37.6290  40.0501  40.0502
    44.4679  44.4679  47.8028  48.0280  48.0281  48.0281  48.1559  48.1559
    48.1560  52.4956  52.4957  52.4957

          k = 0.0952-0.0952-0.1427 (  1030 PWs)   bands (ev):

     9.8272   9.8272  10.5290  10.5290  12.2723  12.2723  12.5859  12.5859
    12.8333  12.8333  12.9364  12.9364  12.9788  12.9788  13.0434  13.0434
    14.6559  14.6559  14.6834  14.6834  14.8816  14.8816  16.8131  16.8132
    20.8268  20.8269  23.2661  23.2661  33.4332  33.4333  34.7245  34.7246
    36.2305  36.2307  37.3301  37.3301  39.0869  39.0870  39.4247  39.4249
    44.6929  44.6930  44.8935  44.8935  46.0389  46.0389  48.5247  48.5247
    49.6747  49.6748  53.1080  53.1080

     the Fermi energy is    14.4988 ev

!    total energy              =    -343.62982041 Ry
     Harris-Foulkes estimate   =    -343.62982041 Ry
     estimated scf accuracy    <          2.4E-12 Ry

     The total energy is the sum of the following terms:

     one-electron contribution =      -6.33991947 Ry
     hartree contribution      =      60.33622587 Ry
     xc contribution           =    -120.51530368 Ry
     ewald contribution        =    -277.06238344 Ry
     Dispersion Correction     =      -0.04786405 Ry
     smearing contrib. (-TS)   =      -0.00057563 Ry

     total magnetization       =     2.84 Bohr mag/cell
     absolute magnetization    =     3.25 Bohr mag/cell

     convergence has been achieved in  11 iterations

     Forces acting on atoms (Ry/au):

     atom    1 type  1   force =     0.00000047    0.00000047   -0.00000063
     atom    2 type  1   force =    -0.00000031   -0.00000031   -0.00000031
     atom    3 type  1   force =     0.00000047   -0.00000063    0.00000047
     atom    4 type  1   force =    -0.00000063    0.00000047    0.00000047

     Total force =     0.000002     Total SCF correction =     0.000005
     SCF correction compared to forces is large: reduce conv_thr to get better values


     entering subroutine stress ...

          total   stress  (Ry/bohr**3)                   (kbar)     P=    0.09
   0.00000063  -0.00000002  -0.00000002          0.09     -0.00     -0.00
  -0.00000002   0.00000063  -0.00000002         -0.00      0.09     -0.00
  -0.00000002  -0.00000002   0.00000063         -0.00     -0.00      0.09


     bfgs converged in   5 scf cycles and   4 bfgs steps
     (criteria: energy <  1.0E-04, force <  1.0E-03, cell <  5.0E-01)

     End of BFGS Geometry Optimization

     Final enthalpy =    -343.6298204084 Ry
Begin final coordinates
     new unit-cell volume =    290.01877 a.u.^3 (    42.97635 Ang^3 )

CELL_PARAMETERS (alat=  1.88972590)
   3.502755997   0.000003704   0.000003704
   0.000003704   3.502755997   0.000003704
   0.000003704   0.000003704   3.502755997

ATOMIC_POSITIONS (alat)
Ni1      1.755275317   1.755275317   0.003884496
Ni1      0.003879655   0.003879655   0.003879655
Ni1      1.755275317   0.003884496   1.755275317
Ni1      0.003884496   1.755275317   1.755275317
End final coordinates



     A final scf calculation at the relaxed structure.
     The G-vectors are recalculated for the final unit cell
     Results may differ from those at the preceding step.

     G-vector sticks info
     --------------------
     sticks:   dense  smooth     PW     G-vecs:    dense   smooth      PW
     Sum        1389     489    161                39127     8217    1503

     Generating pointlists ...

     Title: 
     Ni-ferro-mag                                                               


     bravais-lattice index     =            0
     lattice parameter (alat)  =       1.8897  a.u.
     unit-cell volume          =     290.0188 (a.u.)^3
     number of atoms/cell      =            4
     number of atomic types    =            1
     number of electrons       =        40.00
     number of Kohn-Sham states=           52
     kinetic-energy cutoff     =      35.0000  Ry
     charge density cutoff     =     400.0000  Ry
     convergence threshold     =      1.0E-10
     mixing beta               =       0.2000
     number of iterations used =            8  plain     mixing
     Exchange-correlation      =  SLA  PW   PBE  PBE ( 1  4  3  4 0 0)

     celldm(1)=   1.889726  celldm(2)=   0.000000  celldm(3)=   0.000000
     celldm(4)=   0.000000  celldm(5)=   0.000000  celldm(6)=   0.000000

     crystal axes: (cart. coord. in units of alat)
               a(1) = (   3.502756   0.000004   0.000004 )  
               a(2) = (   0.000004   3.502756   0.000004 )  
               a(3) = (   0.000004   0.000004   3.502756 )  

     reciprocal axes: (cart. coord. in units 2 pi/alat)
               b(1) = (  0.285489 -0.000000 -0.000000 )  
               b(2) = ( -0.000000  0.285489 -0.000000 )  
               b(3) = ( -0.000000 -0.000000  0.285489 )  


     PseudoPot. # 1 for Ni read from file:
     /home/eliot/pseudo/Ni.pbe-nd-rrkjus.UPF
     MD5 check sum: 8081f0a005c9a5470caab1a58e82ecb2
     Pseudo is Ultrasoft + core correction, Zval = 10.0
     Generated by new atomic code, or converted to UPF format
     Using radial grid of 1203 points,  6 beta functions with: 
                l(1) =   0
                l(2) =   0
                l(3) =   1
                l(4) =   1
                l(5) =   2
                l(6) =   2
     Q(r) pseudized with 0 coefficients 


     atomic species   valence    mass     pseudopotential
        Ni1           10.00    58.69340     Ni( 1.00)

     Starting magnetic structure 
     atomic species   magnetization
        Ni1          0.500

      6 Sym. Ops. (no inversion) found



   Cartesian axes

     site n.     atom                  positions (alat units)
         1           Ni1 tau(   1) = (   1.7552753   1.7552753   0.0038845  )
         2           Ni1 tau(   2) = (   0.0038797   0.0038797   0.0038797  )
         3           Ni1 tau(   3) = (   1.7552753   0.0038845   1.7552753  )
         4           Ni1 tau(   4) = (   0.0038845   1.7552753   1.7552753  )

     number of k points=    32  Methfessel-Paxton smearing, width (Ry)=  0.0500
                       cart. coord. in units 2pi/alat
        k(    1) = (   0.0000000   0.0000000   0.0000000), wk =   0.0046296
        k(    2) = (  -0.0000001  -0.0000001   0.0475816), wk =   0.0277778
        k(    3) = (  -0.0000001  -0.0000001   0.0951632), wk =   0.0277778
        k(    4) = (   0.0000002   0.0000002  -0.1427447), wk =   0.0138889
        k(    5) = (  -0.0000001   0.0475815   0.0475815), wk =   0.0277778
        k(    6) = (  -0.0000002   0.0475815   0.0951631), wk =   0.0555556
        k(    7) = (   0.0000001   0.0475817  -0.1427448), wk =   0.0555556
        k(    8) = (  -0.0000002   0.0951631   0.0951631), wk =   0.0277778
        k(    9) = (   0.0000001   0.0951633  -0.1427448), wk =   0.0555556
        k(   10) = (   0.0000003  -0.1427446  -0.1427446), wk =   0.0138889
        k(   11) = (   0.0475815   0.0475815   0.0475815), wk =   0.0092593
        k(   12) = (   0.0475814   0.0475814   0.0951631), wk =   0.0277778
        k(   13) = (   0.0475817   0.0475817  -0.1427448), wk =   0.0277778
        k(   14) = (   0.0475814   0.0951630   0.0951630), wk =   0.0277778
        k(   15) = (   0.0475816   0.0951633  -0.1427449), wk =   0.0555556
        k(   16) = (   0.0475819  -0.1427446  -0.1427446), wk =   0.0277778
        k(   17) = (   0.0951630   0.0951630   0.0951630), wk =   0.0092593
        k(   18) = (   0.0951632   0.0951632  -0.1427449), wk =   0.0277778
        k(   19) = (   0.0951635  -0.1427447  -0.1427447), wk =   0.0277778
        k(   20) = (  -0.1427444  -0.1427444  -0.1427444), wk =   0.0046296
        k(   21) = (  -0.0475816  -0.0000000   0.0475816), wk =   0.0277778
        k(   22) = (  -0.0475817  -0.0000001   0.0951632), wk =   0.0555556
        k(   23) = (  -0.0951633  -0.0000000   0.0951633), wk =   0.0277778
        k(   24) = (   0.0475816  -0.0475817   0.0475816), wk =   0.0277778
        k(   25) = (   0.0475815  -0.0475817   0.0951632), wk =   0.0555556
        k(   26) = (  -0.0951633   0.0475816   0.0475816), wk =   0.0277778
        k(   27) = (   0.0475818  -0.0475815  -0.1427447), wk =   0.0277778
        k(   28) = (   0.0951631  -0.0475818   0.0951631), wk =   0.0277778
        k(   29) = (  -0.0951633   0.0475816   0.0951632), wk =   0.0555556
        k(   30) = (   0.0951634  -0.0475815  -0.1427448), wk =   0.0555556
        k(   31) = (   0.0951632  -0.0951634   0.0951632), wk =   0.0277778
        k(   32) = (   0.0951634  -0.0951631  -0.1427447), wk =   0.0277778

     Dense  grid:    39127 G-vectors     FFT dimensions: (  45,  45,  45)

     Smooth grid:     8217 G-vectors     FFT dimensions: (  25,  25,  25)

     Largest allocated arrays     est. size (Mb)     dimensions
        Kohn-Sham Wavefunctions         0.84 Mb     (    1064,   52)
        NL pseudopotentials             1.17 Mb     (    1064,   72)
        Each V/rho on FFT grid          2.78 Mb     (   91125,   2)
        Each G-vector array             0.30 Mb     (   39127)
        G-vector shells                 0.02 Mb     (    2639)
     Largest temporary arrays     est. size (Mb)     dimensions
        Auxiliary wavefunctions         3.38 Mb     (    1064,  208)
        Each subspace H/S matrix        0.66 Mb     (     208,  208)
        Each <psi_i|beta_j> matrix      0.06 Mb     (      72,   52)
        Arrays for rho mixing          11.12 Mb     (   91125,    8)

     Check: negative/imaginary core charge=   -0.000005    0.000000

     Initial potential from superposition of free atoms

     starting charge   39.99816, renormalised to   40.00000
     Starting wfc are   24 randomized atomic wfcs +   28 random wfc

     Writing output data file Ni-ferromag.save

     total cpu time spent up to now is     1339.5 secs

     Self-consistent Calculation

     iteration #  1     ecut=    35.00 Ry     beta=0.20
     Davidson diagonalization with overlap
     ethr =  1.00E-06,  avg # of iterations = 12.3

     total cpu time spent up to now is     1425.3 secs

     total energy              =    -342.90462547 Ry
     Harris-Foulkes estimate   =    -343.17748260 Ry
     estimated scf accuracy    <       2.41680656 Ry

     total magnetization       =     6.87 Bohr mag/cell
     absolute magnetization    =     6.88 Bohr mag/cell

     iteration #  2     ecut=    35.00 Ry     beta=0.20
     Davidson diagonalization with overlap
     ethr =  6.04E-03,  avg # of iterations =  1.0

     total cpu time spent up to now is     1442.6 secs

     total energy              =    -343.20621039 Ry
     Harris-Foulkes estimate   =    -343.03933920 Ry
     estimated scf accuracy    <       0.78019906 Ry

     total magnetization       =     5.74 Bohr mag/cell
     absolute magnetization    =     5.83 Bohr mag/cell

     iteration #  3     ecut=    35.00 Ry     beta=0.20
     Davidson diagonalization with overlap
     ethr =  1.95E-03,  avg # of iterations =  1.3

     total cpu time spent up to now is     1460.2 secs

     total energy              =    -343.53542161 Ry
     Harris-Foulkes estimate   =    -343.28013108 Ry
     estimated scf accuracy    <       0.35876316 Ry

     total magnetization       =     4.50 Bohr mag/cell
     absolute magnetization    =     4.82 Bohr mag/cell

     iteration #  4     ecut=    35.00 Ry     beta=0.20
     Davidson diagonalization with overlap
     ethr =  8.97E-04,  avg # of iterations =  1.3

     total cpu time spent up to now is     1477.9 secs

     total energy              =    -343.62149238 Ry
     Harris-Foulkes estimate   =    -343.64875331 Ry
     estimated scf accuracy    <       0.11832523 Ry

     total magnetization       =     2.59 Bohr mag/cell
     absolute magnetization    =     3.20 Bohr mag/cell

     iteration #  5     ecut=    35.00 Ry     beta=0.20
     Davidson diagonalization with overlap
     ethr =  2.96E-04,  avg # of iterations =  1.0

     total cpu time spent up to now is     1495.3 secs

     total energy              =    -343.62217043 Ry
     Harris-Foulkes estimate   =    -343.62827497 Ry
     estimated scf accuracy    <       0.02375492 Ry

     total magnetization       =     2.63 Bohr mag/cell
     absolute magnetization    =     3.23 Bohr mag/cell

     iteration #  6     ecut=    35.00 Ry     beta=0.20
     Davidson diagonalization with overlap
     ethr =  5.94E-05,  avg # of iterations =  2.1

     total cpu time spent up to now is     1513.7 secs

     total energy              =    -343.62559287 Ry
     Harris-Foulkes estimate   =    -343.62564954 Ry
     estimated scf accuracy    <       0.00099517 Ry

     total magnetization       =     2.69 Bohr mag/cell
     absolute magnetization    =     3.28 Bohr mag/cell

     iteration #  7     ecut=    35.00 Ry     beta=0.20
     Davidson diagonalization with overlap
     ethr =  2.49E-06,  avg # of iterations =  3.9

     total cpu time spent up to now is     1534.6 secs

     total energy              =    -343.62884289 Ry
     Harris-Foulkes estimate   =    -343.62752930 Ry
     estimated scf accuracy    <       0.00183363 Ry

     total magnetization       =     3.01 Bohr mag/cell
     absolute magnetization    =     3.48 Bohr mag/cell

     iteration #  8     ecut=    35.00 Ry     beta=0.20
     Davidson diagonalization with overlap
     ethr =  2.49E-06,  avg # of iterations =  1.0

     total cpu time spent up to now is     1552.0 secs

     total energy              =    -343.62936240 Ry
     Harris-Foulkes estimate   =    -343.62914334 Ry
     estimated scf accuracy    <       0.00013893 Ry

     total magnetization       =     2.90 Bohr mag/cell
     absolute magnetization    =     3.35 Bohr mag/cell

     iteration #  9     ecut=    35.00 Ry     beta=0.20
     Davidson diagonalization with overlap
     ethr =  3.47E-07,  avg # of iterations =  1.0

     total cpu time spent up to now is     1569.3 secs

     total energy              =    -343.62946168 Ry
     Harris-Foulkes estimate   =    -343.62936425 Ry
     estimated scf accuracy    <       0.00009695 Ry

     total magnetization       =     2.89 Bohr mag/cell
     absolute magnetization    =     3.34 Bohr mag/cell

     iteration # 10     ecut=    35.00 Ry     beta=0.20
     Davidson diagonalization with overlap
     ethr =  2.42E-07,  avg # of iterations =  1.1

     total cpu time spent up to now is     1586.7 secs

     total energy              =    -343.62963970 Ry
     Harris-Foulkes estimate   =    -343.62954277 Ry
     estimated scf accuracy    <       0.00000193 Ry

     total magnetization       =     2.83 Bohr mag/cell
     absolute magnetization    =     3.25 Bohr mag/cell

     iteration # 11     ecut=    35.00 Ry     beta=0.20
     Davidson diagonalization with overlap
     ethr =  4.82E-09,  avg # of iterations =  1.4

     total cpu time spent up to now is     1604.4 secs

     total energy              =    -343.62970033 Ry
     Harris-Foulkes estimate   =    -343.62964016 Ry
     estimated scf accuracy    <       0.00000032 Ry

     total magnetization       =     2.84 Bohr mag/cell
     absolute magnetization    =     3.26 Bohr mag/cell

     iteration # 12     ecut=    35.00 Ry     beta=0.20
     Davidson diagonalization with overlap
     ethr =  8.08E-10,  avg # of iterations =  1.0

     total cpu time spent up to now is     1621.8 secs

     total energy              =    -343.62973572 Ry
     Harris-Foulkes estimate   =    -343.62970044 Ry
     estimated scf accuracy    <       0.00000058 Ry

     total magnetization       =     2.84 Bohr mag/cell
     absolute magnetization    =     3.26 Bohr mag/cell

     iteration # 13     ecut=    35.00 Ry     beta=0.20
     Davidson diagonalization with overlap
     ethr =  8.08E-10,  avg # of iterations =  2.0

     total cpu time spent up to now is     1641.4 secs

     total energy              =    -343.62976101 Ry
     Harris-Foulkes estimate   =    -343.62973683 Ry
     estimated scf accuracy    <       0.00000002 Ry

     total magnetization       =     2.84 Bohr mag/cell
     absolute magnetization    =     3.25 Bohr mag/cell

     iteration # 14     ecut=    35.00 Ry     beta=0.20
     Davidson diagonalization with overlap
     ethr =  4.21E-11,  avg # of iterations =  1.5

     total cpu time spent up to now is     1660.2 secs

     total energy              =    -343.62977744 Ry
     Harris-Foulkes estimate   =    -343.62976104 Ry
     estimated scf accuracy    <       0.00000010 Ry

     total magnetization       =     2.83 Bohr mag/cell
     absolute magnetization    =     3.25 Bohr mag/cell

     iteration # 15     ecut=    35.00 Ry     beta=0.20
     Davidson diagonalization with overlap
     ethr =  4.21E-11,  avg # of iterations =  2.0

     total cpu time spent up to now is     1680.4 secs

     total energy              =    -343.62978763 Ry
     Harris-Foulkes estimate   =    -343.62977754 Ry
     estimated scf accuracy    <          7.5E-10 Ry

     total magnetization       =     2.84 Bohr mag/cell
     absolute magnetization    =     3.25 Bohr mag/cell

     iteration # 16     ecut=    35.00 Ry     beta=0.20
     Davidson diagonalization with overlap
     ethr =  1.87E-12,  avg # of iterations =  2.2

     total cpu time spent up to now is     1700.2 secs

     total energy              =    -343.62979403 Ry
     Harris-Foulkes estimate   =    -343.62978763 Ry
     estimated scf accuracy    <          1.6E-09 Ry

     total magnetization       =     2.84 Bohr mag/cell
     absolute magnetization    =     3.25 Bohr mag/cell

     iteration # 17     ecut=    35.00 Ry     beta=0.20
     Davidson diagonalization with overlap
     ethr =  1.87E-12,  avg # of iterations =  1.5

     total cpu time spent up to now is     1718.1 secs

     total energy              =    -343.62979813 Ry
     Harris-Foulkes estimate   =    -343.62979403 Ry
     estimated scf accuracy    <          3.0E-10 Ry

     total magnetization       =     2.84 Bohr mag/cell
     absolute magnetization    =     3.25 Bohr mag/cell

     iteration # 18     ecut=    35.00 Ry     beta=0.20
     Davidson diagonalization with overlap
     ethr =  7.42E-13,  avg # of iterations =  1.5

     Magnetic moment per site:
     atom:    1    charge:    3.0535    magn:    0.3402    constr:    0.0000
     atom:    2    charge:    3.0513    magn:    0.3399    constr:    0.0000
     atom:    3    charge:    3.0535    magn:    0.3402    constr:    0.0000
     atom:    4    charge:    3.0535    magn:    0.3402    constr:    0.0000

     total cpu time spent up to now is     1736.9 secs

     End of self-consistent calculation

 ------ SPIN UP ------------


          k = 0.0000 0.0000 0.0000 (  1021 PWs)   bands (ev):

     5.4341   9.7188   9.7188   9.7188  10.1723  10.1723  10.1723  11.9520
    11.9520  11.9520  13.1312  13.1312  13.8493  13.8493  13.8493  13.9394
    13.9394  13.9394  13.9394  13.9394  13.9394  17.0773  17.0773  17.0773
    23.8190  23.8190  23.8190  29.5762  29.5762  29.5762  29.5763  29.5763
    29.5763  34.6581  34.6581  34.6581  38.0037  38.0038  38.0038  38.5034
    42.4823  42.4824  42.4824  46.0858  46.0859  46.0859  48.1853  55.1835
    55.1836  55.1836  57.6732  59.1080

          k =-0.0000-0.0000 0.0476 (  1001 PWs)   bands (ev):

     5.8004   9.7410   9.9031   9.9031  10.2828  10.2988  10.2988  11.8232
    12.0544  12.0544  13.0133  13.1780  13.2850  13.2850  13.6959  13.6959
    13.7634  13.7634  13.7998  13.9397  13.9397  15.4765  18.0365  18.0365
    23.9149  23.9149  26.0688  27.8249  27.8249  28.4531  28.4531  30.1367
    30.1368  34.7741  36.8318  36.8318  37.8688  38.1357  39.9616  39.9616
    40.2615  40.2616  40.9267  47.5049  48.1404  48.1404  49.1630  51.5725
    56.2807  56.2807  56.6874  56.6874

          k =-0.0000-0.0000 0.0952 (  1028 PWs)   bands (ev):

     6.8499   9.5116  10.3402  10.3402  10.5907  10.6820  10.6820  11.4790
    12.2287  12.2287  12.3512  12.3512  12.7253  13.3066  13.3121  13.3172
    13.3172  13.3244  13.3244  13.6656  13.9402  13.9402  19.9996  19.9996
    24.2317  24.2318  25.0507  25.0507  26.6853  26.6853  30.3689  31.7168
    31.7169  35.1383  36.7378  37.0403  37.0404  38.3589  38.6877  40.8749
    40.8749  44.1259  44.1259  44.1594  50.9398  51.0593  51.0593  51.0630
    51.0630  55.0502  55.9689  55.9690

          k = 0.0000 0.0000-0.1427 (  1020 PWs)   bands (ev):

     8.3496   8.3496  10.6164  10.6164  11.0257  11.0258  11.3288  11.3288
    11.3289  11.3289  12.5480  12.5481  12.8034  12.8034  12.8035  12.8035
    13.0685  13.0685  13.4847  13.4847  13.9405  13.9405  22.3858  22.3858
    22.3859  22.3859  24.6049  24.6049  25.7404  25.7404  34.0955  34.0956
    34.0956  34.0957  34.9187  34.9189  35.7843  35.7843  40.2818  40.2820
    45.6764  45.6764  45.6766  45.6766  47.6317  47.6317  52.3127  52.3127
    54.1875  54.1876  54.1877  54.1878

          k =-0.0000 0.0476 0.0476 (  1015 PWs)   bands (ev):

     6.1580   9.9394   9.9395  10.0663  10.4003  10.4003  10.4141  11.7632
    12.0995  12.1165  12.9388  12.9887  12.9971  12.9971  13.1732  13.5671
    13.6917  13.6917  13.7621  13.7621  13.8236  16.4091  16.4091  18.8065
    23.9086  25.1074  26.2559  26.2560  28.3027  28.3027  28.9455  28.9456
    30.6648  36.0470  36.1290  37.0394  37.0394  37.3430  40.1289  40.1290
    41.2808  42.6169  43.5420  45.2434  46.3785  49.8030  50.4676  53.1126
    53.6840  55.3659  55.3659  56.3177

          k =-0.0000 0.0476 0.0952 (  1020 PWs)   bands (ev):

     7.1799   9.7478  10.4216  10.4702  10.6821  10.7353  10.7545  11.4821
    11.9900  12.1298  12.2453  12.3628  12.3881  12.8216  13.2432  13.3218
    13.3286  13.3523  13.5047  13.7588  13.7648  14.4423  18.0239  20.5899
    22.0883  24.6176  25.5124  26.5420  27.4106  29.6166  29.9116  29.9646
    31.0253  33.7343  34.4771  37.6909  38.6436  40.4005  40.5795  40.7607
    41.1307  44.0529  45.0466  47.0720  47.7973  48.6016  49.9075  51.3484
    52.9541  53.2733  54.8420  57.1115

          k = 0.0000 0.0476-0.1427 (  1010 PWs)   bands (ev):

     8.6311   8.6312  10.7690  10.7690  11.0775  11.0775  11.1964  11.1964
    11.3433  11.3434  12.1745  12.1746  12.8042  12.8043  13.0337  13.0337
    13.0535  13.0535  13.6683  13.6683  13.7563  13.7564  19.8928  19.8929
    22.8852  22.8853  25.4210  25.4211  28.3188  28.3189  31.5071  31.5072
    32.0305  32.0306  35.8395  35.8397  38.8397  38.8398  42.2260  42.2262
    43.1262  43.1264  45.9525  45.9527  50.0970  50.0972  50.3676  50.3678
    52.6266  52.6267  53.2257  53.2258

          k =-0.0000 0.0952 0.0952 (  1009 PWs)   bands (ev):

     8.1066  10.3355  10.3355  10.7017  10.9503  10.9503  10.9639  11.4122
    11.6594  11.6594  11.8140  12.1325  12.4937  12.7354  13.0271  13.1823
    13.1823  13.3225  13.3225  13.4926  13.7079  15.6886  15.6886  19.3072
    22.1169  25.1682  26.7858  26.7858  27.9054  27.9054  30.9952  31.6509
    31.6509  31.7463  33.6142  36.8494  41.5379  41.8925  41.8925  43.0886
    43.4223  43.7836  43.7837  47.2029  47.3447  48.4906  48.4907  51.6901
    52.1916  52.2033  53.2236  55.3644

          k = 0.0000 0.0952-0.1427 (  1020 PWs)   bands (ev):

     9.3739   9.3739  10.8065  10.8065  11.2047  11.2047  11.2121  11.2121
    11.3620  11.3620  11.8685  11.8685  12.8409  12.8409  12.8417  12.8418
    12.9078  12.9078  13.3574  13.3575  14.3696  14.3696  17.2202  17.2202
    24.2417  24.2418  26.2361  26.2362  28.6619  28.6619  29.5474  29.5475
    32.9596  32.9597  36.8018  36.8020  40.3759  40.3760  43.0612  43.0613
    43.2285  43.2286  46.7528  46.7529  47.9388  47.9390  50.4418  50.4419
    51.7795  51.7797  53.5765  53.5766

          k = 0.0000-0.1427-0.1427 (  1024 PWs)   bands (ev):

    10.2272  10.2272  10.2273  10.2273  11.3239  11.3240  11.3240  11.3240
    11.6332  11.6332  11.6332  11.6332  12.6948  12.6948  12.6948  12.6948
    13.0090  13.0090  13.0090  13.0091  15.4401  15.4401  15.4401  15.4401
    26.2166  26.2167  26.2167  26.2167  27.5879  27.5879  27.5880  27.5880
    37.9047  37.9047  37.9048  37.9048  38.5103  38.5103  38.5104  38.5105
    47.1896  47.1896  47.1896  47.1896  49.2046  49.2047  49.2048  49.2049
    51.8341  51.8341  51.8342  51.8343

          k = 0.0476 0.0476 0.0476 (  1021 PWs)   bands (ev):

     6.5039  10.1004  10.1004  10.1004  10.5148  10.5148  10.5148  11.7283
    12.1361  12.1361  12.6931  12.6931  12.6931  13.0864  13.0864  13.3336
    13.3336  13.3336  13.8777  13.8777  13.8777  17.0365  17.0365  17.0365
    25.3339  25.3339  25.3339  26.6012  26.6012  26.6012  31.1803  31.1803
    31.1803  33.4928  36.1786  36.1786  36.1786  39.2614  41.1499  41.1499
    42.8242  42.8242  42.8242  46.6037  47.6607  47.6607  51.6599  51.6599
    55.1387  55.2424  55.2424  55.2424

          k = 0.0476 0.0476 0.0952 (  1020 PWs)   bands (ev):

     7.4856   9.9066  10.4836  10.4836  10.8006  10.8286  10.8286  11.5187
    11.9804  11.9804  12.1759  12.2154  12.2756  12.9313  13.0020  13.0877
    13.0877  13.3260  13.7804  13.7804  13.8127  14.8042  18.3791  18.3791
    22.7145  22.7145  26.6282  27.2523  27.2523  30.3676  30.3677  30.7548
    30.9575  32.6605  36.6572  37.7860  37.8622  38.8020  38.8020  42.3727
    43.5162  44.4815  47.0339  47.0339  47.8965  49.0962  50.2146  50.2147
    50.7102  53.0315  53.0916  55.6759

          k = 0.0476 0.0476-0.1427 (  1006 PWs)   bands (ev):

     8.8582   8.8582  10.8711  10.8711  10.9290  10.9290  11.1724  11.1725
    11.5864  11.5864  12.0787  12.0788  12.5489  12.5489  12.9199  12.9199
    13.4955  13.4956  13.6022  13.6022  13.7243  13.7243  19.5280  19.5280
    21.1534  21.1534  28.2166  28.2166  28.4556  28.4557  28.9367  28.9367
    34.9491  34.9492  35.4256  35.4258  38.1067  38.1068  42.2155  42.2155
    44.7691  44.7693  45.3825  45.3825  49.4937  49.4939  50.9128  50.9129
    52.2002  52.2003  54.0354  54.0355

          k = 0.0476 0.0952 0.0952 (  1008 PWs)   bands (ev):

     8.3246  10.2244  10.2244  10.5107  11.1161  11.1621  11.1621  11.5638
    11.7764  11.7764  11.9097  12.1346  12.2606  12.7391  12.7391  12.7555
    13.0584  13.6136  13.6830  13.6982  13.6982  15.8193  15.8193  18.6308
    20.8111  23.9118  23.9118  27.9531  28.0623  31.1440  31.1440  32.1306
    32.1306  34.0273  35.2522  36.9203  39.3359  39.3359  40.1642  43.0507
    43.7486  44.7961  46.4758  46.4758  49.2073  49.2073  50.4308  50.6097
    50.9385  51.6340  52.3194  52.9399

          k = 0.0476 0.0952-0.1427 (  1016 PWs)   bands (ev):

     9.4081   9.4081  10.4458  10.4458  11.3296  11.3297  11.4778  11.4779
    11.7833  11.7833  11.9041  11.9042  12.4099  12.4099  12.6208  12.6208
    13.3557  13.3557  13.5835  13.5835  14.2759  14.2759  17.1970  17.1971
    21.8270  21.8270  25.6729  25.6730  29.4450  29.4450  33.0497  33.0497
    33.2635  33.2636  36.9153  36.9155  40.1482  40.1483  40.4573  40.4574
    45.2057  45.2057  45.6979  45.6980  47.7165  47.7166  50.5878  50.5879
    51.8042  51.8043  53.9229  53.9231

          k = 0.0476-0.1427-0.1427 (  1016 PWs)   bands (ev):

     9.9777   9.9777   9.9777   9.9777  11.7210  11.7210  11.7210  11.7210
    11.8079  11.8080  11.8080  11.8080  12.3814  12.3814  12.3814  12.3814
    13.3383  13.3383  13.3383  13.3383  15.3509  15.3509  15.3509  15.3509
    23.4611  23.4612  23.4612  23.4612  30.9830  30.9831  30.9831  30.9831
    38.1851  38.1851  38.1852  38.1852  38.3536  38.3537  38.3537  38.3538
    46.6678  46.6678  46.6678  46.6679  46.7720  46.7720  46.7721  46.7721
    54.8266  54.8266  54.8267  54.8268

          k = 0.0952 0.0952 0.0952 (  1009 PWs)   bands (ev):

     8.8686  10.0595  10.0595  10.0595  11.5208  11.5208  11.5208  12.0347
    12.0958  12.0958  12.0958  12.1014  12.1014  12.3848  12.3848  12.3848
    13.4614  13.4614  13.8265  13.8265  13.8265  16.1974  16.1974  16.1974
    21.4186  21.4186  21.4187  25.1593  32.5101  32.5101  32.5101  35.2549
    35.2550  35.2550  37.2847  37.2848  37.2848  37.8002  39.9641  39.9641
    44.4588  44.4588  47.7877  48.0796  48.0797  48.0797  48.1546  48.1546
    48.1546  52.4643  52.4643  52.4643

          k = 0.0952 0.0952-0.1427 (  1012 PWs)   bands (ev):

     9.4949   9.4949   9.9909   9.9909  11.6407  11.6407  11.9273  11.9274
    12.1442  12.1442  12.2646  12.2646  12.2789  12.2789  12.3790  12.3790
    13.7469  13.7469  13.7548  13.7548  14.1656  14.1657  16.4814  16.4814
    20.3898  20.3898  22.9767  22.9768  33.4255  33.4255  34.6384  34.6384
    36.3396  36.3397  37.2579  37.2580  39.0067  39.0068  39.4502  39.4502
    44.6666  44.6666  44.9166  44.9167  46.0308  46.0309  48.5648  48.5649
    49.6216  49.6217  52.9988  52.9988

          k = 0.0952-0.1427-0.1427 (  1016 PWs)   bands (ev):

     9.6705   9.6705   9.6705   9.6706  11.8868  11.8868  11.8868  11.8868
    12.0767  12.0767  12.0767  12.0767  12.8260  12.8261  12.8261  12.8261
    13.6749  13.6749  13.6749  13.6749  14.9738  14.9738  14.9738  14.9738
    21.1032  21.1032  21.1032  21.1033  35.1650  35.1651  35.1651  35.1651
    38.2294  38.2295  38.2295  38.2296  38.9519  38.9519  38.9519  38.9520
    44.1082  44.1082  44.1083  44.1083  45.1712  45.1712  45.1712  45.1713
    50.4377  50.4377  50.4377  50.4378

          k =-0.1427-0.1427-0.1427 (  1064 PWs)   bands (ev):

     9.5545   9.5545   9.5545   9.5545  11.9651  11.9651  11.9651  11.9651
    11.9651  11.9651  11.9651  11.9651  13.8024  13.8024  13.8024  13.8024
    13.8024  13.8024  13.8024  13.8024  14.2975  14.2976  14.2976  14.2976
    20.2221  20.2221  20.2221  20.2222  36.9584  36.9586  36.9586  36.9586
    39.5880  39.5880  39.5880  39.5880  39.5881  39.5881  39.5881  39.5881
    42.8163  42.8163  42.8163  42.8163  42.8163  42.8164  42.8164  42.8164
    48.7906  48.7906  48.7906  48.7906

          k =-0.0476-0.0000 0.0476 (  1015 PWs)   bands (ev):

     6.1580   9.9394   9.9395  10.0663  10.4003  10.4003  10.4141  11.7632
    12.0994  12.1165  12.9388  12.9887  12.9971  12.9971  13.1732  13.5671
    13.6917  13.6917  13.7621  13.7621  13.8236  16.4091  16.4091  18.8065
    23.9086  25.1075  26.2560  26.2560  28.3027  28.3027  28.9455  28.9455
    30.6647  36.0469  36.1290  37.0394  37.0394  37.3431  40.1290  40.1290
    41.2807  42.6170  43.5419  45.2433  46.3784  49.8029  50.4677  53.1127
    53.6841  55.3660  55.3660  56.3176

          k =-0.0476-0.0000 0.0952 (  1020 PWs)   bands (ev):

     7.1799   9.7478  10.4216  10.4702  10.6821  10.7353  10.7545  11.4821
    11.9900  12.1298  12.2453  12.3628  12.3881  12.8216  13.2432  13.3218
    13.3286  13.3523  13.5047  13.7588  13.7648  14.4423  18.0239  20.5899
    22.0883  24.6176  25.5124  26.5420  27.4106  29.6165  29.9116  29.9645
    31.0253  33.7344  34.4772  37.6910  38.6435  40.4004  40.5795  40.7607
    41.1307  44.0529  45.0465  47.0721  47.7973  48.6015  49.9076  51.3484
    52.9542  53.2734  54.8420  57.1116

          k =-0.0952-0.0000 0.0952 (  1009 PWs)   bands (ev):

     8.1066  10.3355  10.3355  10.7017  10.9503  10.9504  10.9639  11.4122
    11.6594  11.6594  11.8140  12.1326  12.4937  12.7354  13.0271  13.1823
    13.1823  13.3225  13.3225  13.4926  13.7079  15.6886  15.6886  19.3073
    22.1169  25.1682  26.7857  26.7858  27.9054  27.9054  30.9952  31.6510
    31.6510  31.7464  33.6141  36.8493  41.5378  41.8925  41.8926  43.0885
    43.4222  43.7837  43.7838  47.2028  47.3447  48.4907  48.4907  51.6903
    52.1916  52.2032  53.2235  55.3645

          k = 0.0476-0.0476 0.0476 (  1021 PWs)   bands (ev):

     6.5039  10.1004  10.1004  10.1004  10.5148  10.5148  10.5148  11.7283
    12.1361  12.1361  12.6930  12.6931  12.6931  13.0864  13.0864  13.3336
    13.3336  13.3336  13.8777  13.8777  13.8777  17.0365  17.0365  17.0365
    25.3338  25.3339  25.3339  26.6012  26.6012  26.6012  31.1802  31.1802
    31.1803  33.4929  36.1785  36.1786  36.1786  39.2614  41.1498  41.1499
    42.8242  42.8243  42.8244  46.6037  47.6606  47.6607  51.6598  51.6599
    55.1387  55.2424  55.2424  55.2425

          k = 0.0476-0.0476 0.0952 (  1020 PWs)   bands (ev):

     7.4856   9.9066  10.4836  10.4837  10.8006  10.8286  10.8286  11.5187
    11.9804  11.9804  12.1759  12.2154  12.2756  12.9313  13.0020  13.0877
    13.0877  13.3260  13.7804  13.7804  13.8127  14.8042  18.3791  18.3791
    22.7145  22.7145  26.6282  27.2523  27.2524  30.3676  30.3677  30.7549
    30.9575  32.6604  36.6572  37.7859  37.8621  38.8019  38.8021  42.3727
    43.5164  44.4815  47.0339  47.0340  47.8965  49.0961  50.2146  50.2147
    50.7102  53.0316  53.0916  55.6758

          k =-0.0952 0.0476 0.0476 (  1020 PWs)   bands (ev):

     7.4856   9.9065  10.4836  10.4837  10.8006  10.8286  10.8286  11.5187
    11.9804  11.9804  12.1759  12.2154  12.2756  12.9313  13.0019  13.0877
    13.0877  13.3260  13.7804  13.7804  13.8127  14.8042  18.3791  18.3791
    22.7145  22.7145  26.6281  27.2523  27.2524  30.3676  30.3676  30.7549
    30.9575  32.6605  36.6573  37.7860  37.8622  38.8020  38.8020  42.3727
    43.5163  44.4814  47.0340  47.0341  47.8964  49.0961  50.2147  50.2147
    50.7102  53.0317  53.0917  55.6759

          k = 0.0476-0.0476-0.1427 (  1006 PWs)   bands (ev):

     8.8582   8.8582  10.8711  10.8711  10.9290  10.9290  11.1724  11.1725
    11.5864  11.5864  12.0787  12.0788  12.5489  12.5489  12.9199  12.9199
    13.4955  13.4956  13.6022  13.6022  13.7243  13.7243  19.5280  19.5280
    21.1533  21.1534  28.2166  28.2167  28.4557  28.4557  28.9366  28.9367
    34.9490  34.9491  35.4256  35.4258  38.1066  38.1068  42.2155  42.2156
    44.7693  44.7693  45.3825  45.3825  49.4937  49.4938  50.9128  50.9129
    52.2002  52.2003  54.0354  54.0354

          k = 0.0952-0.0476 0.0952 (  1008 PWs)   bands (ev):

     8.3246  10.2244  10.2245  10.5107  11.1161  11.1621  11.1621  11.5638
    11.7764  11.7764  11.9097  12.1346  12.2606  12.7391  12.7391  12.7555
    13.0584  13.6136  13.6830  13.6982  13.6982  15.8193  15.8193  18.6308
    20.8111  23.9118  23.9118  27.9532  28.0624  31.1440  31.1440  32.1306
    32.1306  34.0273  35.2521  36.9203  39.3358  39.3358  40.1641  43.0507
    43.7486  44.7961  46.4759  46.4759  49.2074  49.2074  50.4309  50.6098
    50.9384  51.6340  52.3194  52.9400

          k =-0.0952 0.0476 0.0952 (  1008 PWs)   bands (ev):

     8.3246  10.2244  10.2244  10.5107  11.1161  11.1621  11.1621  11.5638
    11.7764  11.7764  11.9097  12.1346  12.2605  12.7391  12.7391  12.7555
    13.0584  13.6136  13.6830  13.6982  13.6982  15.8193  15.8193  18.6308
    20.8112  23.9117  23.9118  27.9532  28.0624  31.1439  31.1440  32.1306
    32.1307  34.0272  35.2522  36.9202  39.3358  39.3359  40.1641  43.0506
    43.7485  44.7960  46.4759  46.4760  49.2073  49.2074  50.4308  50.6096
    50.9385  51.6339  52.3195  52.9400

          k = 0.0952-0.0476-0.1427 (  1016 PWs)   bands (ev):

     9.4081   9.4081  10.4458  10.4458  11.3297  11.3297  11.4778  11.4779
    11.7833  11.7833  11.9041  11.9042  12.4099  12.4099  12.6207  12.6208
    13.3557  13.3557  13.5835  13.5835  14.2759  14.2759  17.1970  17.1971
    21.8269  21.8270  25.6730  25.6730  29.4450  29.4451  33.0496  33.0497
    33.2635  33.2636  36.9153  36.9155  40.1482  40.1483  40.4572  40.4573
    45.2057  45.2057  45.6978  45.6980  47.7166  47.7166  50.5879  50.5879
    51.8044  51.8044  53.9230  53.9231

          k = 0.0952-0.0952 0.0952 (  1009 PWs)   bands (ev):

     8.8686  10.0595  10.0595  10.0595  11.5208  11.5208  11.5208  12.0348
    12.0958  12.0958  12.0958  12.1014  12.1014  12.3848  12.3848  12.3848
    13.4614  13.4614  13.8265  13.8265  13.8265  16.1974  16.1974  16.1974
    21.4186  21.4187  21.4187  25.1594  32.5101  32.5102  32.5102  35.2549
    35.2549  35.2550  37.2847  37.2847  37.2848  37.8001  39.9639  39.9640
    44.4587  44.4588  47.7877  48.0797  48.0797  48.0798  48.1546  48.1546
    48.1547  52.4644  52.4645  52.4645

          k = 0.0952-0.0952-0.1427 (  1012 PWs)   bands (ev):

     9.4949   9.4949   9.9909   9.9909  11.6407  11.6407  11.9274  11.9274
    12.1442  12.1442  12.2646  12.2646  12.2789  12.2789  12.3790  12.3790
    13.7469  13.7469  13.7548  13.7548  14.1657  14.1657  16.4814  16.4815
    20.3897  20.3898  22.9768  22.9768  33.4255  33.4256  34.6384  34.6385
    36.3395  36.3397  37.2578  37.2579  39.0067  39.0068  39.4501  39.4502
    44.6665  44.6667  44.9166  44.9167  46.0308  46.0308  48.5649  48.5650
    49.6216  49.6217  52.9988  52.9989

 ------ SPIN DOWN ----------


          k = 0.0000 0.0000 0.0000 (  1021 PWs)   bands (ev):

     5.3795  10.1809  10.1809  10.1809  10.8906  10.8906  10.8906  12.8326
    12.8326  12.8326  13.9116  13.9116  14.6637  14.6637  14.6637  14.9490
    14.9490  14.9490  14.9490  14.9490  14.9490  16.9985  16.9985  16.9985
    24.1247  24.1247  24.1247  29.5625  29.5625  29.5626  29.5626  29.5627
    29.5627  34.8221  34.8221  34.8221  38.1474  38.1476  38.1476  38.2976
    42.4529  42.4530  42.4530  46.1580  46.1582  46.1582  48.0258  55.3727
    55.3728  55.3728  58.2047  59.6086

          k =-0.0000-0.0000 0.0476 (  1001 PWs)   bands (ev):

     5.7457  10.1567  10.3752  10.3753  11.0100  11.0146  11.0146  12.6905
    12.9390  12.9390  13.7840  13.9605  14.1051  14.1051  14.4966  14.4966
    14.6118  14.7563  14.7563  14.9493  14.9493  15.5466  18.1434  18.1434
    24.2055  24.2055  26.2707  27.8935  27.8935  28.4804  28.4805  30.1394
    30.1395  34.9255  36.9125  36.9125  37.7298  38.2770  40.0825  40.0826
    40.3033  40.3034  40.8567  47.5253  48.1140  48.1141  49.2346  51.5636
    56.4921  56.4921  56.6139  56.6139

          k =-0.0000-0.0000 0.0952 (  1028 PWs)   bands (ev):

     6.7996   9.7198  10.8368  10.8368  11.3433  11.3923  11.3923  12.3120
    12.9581  12.9581  13.2489  13.2489  13.4631  13.6827  14.0845  14.0845
    14.0950  14.2811  14.2811  14.4710  14.9499  14.9499  20.1848  20.1848
    24.4780  24.4780  25.1915  25.1915  26.7836  26.7837  30.4645  31.7538
    31.7539  35.2519  36.7026  37.1118  37.1119  38.2684  38.8341  40.8801
    40.8801  44.2255  44.2256  44.3780  50.8953  50.9642  50.9643  50.9894
    50.9894  54.9455  56.2111  56.2111

          k = 0.0000 0.0000-0.1427 (  1020 PWs)   bands (ev):

     8.3431   8.3432  11.1287  11.1287  11.8163  11.8164  12.0381  12.0381
    12.0382  12.0382  13.1961  13.1962  13.7253  13.7253  13.7254  13.7254
    13.8147  13.8148  14.2814  14.2815  14.9502  14.9502  22.5675  22.5675
    22.5676  22.5676  24.8016  24.8016  25.8980  25.8980  34.1606  34.1607
    34.1607  34.1608  34.8987  34.8989  35.8354  35.8354  40.4742  40.4745
    45.6318  45.6318  45.6320  45.6320  47.7058  47.7059  52.5030  52.5030
    54.0770  54.0771  54.0772  54.0773

          k =-0.0000 0.0476 0.0476 (  1015 PWs)   bands (ev):

     6.1044  10.3677  10.3677  10.5573  11.1139  11.1244  11.1244  12.6168
    12.9894  12.9939  13.7039  13.7453  13.7453  13.7574  13.9606  14.3581
    14.4842  14.4842  14.7551  14.7551  14.8258  16.7238  16.7238  18.9723
    24.1673  25.2372  26.4447  26.4447  28.3856  28.3857  28.9867  28.9867
    30.6759  36.1204  36.1510  37.1097  37.1098  37.3605  40.2470  40.2472
    41.1999  42.7045  43.5110  45.1869  46.4389  49.9618  50.3930  53.2837
    53.6515  55.3275  55.3275  56.2578

          k =-0.0000 0.0476 0.0952 (  1020 PWs)   bands (ev):

     7.1343   9.9704  10.8840  11.0023  11.3973  11.4301  11.4715  12.3042
    12.6815  12.8507  13.0445  13.0848  13.2651  13.5862  14.0084  14.0940
    14.1640  14.2502  14.2795  14.7522  14.7614  15.1517  18.3627  20.7940
    22.2868  24.8457  25.6640  26.6768  27.5360  29.7250  29.9733  30.0352
    31.1228  33.8123  34.5196  37.7327  38.6815  40.3518  40.5270  40.8808
    41.1301  44.1353  45.2514  47.1386  47.7197  48.5839  49.8915  51.2735
    52.9095  53.1826  55.0622  57.0033

          k = 0.0000 0.0476-0.1427 (  1010 PWs)   bands (ev):

     8.6367   8.6368  11.2723  11.2724  11.8608  11.8609  11.8732  11.8733
    12.0553  12.0554  12.9156  12.9157  13.7288  13.7288  13.8035  13.8036
    13.8038  13.8038  14.5070  14.5070  14.7507  14.7507  20.1744  20.1745
    23.0784  23.0785  25.5926  25.5927  28.4359  28.4360  31.6211  31.6211
    32.0883  32.0884  35.8646  35.8648  38.8408  38.8408  42.3791  42.3793
    43.1192  43.1193  45.9043  45.9045  50.1625  50.1627  50.2999  50.3000
    52.5429  52.5430  53.3946  53.3947

          k =-0.0000 0.0952 0.0952 (  1009 PWs)   bands (ev):

     8.0845  10.6087  10.6087  11.3660  11.4482  11.6862  11.6862  12.2062
    12.3527  12.3527  12.5263  12.9239  13.4092  13.4826  13.7809  13.9199
    13.9199  14.2836  14.2836  14.4735  14.5505  16.2941  16.2941  19.6150
    22.3362  25.3667  26.9526  26.9527  28.0066  28.0066  31.1261  31.7398
    31.7398  31.8139  33.6668  36.8850  41.4743  41.8742  41.8742  43.1231
    43.3047  43.8262  43.8262  47.3243  47.3738  48.5356  48.5356  51.7498
    52.0799  52.1463  53.4278  55.2670

          k = 0.0000 0.0952-0.1427 (  1020 PWs)   bands (ev):

     9.4352   9.4353  11.2261  11.2262  11.8523  11.8523  11.9677  11.9678
    12.0827  12.0827  12.6056  12.6056  13.5755  13.5755  13.6493  13.6494
    13.7756  13.7756  14.3261  14.3262  15.1759  15.1759  17.6845  17.6845
    24.4469  24.4469  26.3879  26.3880  28.8241  28.8241  29.6375  29.6376
    33.0314  33.0315  36.8294  36.8297  40.3747  40.3748  43.0068  43.0069
    43.2469  43.2470  46.6908  46.6910  48.0212  48.0214  50.3889  50.3890
    51.9006  51.9008  53.4910  53.4911

          k = 0.0000-0.1427-0.1427 (  1024 PWs)   bands (ev):

    10.4466  10.4466  10.4467  10.4467  12.0620  12.0620  12.0620  12.0621
    12.3026  12.3026  12.3026  12.3026  13.4327  13.4327  13.4327  13.4327
    13.9582  13.9583  13.9583  13.9583  16.1222  16.1222  16.1222  16.1222
    26.4117  26.4117  26.4117  26.4118  27.7115  27.7115  27.7116  27.7116
    37.9789  37.9790  37.9790  37.9790  38.4762  38.4764  38.4764  38.4765
    47.0694  47.0695  47.0695  47.0696  49.1937  49.1938  49.1939  49.1940
    51.9353  51.9353  51.9354  51.9354

          k = 0.0476 0.0476 0.0476 (  1021 PWs)   bands (ev):

     6.4531  10.5556  10.5556  10.5556  11.2156  11.2156  11.2156  12.5619
    13.0145  13.0145  13.4038  13.4038  13.4038  13.8729  13.8729  14.1649
    14.1650  14.1650  14.8263  14.8263  14.8263  17.3777  17.3777  17.3777
    25.4654  25.4654  25.4654  26.7745  26.7746  26.7746  31.2022  31.2023
    31.2023  33.5592  36.2734  36.2735  36.2735  39.1058  41.2024  41.2024
    42.9084  42.9085  42.9085  46.5163  47.6177  47.6177  51.8267  51.8267
    55.1955  55.1956  55.1956  56.0711

          k = 0.0476 0.0476 0.0952 (  1020 PWs)   bands (ev):

     7.4505  10.1692  11.0153  11.0153  11.4571  11.4571  11.5130  12.3145
    12.6829  12.6829  12.8484  13.0461  13.1362  13.7778  13.8121  13.8748
    13.8748  14.1486  14.7142  14.7439  14.7439  15.4347  18.7062  18.7062
    22.9248  22.9248  26.7724  27.4014  27.4014  30.4426  30.4426  30.8689
    31.0449  32.7070  36.7317  37.6917  37.9394  38.8323  38.8323  42.3801
    43.5967  44.4991  47.0781  47.0782  47.9385  49.0417  50.2035  50.2035
    50.7173  52.9608  53.0516  55.7909

          k = 0.0476 0.0476-0.1427 (  1006 PWs)   bands (ev):

     8.8928   8.8929  11.4431  11.4431  11.5105  11.5105  11.9234  11.9235
    12.3005  12.3005  12.8286  12.8286  13.3997  13.3997  13.6838  13.6839
    14.3004  14.3005  14.4636  14.4636  14.6962  14.6963  19.7854  19.7854
    21.4574  21.4574  28.3315  28.3315  28.5975  28.5976  29.0515  29.0515
    35.0184  35.0185  35.3987  35.3989  38.1839  38.1841  42.1968  42.1968
    44.8562  44.8563  45.3714  45.3714  49.4141  49.4142  50.8670  50.8670
    52.2337  52.2338  54.0805  54.0805

          k = 0.0476 0.0952 0.0952 (  1008 PWs)   bands (ev):

     8.3366  10.6173  10.6173  11.1292  11.6232  11.7641  11.7641  12.2906
    12.4967  12.4967  12.6216  12.9355  13.0850  13.5387  13.5387  13.5409
    13.9020  14.4628  14.6116  14.6116  14.6284  16.3728  16.3728  18.9056
    21.1551  24.1288  24.1288  28.1150  28.1901  31.2077  31.2077  32.2233
    32.2233  34.0820  35.2776  36.9454  39.3506  39.3506  40.0879  43.1644
    43.7402  44.7417  46.4698  46.4698  49.2621  49.2621  50.3623  50.5932
    50.9148  51.7065  52.3851  52.8668

          k = 0.0476 0.0952-0.1427 (  1016 PWs)   bands (ev):

     9.5576   9.5576  10.9808  10.9808  11.8840  11.8840  12.1240  12.1241
    12.4771  12.4771  12.6646  12.6647  13.2142  13.2143  13.3955  13.3955
    14.2212  14.2212  14.5195  14.5195  15.0691  15.0691  17.6082  17.6083
    22.1273  22.1273  25.8730  25.8730  29.5455  29.5456  33.1064  33.1065
    33.3325  33.3326  36.9283  36.9285  40.1324  40.1325  40.4799  40.4800
    45.1928  45.1929  45.6895  45.6896  47.6973  47.6975  50.6261  50.6262
    51.7436  51.7436  54.0194  54.0196

          k = 0.0476-0.1427-0.1427 (  1016 PWs)   bands (ev):

    10.3346  10.3346  10.3346  10.3346  12.2913  12.2913  12.2913  12.2913
    12.5114  12.5114  12.5114  12.5114  13.1587  13.1587  13.1587  13.1588
    14.2505  14.2505  14.2505  14.2506  15.9967  15.9967  15.9968  15.9968
    23.7189  23.7190  23.7190  23.7190  31.0657  31.0657  31.0658  31.0658
    38.2574  38.2574  38.2575  38.2575  38.3043  38.3044  38.3045  38.3046
    46.5994  46.5994  46.5995  46.5995  46.7976  46.7976  46.7977  46.7977
    54.8910  54.8910  54.8911  54.8911

          k = 0.0952 0.0952 0.0952 (  1009 PWs)   bands (ev):

     9.0018  10.5693  10.5693  10.5693  12.0798  12.0798  12.0798  12.5576
    12.7755  12.7755  12.7755  12.9026  12.9026  13.1760  13.1761  13.1761
    14.3426  14.3426  14.7543  14.7543  14.7543  16.6241  16.6241  16.6241
    21.7573  21.7573  21.7574  25.3848  32.5564  32.5565  32.5565  35.3164
    35.3165  35.3165  37.2974  37.2975  37.2975  37.6290  40.0503  40.0503
    44.4680  44.4680  47.8028  48.0280  48.0280  48.0280  48.1559  48.1559
    48.1559  52.4955  52.4955  52.4955

          k = 0.0952 0.0952-0.1427 (  1012 PWs)   bands (ev):

     9.8272   9.8273  10.5291  10.5291  12.2724  12.2724  12.5859  12.5860
    12.8333  12.8334  12.9365  12.9365  12.9789  12.9789  13.0435  13.0435
    14.6560  14.6560  14.6835  14.6835  14.8816  14.8817  16.8132  16.8132
    20.8269  20.8269  23.2663  23.2663  33.4332  33.4332  34.7245  34.7246
    36.2307  36.2308  37.3304  37.3304  39.0871  39.0872  39.4248  39.4248
    44.6930  44.6930  44.8937  44.8939  46.0391  46.0392  48.5246  48.5246
    49.6751  49.6752  53.1079  53.1079

          k = 0.0952-0.1427-0.1427 (  1016 PWs)   bands (ev):

    10.1413  10.1413  10.1413  10.1413  12.6199  12.6199  12.6199  12.6199
    12.8526  12.8526  12.8527  12.8527  13.2662  13.2663  13.2663  13.2663
    14.5932  14.5932  14.5932  14.5932  15.5056  15.5056  15.5056  15.5056
    21.4960  21.4961  21.4961  21.4961  35.1389  35.1390  35.1390  35.1391
    38.1986  38.1986  38.1987  38.1988  39.0211  39.0212  39.0212  39.0213
    44.1401  44.1402  44.1402  44.1403  45.1637  45.1637  45.1638  45.1639
    50.5283  50.5284  50.5284  50.5284

          k =-0.1427-0.1427-0.1427 (  1064 PWs)   bands (ev):

    10.0560  10.0560  10.0560  10.0560  12.7382  12.7382  12.7382  12.7382
    12.7382  12.7382  12.7382  12.7382  14.1982  14.1983  14.1983  14.1983
    14.7260  14.7260  14.7260  14.7260  14.7260  14.7260  14.7260  14.7260
    20.7045  20.7045  20.7045  20.7046  36.7741  36.7744  36.7744  36.7744
    39.6582  39.6582  39.6583  39.6583  39.6583  39.6583  39.6584  39.6584
    42.8465  42.8465  42.8465  42.8466  42.8466  42.8466  42.8467  42.8467
    48.9049  48.9049  48.9049  48.9049

          k =-0.0476-0.0000 0.0476 (  1015 PWs)   bands (ev):

     6.1044  10.3677  10.3677  10.5573  11.1139  11.1244  11.1244  12.6168
    12.9894  12.9939  13.7039  13.7453  13.7453  13.7574  13.9606  14.3581
    14.4842  14.4842  14.7551  14.7551  14.8258  16.7238  16.7238  18.9723
    24.1673  25.2373  26.4447  26.4447  28.3856  28.3857  28.9867  28.9867
    30.6758  36.1205  36.1509  37.1098  37.1098  37.3605  40.2471  40.2472
    41.1998  42.7046  43.5109  45.1869  46.4388  49.9618  50.3930  53.2838
    53.6515  55.3276  55.3276  56.2578

          k =-0.0476-0.0000 0.0952 (  1020 PWs)   bands (ev):

     7.1343   9.9704  10.8840  11.0023  11.3973  11.4301  11.4715  12.3042
    12.6815  12.8507  13.0445  13.0848  13.2651  13.5862  14.0084  14.0940
    14.1640  14.2502  14.2795  14.7522  14.7614  15.1517  18.3627  20.7940
    22.2869  24.8457  25.6640  26.6768  27.5361  29.7250  29.9733  30.0351
    31.1228  33.8123  34.5196  37.7327  38.6814  40.3518  40.5270  40.8808
    41.1301  44.1353  45.2513  47.1387  47.7196  48.5838  49.8916  51.2734
    52.9096  53.1827  55.0621  57.0034

          k =-0.0952-0.0000 0.0952 (  1009 PWs)   bands (ev):

     8.0845  10.6087  10.6087  11.3660  11.4482  11.6862  11.6862  12.2062
    12.3527  12.3527  12.5263  12.9240  13.4092  13.4826  13.7809  13.9199
    13.9199  14.2836  14.2836  14.4735  14.5505  16.2940  16.2940  19.6150
    22.3362  25.3667  26.9526  26.9526  28.0066  28.0066  31.1261  31.7398
    31.7398  31.8139  33.6667  36.8850  41.4743  41.8742  41.8743  43.1231
    43.3046  43.8262  43.8263  47.3243  47.3738  48.5357  48.5357  51.7499
    52.0799  52.1462  53.4278  55.2671

          k = 0.0476-0.0476 0.0476 (  1021 PWs)   bands (ev):

     6.4531  10.5556  10.5556  10.5556  11.2156  11.2156  11.2156  12.5619
    13.0145  13.0145  13.4038  13.4038  13.4038  13.8729  13.8729  14.1649
    14.1650  14.1650  14.8263  14.8263  14.8263  17.3777  17.3777  17.3777
    25.4654  25.4654  25.4654  26.7746  26.7746  26.7746  31.2021  31.2022
    31.2023  33.5594  36.2734  36.2734  36.2735  39.1058  41.2023  41.2024
    42.9085  42.9086  42.9086  46.5163  47.6177  47.6178  51.8266  51.8267
    55.1955  55.1956  55.1956  56.0711

          k = 0.0476-0.0476 0.0952 (  1020 PWs)   bands (ev):

     7.4505  10.1692  11.0153  11.0153  11.4571  11.4571  11.5131  12.3145
    12.6829  12.6829  12.8484  13.0461  13.1362  13.7777  13.8121  13.8748
    13.8748  14.1486  14.7142  14.7439  14.7439  15.4347  18.7061  18.7062
    22.9248  22.9248  26.7725  27.4014  27.4015  30.4425  30.4426  30.8690
    31.0449  32.7069  36.7316  37.6916  37.9393  38.8322  38.8323  42.3801
    43.5969  44.4990  47.0782  47.0783  47.9385  49.0417  50.2035  50.2036
    50.7172  52.9608  53.0516  55.7908

          k =-0.0952 0.0476 0.0476 (  1020 PWs)   bands (ev):

     7.4506  10.1692  11.0153  11.0153  11.4571  11.4571  11.5130  12.3145
    12.6829  12.6829  12.8484  13.0461  13.1362  13.7778  13.8121  13.8748
    13.8748  14.1486  14.7142  14.7439  14.7439  15.4347  18.7061  18.7062
    22.9248  22.9248  26.7724  27.4014  27.4015  30.4425  30.4425  30.8690
    31.0449  32.7070  36.7317  37.6916  37.9394  38.8322  38.8322  42.3801
    43.5968  44.4989  47.0783  47.0783  47.9384  49.0417  50.2036  50.2036
    50.7172  52.9609  53.0517  55.7909

          k = 0.0476-0.0476-0.1427 (  1006 PWs)   bands (ev):

     8.8928   8.8929  11.4431  11.4431  11.5105  11.5105  11.9234  11.9235
    12.3004  12.3005  12.8286  12.8287  13.3997  13.3997  13.6838  13.6839
    14.3004  14.3005  14.4636  14.4636  14.6962  14.6962  19.7854  19.7854
    21.4574  21.4574  28.3315  28.3315  28.5976  28.5976  29.0515  29.0516
    35.0184  35.0184  35.3986  35.3988  38.1839  38.1840  42.1967  42.1969
    44.8563  44.8564  45.3713  45.3714  49.4141  49.4142  50.8669  50.8670
    52.2337  52.2338  54.0805  54.0805

          k = 0.0952-0.0476 0.0952 (  1008 PWs)   bands (ev):

     8.3366  10.6173  10.6173  11.1292  11.6232  11.7641  11.7641  12.2906
    12.4967  12.4967  12.6216  12.9355  13.0850  13.5387  13.5387  13.5409
    13.9020  14.4628  14.6116  14.6116  14.6284  16.3728  16.3728  18.9056
    21.1551  24.1289  24.1289  28.1151  28.1901  31.2076  31.2077  32.2233
    32.2233  34.0820  35.2775  36.9454  39.3505  39.3505  40.0878  43.1644
    43.7401  44.7417  46.4698  46.4698  49.2622  49.2622  50.3624  50.5933
    50.9147  51.7066  52.3852  52.8669

          k =-0.0952 0.0476 0.0952 (  1008 PWs)   bands (ev):

     8.3366  10.6173  10.6173  11.1292  11.6232  11.7641  11.7641  12.2906
    12.4967  12.4967  12.6216  12.9355  13.0850  13.5387  13.5387  13.5409
    13.9020  14.4628  14.6116  14.6116  14.6284  16.3728  16.3728  18.9057
    21.1551  24.1288  24.1289  28.1151  28.1901  31.2076  31.2077  32.2233
    32.2234  34.0819  35.2776  36.9453  39.3506  39.3506  40.0878  43.1643
    43.7401  44.7416  46.4698  46.4699  49.2622  49.2623  50.3623  50.5932
    50.9148  51.7065  52.3853  52.8669

          k = 0.0952-0.0476-0.1427 (  1016 PWs)   bands (ev):

     9.5576   9.5576  10.9808  10.9808  11.8840  11.8840  12.1240  12.1241
    12.4771  12.4771  12.6646  12.6647  13.2142  13.2143  13.3954  13.3955
    14.2212  14.2212  14.5195  14.5195  15.0691  15.0691  17.6082  17.6083
    22.1272  22.1273  25.8730  25.8731  29.5456  29.5456  33.1063  33.1064
    33.3326  33.3327  36.9283  36.9285  40.1324  40.1325  40.4798  40.4799
    45.1928  45.1928  45.6895  45.6896  47.6974  47.6975  50.6262  50.6262
    51.7437  51.7437  54.0195  54.0196

          k = 0.0952-0.0952 0.0952 (  1009 PWs)   bands (ev):

     9.0018  10.5693  10.5693  10.5693  12.0798  12.0798  12.0798  12.5576
    12.7755  12.7755  12.7755  12.9026  12.9026  13.1760  13.1760  13.1761
    14.3426  14.3426  14.7543  14.7543  14.7543  16.6241  16.6241  16.6241
    21.7573  21.7573  21.7574  25.3848  32.5565  32.5565  32.5566  35.3164
    35.3164  35.3165  37.2973  37.2974  37.2975  37.6290  40.0501  40.0502
    44.4679  44.4679  47.8028  48.0280  48.0281  48.0281  48.1559  48.1559
    48.1560  52.4956  52.4957  52.4957

          k = 0.0952-0.0952-0.1427 (  1012 PWs)   bands (ev):

     9.8273   9.8273  10.5291  10.5291  12.2724  12.2724  12.5859  12.5860
    12.8333  12.8334  12.9364  12.9364  12.9789  12.9789  13.0435  13.0435
    14.6560  14.6560  14.6834  14.6835  14.8816  14.8817  16.8132  16.8132
    20.8269  20.8269  23.2663  23.2664  33.4332  33.4333  34.7246  34.7246
    36.2306  36.2308  37.3303  37.3303  39.0871  39.0872  39.4247  39.4249
    44.6929  44.6930  44.8937  44.8938  46.0390  46.0391  48.5247  48.5247
    49.6751  49.6751  53.1080  53.1080

     the Fermi energy is    14.4989 ev

!    total energy              =    -343.62980547 Ry
     Harris-Foulkes estimate   =    -343.62979813 Ry
     estimated scf accuracy    <          3.0E-12 Ry

     The total energy is the sum of the following terms:

     one-electron contribution =      -6.33997822 Ry
     hartree contribution      =      60.33635515 Ry
     xc contribution           =    -120.51535940 Ry
     ewald contribution        =    -277.06238344 Ry
     Dispersion Correction     =      -0.04786405 Ry
     smearing contrib. (-TS)   =      -0.00057551 Ry

     total magnetization       =     2.84 Bohr mag/cell
     absolute magnetization    =     3.25 Bohr mag/cell

     convergence has been achieved in  18 iterations

     Forces acting on atoms (Ry/au):

     atom    1 type  1   force =     0.00000641    0.00000641   -0.00000587
     atom    2 type  1   force =    -0.00000694   -0.00000694   -0.00000694
     atom    3 type  1   force =     0.00000641   -0.00000587    0.00000641
     atom    4 type  1   force =    -0.00000587    0.00000641    0.00000641

     Total force =     0.000022     Total SCF correction =     0.000002


     entering subroutine stress ...

          total   stress  (Ry/bohr**3)                   (kbar)     P=    0.16
   0.00000108  -0.00000004  -0.00000004          0.16     -0.01     -0.01
  -0.00000004   0.00000108  -0.00000004         -0.01      0.16     -0.01
  -0.00000004  -0.00000004   0.00000108         -0.01     -0.01      0.16


     Writing output data file Ni-ferromag.save

     init_run     :     17.81s CPU     18.31s WALL (       2 calls)
     electrons    :   1544.32s CPU   1595.92s WALL (       6 calls)
     update_pot   :     22.05s CPU     22.13s WALL (       4 calls)
     forces       :     35.56s CPU     35.84s WALL (       6 calls)
     stress       :     71.03s CPU     71.98s WALL (       6 calls)

     Called by init_run:
     wfcinit      :     11.59s CPU     11.99s WALL (       2 calls)
     potinit      :      1.79s CPU      1.83s WALL (       2 calls)

     Called by electrons:
     c_bands      :   1291.80s CPU   1331.80s WALL (      79 calls)
     sum_band     :    207.45s CPU    215.89s WALL (      79 calls)
     v_of_rho     :     23.68s CPU     24.61s WALL (      84 calls)
     newd         :     22.70s CPU     24.72s WALL (      84 calls)
     mix_rho      :      1.25s CPU      1.48s WALL (      79 calls)

     Called by c_bands:
     init_us_2    :      8.81s CPU      9.63s WALL (   11008 calls)
     cegterg      :   1260.74s CPU   1300.34s WALL (    5056 calls)

     Called by sum_band:
     sum_band:bec :      0.84s CPU      0.84s WALL (    5056 calls)
     addusdens    :     33.18s CPU     35.18s WALL (      79 calls)

     Called by *egterg:
     h_psi        :    654.66s CPU    680.42s WALL (   14119 calls)
     s_psi        :     87.94s CPU     88.02s WALL (   14119 calls)
     g_psi        :      3.81s CPU      3.79s WALL (    8935 calls)
     cdiaghg      :    139.53s CPU    139.56s WALL (   13671 calls)

     Called by h_psi:
     add_vuspsi   :     88.01s CPU     88.11s WALL (   14119 calls)

     General routines
     calbec       :    159.56s CPU    159.60s WALL (   21095 calls)
     fft          :      8.12s CPU      8.95s WALL (    2816 calls)
     ffts         :      0.17s CPU      0.19s WALL (     326 calls)
     fftw         :    483.49s CPU    513.30s WALL ( 1430592 calls)
     interpolate  :      1.19s CPU      1.49s WALL (     326 calls)

     Parallel routines
     fft_scatter  :     26.10s CPU     34.59s WALL ( 1433734 calls)

     PWSCF        : 28m13.17s CPU    29m 6.81s WALL


   This run was terminated on:   1:27:15  27May2016            

=------------------------------------------------------------------------------=
   JOB DONE.
=------------------------------------------------------------------------------=
