
     Program PWSCF v.5.3.0 (svn rev. 11974) starts on 27May2016 at  1:27:15 

     This program is part of the open-source Quantum ESPRESSO suite
     for quantum simulation of materials; please cite
         "P. Giannozzi et al., J. Phys.:Condens. Matter 21 395502 (2009);
          URL http://www.quantum-espresso.org", 
     in publications or presentations arising from this work. More details at
     http://www.quantum-espresso.org/quote

     Parallel version (MPI), running on     1 processors
     Waiting for input...
     Reading input from standard input
     Message from routine read_cards :
     DEPRECATED: no units specified in CELL_PARAMETERS card

     Current dimensions of program PWSCF are:
     Max number of different atomic species (ntypx) = 10
     Max number of k-points (npk) =  40000
     Max angular momentum in pseudopotentials (lmaxx) =  3
               file Ni.pbe-nd-rrkjus.UPF: wavefunction(s)  4S renormalized

     -------------------------------------
     Parameters for Dispersion Correction:
     -------------------------------------
       atom      VdW radius       C_6     

        Ni1        3.014        159.927

     Subspace diagonalization in iterative solution of the eigenvalue problem:
     a serial algorithm will be used


     G-vector sticks info
     --------------------
     sticks:   dense  smooth     PW     G-vecs:    dense   smooth      PW
     Sum        1413     561    177                39847    10059    1839

     Generating pointlists ...
     new r_m :   0.4125 (alat units)  0.7795 (a.u.) for type    1

     Title: 
     Ni-ferro-mag                                                               


     bravais-lattice index     =            0
     lattice parameter (alat)  =       1.8897  a.u.
     unit-cell volume          =     295.0010 (a.u.)^3
     number of atoms/cell      =            4
     number of atomic types    =            1
     number of electrons       =        40.00
     number of Kohn-Sham states=           52
     kinetic-energy cutoff     =      40.0000  Ry
     charge density cutoff     =     400.0000  Ry
     convergence threshold     =      1.0E-08
     mixing beta               =       0.2000
     number of iterations used =            8  plain     mixing
     Exchange-correlation      =  SLA  PW   PBE  PBE ( 1  4  3  4 0 0)
     nstep                     =           50


     celldm(1)=   1.889726  celldm(2)=   0.000000  celldm(3)=   0.000000
     celldm(4)=   0.000000  celldm(5)=   0.000000  celldm(6)=   0.000000

     crystal axes: (cart. coord. in units of alat)
               a(1) = (   3.522700   0.000000   0.000000 )  
               a(2) = (   0.000000   3.522700   0.000000 )  
               a(3) = (   0.000000   0.000000   3.522700 )  

     reciprocal axes: (cart. coord. in units 2 pi/alat)
               b(1) = (  0.283873  0.000000  0.000000 )  
               b(2) = (  0.000000  0.283873  0.000000 )  
               b(3) = (  0.000000  0.000000  0.283873 )  


     PseudoPot. # 1 for Ni read from file:
     /home/eliot/pseudo/Ni.pbe-nd-rrkjus.UPF
     MD5 check sum: 8081f0a005c9a5470caab1a58e82ecb2
     Pseudo is Ultrasoft + core correction, Zval = 10.0
     Generated by new atomic code, or converted to UPF format
     Using radial grid of 1203 points,  6 beta functions with: 
                l(1) =   0
                l(2) =   0
                l(3) =   1
                l(4) =   1
                l(5) =   2
                l(6) =   2
     Q(r) pseudized with 0 coefficients 


     atomic species   valence    mass     pseudopotential
        Ni1           10.00    58.69340     Ni( 1.00)

     Starting magnetic structure 
     atomic species   magnetization
        Ni1          0.500

      6 Sym. Ops. (no inversion) found



   Cartesian axes

     site n.     atom                  positions (alat units)
         1           Ni1 tau(   1) = (   1.7691699   1.7691699   0.0000000  )
         2           Ni1 tau(   2) = (   0.0000000   0.0000000   0.0000000  )
         3           Ni1 tau(   3) = (   1.7691699   0.0000000   1.7691699  )
         4           Ni1 tau(   4) = (   0.0000000   1.7691699   1.7691699  )

     number of k points=    32  Methfessel-Paxton smearing, width (Ry)=  0.0500
                       cart. coord. in units 2pi/alat
        k(    1) = (   0.0000000   0.0000000   0.0000000), wk =   0.0046296
        k(    2) = (   0.0000000   0.0000000   0.0473122), wk =   0.0277778
        k(    3) = (   0.0000000   0.0000000   0.0946244), wk =   0.0277778
        k(    4) = (   0.0000000   0.0000000  -0.1419366), wk =   0.0138889
        k(    5) = (   0.0000000   0.0473122   0.0473122), wk =   0.0277778
        k(    6) = (   0.0000000   0.0473122   0.0946244), wk =   0.0555556
        k(    7) = (   0.0000000   0.0473122  -0.1419366), wk =   0.0555556
        k(    8) = (   0.0000000   0.0946244   0.0946244), wk =   0.0277778
        k(    9) = (   0.0000000   0.0946244  -0.1419366), wk =   0.0555556
        k(   10) = (   0.0000000  -0.1419366  -0.1419366), wk =   0.0138889
        k(   11) = (   0.0473122   0.0473122   0.0473122), wk =   0.0092593
        k(   12) = (   0.0473122   0.0473122   0.0946244), wk =   0.0277778
        k(   13) = (   0.0473122   0.0473122  -0.1419366), wk =   0.0277778
        k(   14) = (   0.0473122   0.0946244   0.0946244), wk =   0.0277778
        k(   15) = (   0.0473122   0.0946244  -0.1419366), wk =   0.0555556
        k(   16) = (   0.0473122  -0.1419366  -0.1419366), wk =   0.0277778
        k(   17) = (   0.0946244   0.0946244   0.0946244), wk =   0.0092593
        k(   18) = (   0.0946244   0.0946244  -0.1419366), wk =   0.0277778
        k(   19) = (   0.0946244  -0.1419366  -0.1419366), wk =   0.0277778
        k(   20) = (  -0.1419366  -0.1419366  -0.1419366), wk =   0.0046296
        k(   21) = (  -0.0473122   0.0000000   0.0473122), wk =   0.0277778
        k(   22) = (  -0.0473122   0.0000000   0.0946244), wk =   0.0555556
        k(   23) = (  -0.0946244   0.0000000   0.0946244), wk =   0.0277778
        k(   24) = (   0.0473122  -0.0473122   0.0473122), wk =   0.0277778
        k(   25) = (   0.0473122  -0.0473122   0.0946244), wk =   0.0555556
        k(   26) = (  -0.0946244   0.0473122   0.0473122), wk =   0.0277778
        k(   27) = (   0.0473122  -0.0473122  -0.1419366), wk =   0.0277778
        k(   28) = (   0.0946244  -0.0473122   0.0946244), wk =   0.0277778
        k(   29) = (  -0.0946244   0.0473122   0.0946244), wk =   0.0555556
        k(   30) = (   0.0946244  -0.0473122  -0.1419366), wk =   0.0555556
        k(   31) = (   0.0946244  -0.0946244   0.0946244), wk =   0.0277778
        k(   32) = (   0.0946244  -0.0946244  -0.1419366), wk =   0.0277778

     Dense  grid:    39847 G-vectors     FFT dimensions: (  45,  45,  45)

     Smooth grid:    10059 G-vectors     FFT dimensions: (  27,  27,  27)

     Largest allocated arrays     est. size (Mb)     dimensions
        Kohn-Sham Wavefunctions         1.05 Mb     (    1328,   52)
        NL pseudopotentials             1.46 Mb     (    1328,   72)
        Each V/rho on FFT grid          2.78 Mb     (   91125,   2)
        Each G-vector array             0.30 Mb     (   39847)
        G-vector shells                 0.30 Mb     (   39847)
     Largest temporary arrays     est. size (Mb)     dimensions
        Auxiliary wavefunctions         4.21 Mb     (    1328,  208)
        Each subspace H/S matrix        0.66 Mb     (     208,  208)
        Each <psi_i|beta_j> matrix      0.06 Mb     (      72,   52)
        Arrays for rho mixing          11.12 Mb     (   91125,    8)

     Check: negative/imaginary core charge=   -0.000005    0.000000

     Initial potential from superposition of free atoms

     starting charge   39.99816, renormalised to   40.00000
     Starting wfc are   24 randomized atomic wfcs +   28 random wfc

     total cpu time spent up to now is       12.1 secs

     Self-consistent Calculation

     iteration #  1     ecut=    40.00 Ry     beta=0.20
     Davidson diagonalization with overlap
     ethr =  1.00E-02,  avg # of iterations =  6.1

     total cpu time spent up to now is       65.2 secs

     total energy              =    -342.90132576 Ry
     Harris-Foulkes estimate   =    -343.18529748 Ry
     estimated scf accuracy    <       2.43727826 Ry

     total magnetization       =     6.92 Bohr mag/cell
     absolute magnetization    =     6.92 Bohr mag/cell

     iteration #  2     ecut=    40.00 Ry     beta=0.20
     Davidson diagonalization with overlap
     ethr =  6.09E-03,  avg # of iterations =  1.0

     total cpu time spent up to now is       85.7 secs

     total energy              =    -343.20619561 Ry
     Harris-Foulkes estimate   =    -343.04065452 Ry
     estimated scf accuracy    <       0.77202185 Ry

     total magnetization       =     5.77 Bohr mag/cell
     absolute magnetization    =     5.87 Bohr mag/cell

     iteration #  3     ecut=    40.00 Ry     beta=0.20
     Davidson diagonalization with overlap
     ethr =  1.93E-03,  avg # of iterations =  1.7

     total cpu time spent up to now is      106.8 secs

     total energy              =    -343.53449032 Ry
     Harris-Foulkes estimate   =    -343.27828310 Ry
     estimated scf accuracy    <       0.36091172 Ry

     total magnetization       =     4.53 Bohr mag/cell
     absolute magnetization    =     4.85 Bohr mag/cell

     iteration #  4     ecut=    40.00 Ry     beta=0.20
     Davidson diagonalization with overlap
     ethr =  9.02E-04,  avg # of iterations =  1.6

     total cpu time spent up to now is      127.9 secs

     total energy              =    -343.61805896 Ry
     Harris-Foulkes estimate   =    -343.65154999 Ry
     estimated scf accuracy    <       0.12732361 Ry

     total magnetization       =     2.54 Bohr mag/cell
     absolute magnetization    =     3.17 Bohr mag/cell

     iteration #  5     ecut=    40.00 Ry     beta=0.20
     Davidson diagonalization with overlap
     ethr =  3.18E-04,  avg # of iterations =  1.0

     total cpu time spent up to now is      148.4 secs

     total energy              =    -343.62202132 Ry
     Harris-Foulkes estimate   =    -343.62746461 Ry
     estimated scf accuracy    <       0.01821003 Ry

     total magnetization       =     2.62 Bohr mag/cell
     absolute magnetization    =     3.23 Bohr mag/cell

     iteration #  6     ecut=    40.00 Ry     beta=0.20
     Davidson diagonalization with overlap
     ethr =  4.55E-05,  avg # of iterations =  3.6

     total cpu time spent up to now is      171.7 secs

     total energy              =    -343.62589830 Ry
     Harris-Foulkes estimate   =    -343.62665676 Ry
     estimated scf accuracy    <       0.00191517 Ry

     total magnetization       =     2.71 Bohr mag/cell
     absolute magnetization    =     3.31 Bohr mag/cell

     iteration #  7     ecut=    40.00 Ry     beta=0.20
     Davidson diagonalization with overlap
     ethr =  4.79E-06,  avg # of iterations =  4.3

     total cpu time spent up to now is      195.9 secs

     total energy              =    -343.62884052 Ry
     Harris-Foulkes estimate   =    -343.62774077 Ry
     estimated scf accuracy    <       0.00168408 Ry

     total magnetization       =     3.03 Bohr mag/cell
     absolute magnetization    =     3.52 Bohr mag/cell

     iteration #  8     ecut=    40.00 Ry     beta=0.20
     Davidson diagonalization with overlap
     ethr =  4.21E-06,  avg # of iterations =  1.1

     total cpu time spent up to now is      216.5 secs

     total energy              =    -343.62926806 Ry
     Harris-Foulkes estimate   =    -343.62918377 Ry
     estimated scf accuracy    <       0.00007304 Ry

     total magnetization       =     2.91 Bohr mag/cell
     absolute magnetization    =     3.37 Bohr mag/cell

     iteration #  9     ecut=    40.00 Ry     beta=0.20
     Davidson diagonalization with overlap
     ethr =  1.83E-07,  avg # of iterations =  1.5

     total cpu time spent up to now is      237.5 secs

     total energy              =    -343.62932891 Ry
     Harris-Foulkes estimate   =    -343.62929851 Ry
     estimated scf accuracy    <       0.00003925 Ry

     total magnetization       =     2.87 Bohr mag/cell
     absolute magnetization    =     3.32 Bohr mag/cell

     iteration # 10     ecut=    40.00 Ry     beta=0.20
     Davidson diagonalization with overlap
     ethr =  9.81E-08,  avg # of iterations =  1.0

     total cpu time spent up to now is      258.0 secs

     total energy              =    -343.62937751 Ry
     Harris-Foulkes estimate   =    -343.62934220 Ry
     estimated scf accuracy    <       0.00001739 Ry

     total magnetization       =     2.89 Bohr mag/cell
     absolute magnetization    =     3.33 Bohr mag/cell

     iteration # 11     ecut=    40.00 Ry     beta=0.20
     Davidson diagonalization with overlap
     ethr =  4.35E-08,  avg # of iterations =  1.0

     total cpu time spent up to now is      278.4 secs

     total energy              =    -343.62940340 Ry
     Harris-Foulkes estimate   =    -343.62938472 Ry
     estimated scf accuracy    <       0.00000217 Ry

     total magnetization       =     2.88 Bohr mag/cell
     absolute magnetization    =     3.31 Bohr mag/cell

     iteration # 12     ecut=    40.00 Ry     beta=0.20
     Davidson diagonalization with overlap
     ethr =  5.43E-09,  avg # of iterations =  1.0

     total cpu time spent up to now is      298.9 secs

     total energy              =    -343.62941665 Ry
     Harris-Foulkes estimate   =    -343.62940447 Ry
     estimated scf accuracy    <       0.00000034 Ry

     total magnetization       =     2.87 Bohr mag/cell
     absolute magnetization    =     3.30 Bohr mag/cell

     iteration # 13     ecut=    40.00 Ry     beta=0.20
     Davidson diagonalization with overlap
     ethr =  8.50E-10,  avg # of iterations =  1.9

     Magnetic moment per site:
     atom:    1    charge:    3.0543    magn:    0.3440    constr:    0.0000
     atom:    2    charge:    3.0526    magn:    0.3438    constr:    0.0000
     atom:    3    charge:    3.0543    magn:    0.3440    constr:    0.0000
     atom:    4    charge:    3.0543    magn:    0.3440    constr:    0.0000

     total cpu time spent up to now is      320.2 secs

     End of self-consistent calculation

 ------ SPIN UP ------------


          k = 0.0000 0.0000 0.0000 (  1237 PWs)   bands (ev):

     5.2288   9.4937   9.4937   9.4937   9.9341   9.9347   9.9347  11.6677
    11.6677  11.6677  12.8174  12.8174  13.5173  13.5173  13.5173  13.6029
    13.6029  13.6029  13.6032  13.6032  13.6032  16.7427  16.7430  16.7430
    23.3392  23.3392  23.3392  29.0912  29.0912  29.0912  29.0914  29.0914
    29.0914  34.1029  34.1029  34.1033  37.3464  37.3465  37.3465  38.0317
    41.8749  41.8749  41.8749  45.3857  45.3857  45.3857  47.5699  54.3402
    54.3402  54.3402  57.2629  58.5626

          k = 0.0000 0.0000 0.0473 (  1273 PWs)   bands (ev):

     5.5905   9.5130   9.6741   9.6741  10.0422  10.0574  10.0578  11.5427
    11.7675  11.7675  12.7022  12.8624  12.9701  12.9703  13.3675  13.3676
    13.4325  13.4325  13.4691  13.6034  13.6035  15.1467  17.6790  17.6791
    23.4381  23.4382  25.5829  27.3494  27.3496  27.9635  27.9635  29.6428
    29.6428  34.2213  36.2645  36.2647  37.3771  37.4769  39.2930  39.2930
    39.6490  39.6490  40.3561  46.8140  47.4742  47.4742  48.4059  50.8798
    55.3999  55.3999  55.9782  55.9787

          k = 0.0000 0.0000 0.0946 (  1246 PWs)   bands (ev):

     6.6278   9.2771  10.1019  10.1019  10.3422  10.4307  10.4313  11.2083
    11.9399  11.9406  12.0566  12.0566  12.4233  12.9884  12.9902  12.9902
    13.0032  13.0150  13.0150  13.3385  13.6040  13.6040  19.6088  19.6090
    23.7665  23.7665  24.5997  24.5998  26.1891  26.1891  29.8638  31.1978
    31.1978  34.5912  36.2208  36.4518  36.4518  37.8324  38.0187  40.2808
    40.2812  43.3970  43.4280  43.4281  50.2437  50.3928  50.3928  50.4112
    50.4112  54.3361  55.2895  55.2896

          k = 0.0000 0.0000-0.1419 (  1238 PWs)   bands (ev):

     8.1032   8.1259  10.3723  10.3723  10.7499  10.7817  11.0466  11.0469
    11.0783  11.0785  12.2293  12.2737  12.4848  12.4848  12.5087  12.5087
    12.7598  12.7598  13.1533  13.1709  13.6042  13.6042  21.9355  21.9357
    21.9918  21.9919  24.1633  24.1633  25.2228  25.2228  33.5226  33.5226
    33.5627  33.5627  34.3681  34.4504  35.2406  35.2592  39.5039  39.6346
    44.9901  44.9903  45.1033  45.1036  46.9031  46.9031  51.5796  51.5797
    53.4702  53.4702  53.5754  53.5754

          k = 0.0000 0.0473 0.0473 (  1269 PWs)   bands (ev):

     5.9438   9.7075   9.7076   9.8335  10.1564  10.1569  10.1702  11.4846
    11.8114  11.8281  12.6326  12.6668  12.6891  12.7014  12.8589  13.2432
    13.3641  13.3641  13.4308  13.4311  13.4909  16.0553  16.0553  18.4342
    23.4483  24.6343  25.7738  25.7741  27.8190  27.8190  28.4464  28.4471
    30.1618  35.4712  35.5996  36.4731  36.4735  36.7724  39.4620  39.4625
    40.7142  41.9453  42.9236  44.6230  45.6822  49.0071  49.8080  52.2858
    53.0124  54.6592  54.6604  55.6132

          k = 0.0000 0.0473 0.0946 (  1263 PWs)   bands (ev):

     6.9541   9.5094  10.1801  10.2278  10.4313  10.4837  10.5017  11.2116
    11.7069  11.8430  11.9546  12.0679  12.0954  12.5172  12.9283  12.9943
    13.0175  13.0347  13.1834  13.4267  13.4345  14.1032  17.6423  20.1895
    21.6671  24.1311  25.0543  26.0848  26.8877  29.1160  29.4126  29.4656
    30.4855  33.2008  33.9306  37.1254  38.0552  39.8314  40.0109  40.0865
    40.5357  43.3650  44.2798  46.3637  47.1628  47.9224  49.2238  50.6752
    52.2593  52.6006  54.0680  55.5633

          k = 0.0000 0.0473-0.1419 (  1256 PWs)   bands (ev):

     8.3824   8.4037  10.5202  10.5217  10.7999  10.8306  10.9205  10.9464
    11.0614  11.0921  11.8704  11.9032  12.4853  12.5096  12.7169  12.7276
    12.7450  12.7464  13.3410  13.3413  13.4229  13.4278  19.4747  19.5033
    22.4302  22.4809  24.9251  24.9622  27.8059  27.8175  30.9773  30.9950
    31.5016  31.5143  35.2394  35.3348  38.2681  38.2759  41.4787  41.5584
    42.4884  42.5171  45.2676  45.3747  49.3013  49.3987  49.6802  49.7256
    51.9271  51.9620  52.4903  52.5202

          k = 0.0000 0.0946 0.0946 (  1276 PWs)   bands (ev):

     7.8713  10.0872  10.0874  10.4490  10.6916  10.6929  10.7104  11.1442
    11.3845  11.3847  11.5356  11.8464  12.1951  12.4334  12.7183  12.8680
    12.8686  13.0037  13.0041  13.1693  13.3798  15.3278  15.3278  18.9092
    21.6946  24.6822  26.3096  26.3096  27.4158  27.4164  30.4798  31.1097
    31.1160  31.2278  33.0657  36.2836  40.9619  41.2945  41.2948  42.4393
    42.8503  43.1212  43.1213  46.4566  46.6563  47.7852  47.7861  50.9493
    51.5040  51.5323  52.4729  54.6627

          k = 0.0000 0.0946-0.1419 (  1264 PWs)   bands (ev):

     9.1196   9.1371  10.5389  10.5588  10.9221  10.9414  10.9569  10.9641
    11.0810  11.1097  11.5791  11.6006  12.5194  12.5354  12.5370  12.5432
    12.6037  12.6068  13.0302  13.0449  14.0250  14.0288  16.8296  16.8521
    23.7739  23.8126  25.7335  25.7635  28.1578  28.1768  29.0388  29.0418
    32.4127  32.4199  36.1868  36.2793  39.7707  39.7899  42.4553  42.4737
    42.5828  42.5915  46.0744  46.1618  47.1866  47.2391  49.7388  49.7872
    50.9668  51.0473  52.8761  52.8976

          k = 0.0000-0.1419-0.1419 (  1260 PWs)   bands (ev):

     9.9596   9.9746   9.9746   9.9892  11.0299  11.0572  11.0572  11.0843
    11.3545  11.3623  11.3624  11.3699  12.3909  12.3934  12.3934  12.3964
    12.6760  12.6986  12.6986  12.7209  15.0692  15.0798  15.0798  15.0906
    25.7171  25.7443  25.7443  25.7710  27.0761  27.0937  27.0937  27.1122
    37.2715  37.2973  37.2973  37.3243  37.9214  37.9546  37.9546  37.9833
    46.5751  46.5751  46.5765  46.5769  48.4733  48.5221  48.5221  48.5704
    51.0315  51.0350  51.0350  51.0376

          k = 0.0473 0.0473 0.0473 (  1274 PWs)   bands (ev):

     6.2857   9.8648   9.8649   9.8649  10.2681  10.2688  10.2688  11.4510
    11.8471  11.8471  12.3930  12.3930  12.3931  12.7741  12.7741  13.0152
    13.0157  13.0157  13.5437  13.5437  13.5439  16.6709  16.6711  16.6711
    24.8802  24.8805  24.8805  26.1047  26.1047  26.1050  30.6689  30.6693
    30.6693  32.9602  35.6031  35.6031  35.6035  38.7560  40.5188  40.5188
    42.1518  42.1518  42.1518  45.9791  47.0126  47.0126  50.8241  50.8241
    54.4940  54.5258  54.5269  54.5270

          k = 0.0473 0.0473 0.0946 (  1265 PWs)   bands (ev):

     7.2569   9.6658  10.2383  10.2386  10.5468  10.5760  10.5763  11.2475
    11.6973  11.6974  11.8833  11.9301  11.9840  12.6227  12.6905  12.7761
    12.7782  13.0081  13.4489  13.4489  13.4810  14.4606  17.9948  17.9949
    22.2749  22.2750  26.1513  26.7614  26.7615  29.8504  29.8506  30.2392
    30.4437  32.1272  36.0793  37.2599  37.2729  38.2145  38.2145  41.7460
    42.8381  43.8283  46.3361  46.3362  47.1857  48.4375  49.5265  49.5266
    50.0035  52.3491  52.3822  54.8125

          k = 0.0473 0.0473-0.1419 (  1250 PWs)   bands (ev):

     8.6091   8.6280  10.6122  10.6135  10.6769  10.6772  10.8957  10.9244
    11.3140  11.3141  11.7775  11.8097  12.2445  12.2555  12.6128  12.6133
    13.1630  13.1856  13.2739  13.2788  13.3945  13.3945  19.1395  19.1396
    20.7160  20.7161  27.7374  27.7419  27.9501  27.9662  28.4074  28.4142
    34.3667  34.4004  34.8815  34.9465  37.4632  37.5312  41.6082  41.6082
    44.0548  44.0899  44.7352  44.7356  48.8125  48.8629  50.2189  50.2367
    51.4402  51.4404  52.9855  52.9962

          k = 0.0473 0.0946 0.0946 (  1245 PWs)   bands (ev):

     8.0889   9.9781   9.9784  10.2611  10.8589  10.9016  10.9020  11.2917
    11.4980  11.4983  11.6289  11.8481  11.9695  12.4357  12.4361  12.4528
    12.7479  13.2878  13.3525  13.3696  13.3715  15.4603  15.4603  18.2542
    20.3728  23.4551  23.4551  27.4485  27.5770  30.6441  30.6442  31.5792
    31.5796  33.4736  34.7093  36.3570  38.7464  38.7467  39.6113  42.3607
    43.1198  44.1748  45.8101  45.8101  48.4893  48.4897  49.7497  49.9118
    50.2283  50.8634  51.5928  52.2451

          k = 0.0473 0.0946-0.1419 (  1254 PWs)   bands (ev):

     9.1597   9.1716  10.1938  10.1973  11.0662  11.0673  11.1970  11.2202
    11.5012  11.5109  11.6138  11.6349  12.1112  12.1192  12.3189  12.3240
    13.0324  13.0414  13.2532  13.2625  13.9349  13.9383  16.8166  16.8350
    21.3769  21.3916  25.1924  25.2032  28.9395  28.9471  32.5182  32.5232
    32.7135  32.7204  36.3143  36.3907  39.5534  39.5707  39.8414  39.8543
    44.5563  44.5628  45.0265  45.0620  47.0326  47.0511  49.8456  49.8758
    51.1009  51.1191  53.1396  53.1682

          k = 0.0473-0.1419-0.1419 (  1256 PWs)   bands (ev):

     9.7273   9.7327   9.7327   9.7373  11.4377  11.4455  11.4455  11.4525
    11.5176  11.5329  11.5329  11.5488  12.0801  12.0879  12.0879  12.0958
    13.0052  13.0193  13.0193  13.0335  14.9845  14.9962  14.9962  15.0080
    22.9925  23.0040  23.0040  23.0155  30.4665  30.4687  30.4687  30.4714
    37.5521  37.5728  37.5728  37.5987  37.7773  37.8083  37.8083  37.8314
    46.0267  46.0267  46.0308  46.0345  46.0631  46.0943  46.0943  46.1142
    54.0031  54.0208  54.0212  54.0454

          k = 0.0946 0.0946 0.0946 (  1253 PWs)   bands (ev):

     8.6326   9.8165   9.8171   9.8171  11.2525  11.2531  11.2531  11.7523
    11.8037  11.8037  11.8137  11.8226  11.8226  12.0909  12.0909  12.0915
    13.1393  13.1393  13.4940  13.4940  13.4942  15.8439  15.8440  15.8440
    20.9744  20.9744  20.9745  24.6863  31.9921  31.9921  31.9925  34.6850
    34.6853  34.6853  36.7187  36.7187  36.7193  37.3226  39.3293  39.3293
    43.8092  43.8092  47.0941  47.4197  47.4197  47.4214  47.4671  47.4674
    47.4674  51.6991  51.6998  51.6998

          k = 0.0946 0.0946-0.1419 (  1266 PWs)   bands (ev):

     9.2558   9.2592   9.7497   9.7501  11.3683  11.3686  11.6376  11.6553
    11.8552  11.8577  11.9695  11.9743  11.9870  12.0045  12.0910  12.0917
    13.4153  13.4171  13.4241  13.4256  13.8340  13.8354  16.1346  16.1347
    19.9444  19.9445  22.5147  22.5257  32.9199  32.9200  34.0588  34.0594
    35.8360  35.8674  36.6522  36.6703  38.3530  38.4070  38.8755  38.8756
    44.0044  44.0047  44.2661  44.2925  45.3602  45.3662  47.8937  47.8937
    48.8851  48.8967  52.2423  52.2441

          k = 0.0946-0.1419-0.1419 (  1268 PWs)   bands (ev):

     9.4336   9.4343   9.4343   9.4344  11.6018  11.6067  11.6067  11.6109
    11.7860  11.7909  11.7909  11.7960  12.5209  12.5309  12.5309  12.5410
    13.3390  13.3466  13.3467  13.3544  14.6262  14.6395  14.6395  14.6527
    20.6465  20.6558  20.6558  20.6651  34.6425  34.6457  34.6458  34.6492
    37.6578  37.6718  37.6718  37.6868  38.3186  38.3344  38.3344  38.3475
    43.4402  43.4518  43.4518  43.4629  44.5179  44.5206  44.5206  44.5228
    49.6886  49.6936  49.6936  49.6998

          k =-0.1419-0.1419-0.1419 (  1328 PWs)   bands (ev):

     9.3209   9.3215   9.3215   9.3216  11.6818  11.6818  11.6818  11.6820
    11.6820  11.6825  11.6825  11.6825  13.4697  13.4697  13.4697  13.4706
    13.4706  13.4707  13.4707  13.4708  14.0046  14.0054  14.0054  14.0054
    19.7739  19.7739  19.7739  19.7741  36.4959  36.4961  36.4961  36.4961
    38.9594  38.9594  38.9596  38.9596  38.9596  38.9605  38.9605  38.9605
    42.1772  42.1772  42.1774  42.1774  42.1774  42.1778  42.1778  42.1778
    48.0467  48.0467  48.0467  48.0470

          k =-0.0473 0.0000 0.0473 (  1269 PWs)   bands (ev):

     5.9438   9.7075   9.7076   9.8335  10.1564  10.1569  10.1702  11.4846
    11.8114  11.8281  12.6326  12.6668  12.6891  12.7014  12.8589  13.2432
    13.3640  13.3641  13.4308  13.4311  13.4909  16.0553  16.0553  18.4342
    23.4483  24.6343  25.7738  25.7741  27.8190  27.8190  28.4464  28.4471
    30.1618  35.4712  35.5996  36.4731  36.4735  36.7724  39.4619  39.4626
    40.7142  41.9453  42.9236  44.6230  45.6822  49.0071  49.8080  52.2858
    53.0124  54.6592  54.6603  55.6132

          k =-0.0473 0.0000 0.0946 (  1263 PWs)   bands (ev):

     6.9541   9.5094  10.1801  10.2278  10.4313  10.4837  10.5017  11.2116
    11.7069  11.8430  11.9546  12.0679  12.0954  12.5172  12.9283  12.9943
    13.0175  13.0347  13.1834  13.4267  13.4345  14.1032  17.6423  20.1895
    21.6671  24.1311  25.0543  26.0848  26.8877  29.1160  29.4126  29.4656
    30.4855  33.2008  33.9306  37.1254  38.0552  39.8314  40.0109  40.0865
    40.5357  43.3650  44.2798  46.3637  47.1628  47.9224  49.2238  50.6752
    52.2593  52.6006  54.0680  55.5633

          k =-0.0946 0.0000 0.0946 (  1276 PWs)   bands (ev):

     7.8713  10.0872  10.0874  10.4490  10.6916  10.6929  10.7104  11.1442
    11.3845  11.3847  11.5356  11.8464  12.1951  12.4334  12.7183  12.8680
    12.8686  13.0037  13.0041  13.1693  13.3798  15.3278  15.3278  18.9092
    21.6946  24.6822  26.3095  26.3096  27.4157  27.4164  30.4798  31.1097
    31.1159  31.2278  33.0657  36.2836  40.9619  41.2945  41.2948  42.4393
    42.8503  43.1212  43.1212  46.4566  46.6563  47.7852  47.7861  50.9492
    51.5040  51.5323  52.4729  54.6538

          k = 0.0473-0.0473 0.0473 (  1274 PWs)   bands (ev):

     6.2857   9.8648   9.8649   9.8649  10.2681  10.2688  10.2688  11.4510
    11.8471  11.8471  12.3930  12.3930  12.3931  12.7741  12.7741  13.0152
    13.0157  13.0157  13.5437  13.5438  13.5439  16.6709  16.6711  16.6711
    24.8802  24.8804  24.8805  26.1047  26.1047  26.1050  30.6689  30.6692
    30.6693  32.9602  35.6031  35.6031  35.6036  38.7560  40.5188  40.5188
    42.1518  42.1518  42.1518  45.9791  47.0126  47.0126  50.8241  50.8241
    54.4940  54.5260  54.5269  54.5271

          k = 0.0473-0.0473 0.0946 (  1265 PWs)   bands (ev):

     7.2569   9.6658  10.2383  10.2386  10.5468  10.5760  10.5763  11.2475
    11.6973  11.6974  11.8833  11.9301  11.9840  12.6227  12.6905  12.7761
    12.7782  13.0081  13.4489  13.4489  13.4810  14.4606  17.9948  17.9949
    22.2749  22.2750  26.1513  26.7614  26.7615  29.8504  29.8506  30.2392
    30.4437  32.1272  36.0793  37.2599  37.2729  38.2144  38.2145  41.7460
    42.8381  43.8283  46.3361  46.3362  47.1857  48.4375  49.5265  49.5267
    50.0035  52.3491  52.3822  54.8125

          k =-0.0946 0.0473 0.0473 (  1265 PWs)   bands (ev):

     7.2569   9.6658  10.2383  10.2386  10.5468  10.5760  10.5763  11.2475
    11.6973  11.6974  11.8833  11.9301  11.9840  12.6227  12.6905  12.7761
    12.7782  13.0081  13.4489  13.4489  13.4810  14.4606  17.9948  17.9949
    22.2749  22.2750  26.1513  26.7614  26.7615  29.8504  29.8506  30.2392
    30.4437  32.1272  36.0793  37.2599  37.2729  38.2145  38.2145  41.7460
    42.8381  43.8283  46.3361  46.3362  47.1857  48.4375  49.5265  49.5266
    50.0035  52.3491  52.3822  54.8126

          k = 0.0473-0.0473-0.1419 (  1250 PWs)   bands (ev):

     8.6091   8.6280  10.6122  10.6135  10.6769  10.6772  10.8957  10.9244
    11.3140  11.3141  11.7775  11.8097  12.2445  12.2555  12.6128  12.6133
    13.1630  13.1856  13.2739  13.2788  13.3945  13.3945  19.1395  19.1396
    20.7160  20.7160  27.7374  27.7419  27.9501  27.9662  28.4074  28.4142
    34.3667  34.4004  34.8815  34.9465  37.4632  37.5312  41.6081  41.6083
    44.0548  44.0899  44.7352  44.7356  48.8125  48.8629  50.2189  50.2367
    51.4402  51.4405  52.9856  52.9961

          k = 0.0946-0.0473 0.0946 (  1245 PWs)   bands (ev):

     8.0889   9.9781   9.9784  10.2611  10.8589  10.9016  10.9020  11.2917
    11.4980  11.4983  11.6289  11.8481  11.9695  12.4357  12.4361  12.4528
    12.7479  13.2878  13.3525  13.3696  13.3715  15.4603  15.4603  18.2542
    20.3728  23.4551  23.4551  27.4485  27.5770  30.6441  30.6442  31.5792
    31.5796  33.4736  34.7093  36.3570  38.7464  38.7467  39.6113  42.3607
    43.1198  44.1748  45.8101  45.8101  48.4893  48.4898  49.7497  49.9118
    50.2283  50.8634  51.5928  52.2451

          k =-0.0946 0.0473 0.0946 (  1245 PWs)   bands (ev):

     8.0889   9.9781   9.9784  10.2611  10.8589  10.9016  10.9020  11.2917
    11.4980  11.4983  11.6289  11.8481  11.9695  12.4356  12.4361  12.4528
    12.7479  13.2878  13.3525  13.3696  13.3715  15.4603  15.4603  18.2542
    20.3728  23.4551  23.4551  27.4485  27.5770  30.6440  30.6442  31.5792
    31.5796  33.4736  34.7093  36.3570  38.7464  38.7467  39.6113  42.3607
    43.1198  44.1748  45.8101  45.8101  48.4893  48.4898  49.7497  49.9118
    50.2283  50.8634  51.5928  52.2451

          k = 0.0946-0.0473-0.1419 (  1254 PWs)   bands (ev):

     9.1597   9.1716  10.1938  10.1973  11.0662  11.0673  11.1970  11.2202
    11.5012  11.5109  11.6138  11.6349  12.1112  12.1192  12.3189  12.3240
    13.0324  13.0414  13.2532  13.2625  13.9349  13.9383  16.8166  16.8350
    21.3769  21.3916  25.1924  25.2032  28.9395  28.9471  32.5182  32.5232
    32.7135  32.7204  36.3143  36.3907  39.5534  39.5707  39.8414  39.8543
    44.5563  44.5628  45.0265  45.0620  47.0326  47.0511  49.8456  49.8758
    51.1009  51.1191  53.1396  53.1682

          k = 0.0946-0.0946 0.0946 (  1253 PWs)   bands (ev):

     8.6326   9.8165   9.8171   9.8171  11.2525  11.2531  11.2531  11.7523
    11.8037  11.8037  11.8137  11.8226  11.8226  12.0909  12.0909  12.0914
    13.1393  13.1393  13.4940  13.4940  13.4941  15.8439  15.8440  15.8440
    20.9744  20.9744  20.9745  24.6863  31.9920  31.9921  31.9925  34.6850
    34.6853  34.6853  36.7187  36.7187  36.7193  37.3226  39.3293  39.3293
    43.8092  43.8092  47.0941  47.4197  47.4197  47.4215  47.4671  47.4674
    47.4674  51.6991  51.6998  51.6998

          k = 0.0946-0.0946-0.1419 (  1266 PWs)   bands (ev):

     9.2558   9.2592   9.7497   9.7501  11.3683  11.3686  11.6376  11.6553
    11.8552  11.8577  11.9695  11.9743  11.9870  12.0045  12.0910  12.0917
    13.4153  13.4171  13.4241  13.4256  13.8340  13.8354  16.1347  16.1347
    19.9444  19.9444  22.5147  22.5257  32.9199  32.9200  34.0588  34.0594
    35.8360  35.8674  36.6522  36.6703  38.3530  38.4070  38.8754  38.8756
    44.0044  44.0047  44.2661  44.2925  45.3602  45.3662  47.8937  47.8937
    48.8851  48.8967  52.2423  52.2441

 ------ SPIN DOWN ----------


          k = 0.0000 0.0000 0.0000 (  1237 PWs)   bands (ev):

     5.1724   9.9645   9.9645   9.9645  10.6614  10.6622  10.6622  12.5576
    12.5576  12.5576  13.6084  13.6084  14.3426  14.3426  14.3426  14.6217
    14.6217  14.6217  14.6221  14.6221  14.6221  16.6614  16.6617  16.6617
    23.6466  23.6466  23.6466  29.0762  29.0763  29.0763  29.0766  29.0766
    29.0767  34.2645  34.2645  34.2648  37.4888  37.4890  37.4890  37.8212
    41.8474  41.8474  41.8474  45.4564  45.4564  45.4564  47.4059  54.5240
    54.5240  54.5240  57.7905  58.5902

          k = 0.0000 0.0000 0.0473 (  1273 PWs)   bands (ev):

     5.5341   9.9358  10.1551  10.1551  10.7785  10.7822  10.7827  12.4193
    12.6615  12.6615  13.4835  13.6552  13.8008  13.8012  14.1797  14.1798
    14.2919  14.4342  14.4342  14.6223  14.6223  15.2179  17.7820  17.7823
    23.7302  23.7302  25.7846  27.4166  27.4170  27.9901  27.9901  29.6443
    29.6443  34.3703  36.3429  36.3432  37.2350  37.6168  39.4113  39.4114
    39.6925  39.6925  40.2867  46.8312  47.4460  47.4460  48.4832  50.8560
    55.6072  55.6072  55.9015  55.9021

          k = 0.0000 0.0000 0.0946 (  1246 PWs)   bands (ev):

     6.5757   9.4862  10.6079  10.6079  11.1040  11.1499  11.1507  12.0508
    12.6786  12.6794  12.9637  12.9637  13.1701  13.3836  13.7777  13.7777
    13.7877  13.9719  13.9719  14.1548  14.6229  14.6229  19.7914  19.7917
    24.0134  24.0134  24.7388  24.7388  26.2869  26.2869  29.9589  31.2336
    31.2336  34.7023  36.1833  36.5229  36.5229  37.7405  38.1625  40.2840
    40.2844  43.5258  43.5259  43.6148  50.1951  50.3128  50.3128  50.3168
    50.3169  54.2246  55.5097  55.5098

          k = 0.0000 0.0000-0.1419 (  1238 PWs)   bands (ev):

     8.0945   8.1179  10.8943  10.8943  11.5482  11.5823  11.7646  11.7653
    11.7970  11.7977  12.8861  12.9349  13.4137  13.4137  13.4386  13.4386
    13.5205  13.5205  13.9606  13.9789  14.6232  14.6232  22.1146  22.1148
    22.1721  22.1722  24.3588  24.3588  25.3815  25.3815  33.5869  33.5869
    33.6269  33.6269  34.3455  34.4301  35.2873  35.3097  39.6941  39.8271
    44.9420  44.9423  45.0581  45.0584  46.9764  46.9765  51.7581  51.7582
    53.3560  53.3560  53.4612  53.4612

          k = 0.0000 0.0473 0.0473 (  1269 PWs)   bands (ev):

     5.8883  10.1432  10.1432  10.3337  10.8788  10.8895  10.8902  12.3476
    12.7107  12.7148  13.4076  13.4315  13.4473  13.4743  13.6571  14.0451
    14.1679  14.1679  14.4329  14.4330  14.5024  16.3699  16.3700  18.5966
    23.7098  24.7614  25.9623  25.9626  27.9004  27.9004  28.4867  28.4874
    30.1717  35.5726  35.5921  36.5413  36.5418  36.7908  39.5783  39.5789
    40.6299  42.0304  42.8948  44.5618  45.7411  49.1625  49.7296  52.4608
    52.9617  54.6153  54.6164  55.5504

          k = 0.0000 0.0473 0.0946 (  1263 PWs)   bands (ev):

     6.9067   9.7334  10.6508  10.7700  11.1539  11.1884  11.2277  12.0431
    12.4073  12.5736  12.7564  12.8084  12.9795  13.2926  13.7045  13.7862
    13.8550  13.9406  13.9702  14.4295  14.4403  14.8200  17.9814  20.3912
    21.8644  24.3601  25.2042  26.2180  27.0135  29.2228  29.4743  29.5334
    30.5833  33.2775  33.9734  37.1652  38.0917  39.7811  39.9556  40.2040
    40.5331  43.4461  44.4854  46.4276  47.0814  47.9018  49.2046  50.5980
    52.2113  52.5057  54.2726  55.7928

          k = 0.0000 0.0473-0.1419 (  1256 PWs)   bands (ev):

     8.3857   8.4080  11.0322  11.0351  11.5835  11.6138  11.6142  11.6416
    11.7822  11.8140  12.6193  12.6572  13.4168  13.4413  13.4965  13.5026
    13.5107  13.5135  14.1897  14.1908  14.4262  14.4317  19.7556  19.7847
    22.6211  22.6722  25.0948  25.1349  27.9212  27.9352  31.0904  31.1063
    31.5600  31.5711  35.2636  35.3589  38.2685  38.2743  41.6283  41.7108
    42.4786  42.5106  45.2162  45.3259  49.3658  49.4615  49.6098  49.6555
    51.8395  51.8758  52.6463  52.6759

          k = 0.0000 0.0946 0.0946 (  1276 PWs)   bands (ev):

     7.8474  10.3634  10.3636  11.1217  11.2038  11.4363  11.4379  11.9477
    12.0877  12.0877  12.2572  12.6478  13.1197  13.1914  13.4832  13.6170
    13.6176  13.9736  13.9739  14.1595  14.2326  15.9387  15.9388  19.2170
    21.9116  24.8809  26.4743  26.4744  27.5163  27.5170  30.6089  31.1971
    31.2041  31.2960  33.1175  36.3178  40.8950  41.2744  41.2747  42.4762
    42.7304  43.1632  43.1633  46.5747  46.6836  47.8260  47.8270  51.0042
    51.4070  51.4562  52.6629  54.5563

          k = 0.0000 0.0946-0.1419 (  1264 PWs)   bands (ev):

     9.1790   9.1982  10.9650  10.9849  11.5986  11.6003  11.6986  11.7287
    11.8107  11.8407  12.3251  12.3490  13.2814  13.2820  13.3506  13.3540
    13.4670  13.4927  14.0076  14.0234  14.8402  14.8450  17.2968  17.3187
    23.9774  24.0153  25.8835  25.9163  28.3191  28.3361  29.1276  29.1322
    32.4826  32.4919  36.2138  36.3066  39.7693  39.7864  42.4001  42.4171
    42.6008  42.6086  46.0098  46.0989  47.2643  47.3193  49.6825  49.7322
    51.0829  51.1630  52.7884  52.8087

          k = 0.0000-0.1419-0.1419 (  1260 PWs)   bands (ev):

    10.1783  10.1953  10.1953  10.2118  11.7748  11.8041  11.8041  11.8328
    12.0331  12.0422  12.0422  12.0511  13.1396  13.1424  13.1424  13.1458
    13.6332  13.6569  13.6569  13.6805  15.7599  15.7689  15.7690  15.7778
    25.9116  25.9371  25.9372  25.9622  27.1972  27.2169  27.2169  27.2376
    37.3461  37.3708  37.3708  37.3976  37.8875  37.9190  37.9191  37.9454
    46.4527  46.4527  46.4528  46.4559  48.4590  48.5090  48.5090  48.5587
    51.1295  51.1355  51.1356  51.1407

          k = 0.0473 0.0473 0.0473 (  1274 PWs)   bands (ev):

     6.2330  10.3278  10.3279  10.3279  10.9776  10.9786  10.9786  12.2940
    12.7347  12.7347  13.1133  13.1133  13.1133  13.5715  13.5715  13.8570
    13.8575  13.8575  14.5019  14.5019  14.5023  17.0124  17.0127  17.0127
    25.0100  25.0102  25.0102  26.2781  26.2781  26.2785  30.6897  30.6902
    30.6902  33.0260  35.6965  35.6965  35.6968  38.5972  40.5723  40.5723
    42.2337  42.2338  42.2338  45.8877  46.9662  46.9662  50.9905  50.9905
    54.4770  54.4782  54.4782  54.8176

          k = 0.0473 0.0473 0.0946 (  1265 PWs)   bands (ev):

     7.2199   9.9302  10.7791  10.7793  11.2121  11.2130  11.2689  12.0528
    12.4090  12.4091  12.5686  12.7675  12.8541  13.4791  13.5100  13.5738
    13.5770  13.8413  14.3922  14.4218  14.4224  15.0979  18.3220  18.3222
    22.4840  22.4841  26.2941  26.9099  26.9100  29.9243  29.9246  30.3521
    30.5307  32.1727  36.1521  37.1768  37.3367  38.2433  38.2434  41.7561
    42.9160  43.8422  46.3788  46.3789  47.2256  48.3815  49.5116  49.5119
    50.0050  52.2731  52.3411  54.9264

          k = 0.0473 0.0473-0.1419 (  1250 PWs)   bands (ev):

     8.6411   8.6617  11.2003  11.2004  11.2602  11.2614  11.6546  11.6859
    12.0372  12.0375  12.5357  12.5716  13.1062  13.1152  13.3874  13.3879
    13.9769  14.0012  14.1469  14.1494  14.3757  14.3759  19.3957  19.3958
    21.0201  21.0202  27.8509  27.8551  28.0906  28.1058  28.5221  28.5295
    34.4355  34.4687  34.8517  34.9189  37.5404  37.6090  41.5882  41.5883
    44.1374  44.1757  44.7227  44.7231  48.7292  48.7799  50.1721  50.1899
    51.4721  51.4723  53.1441  53.1612

          k = 0.0473 0.0946 0.0946 (  1245 PWs)   bands (ev):

     8.0988  10.3744  10.3747  10.8873  11.3756  11.5125  11.5133  12.0281
    12.2279  12.2283  12.3502  12.6589  12.8040  13.2444  13.2460  13.2500
    13.6015  14.1473  14.2908  14.2929  14.3117  16.0184  16.0186  18.5278
    20.7175  23.6708  23.6708  27.6050  27.7080  30.7063  30.7065  31.6716
    31.6721  33.5275  34.7356  36.3806  38.7597  38.7601  39.5301  42.4765
    43.1089  44.1190  45.8031  45.8031  48.5399  48.5404  49.6804  49.8943
    50.2040  50.9337  51.6496  52.1690

          k = 0.0473 0.0946-0.1419 (  1254 PWs)   bands (ev):

     9.3061   9.3217  10.7332  10.7401  11.6296  11.6328  11.8509  11.8775
    12.2032  12.2153  12.3825  12.4063  12.9267  12.9328  13.1044  13.1087
    13.9057  13.9189  14.1982  14.2088  14.7366  14.7412  17.2298  17.2474
    21.6772  21.6903  25.3918  25.4009  29.0381  29.0480  32.5760  32.5785
    32.7806  32.7895  36.3269  36.4025  39.5368  39.5528  39.8619  39.8760
    44.5423  44.5479  45.0159  45.0535  47.0105  47.0317  49.8803  49.9105
    51.0388  51.0562  53.2174  53.2498

          k = 0.0473-0.1419-0.1419 (  1256 PWs)   bands (ev):

    10.0818  10.0916  10.0916  10.1007  12.0139  12.0271  12.0271  12.0399
    12.2284  12.2441  12.2441  12.2597  12.8689  12.8756  12.8756  12.8827
    13.9249  13.9412  13.9412  13.9577  15.6384  15.6482  15.6482  15.6578
    23.2507  23.2605  23.2605  23.2702  30.5464  30.5507  30.5507  30.5556
    37.6249  37.6407  37.6407  37.6701  37.7275  37.7610  37.7610  37.7781
    45.9595  45.9595  45.9612  45.9634  46.0858  46.1157  46.1157  46.1408
    54.0634  54.0823  54.0824  54.1097

          k = 0.0946 0.0946 0.0946 (  1253 PWs)   bands (ev):

     8.7638  10.3317  10.3323  10.3323  11.8214  11.8220  11.8220  12.2854
    12.4992  12.4992  12.5011  12.6269  12.6269  12.8924  12.8924  12.8929
    14.0305  14.0305  14.4316  14.4316  14.4320  16.2724  16.2727  16.2727
    21.3128  21.3128  21.3129  24.9103  32.0383  32.0383  32.0387  34.7457
    34.7462  34.7462  36.7292  36.7292  36.7298  37.1474  39.4154  39.4154
    43.8176  43.8176  47.1077  47.3651  47.3651  47.3671  47.4677  47.4681
    47.4681  51.7286  51.7292  51.7292

          k = 0.0946 0.0946-0.1419 (  1266 PWs)   bands (ev):

     9.5872   9.5947  10.2940  10.2945  12.0106  12.0110  12.3067  12.3242
    12.5451  12.5672  12.6575  12.6594  12.7001  12.7002  12.7633  12.7634
    14.3342  14.3370  14.3623  14.3634  14.5560  14.5599  16.4646  16.4647
    20.3836  20.3836  22.8039  22.8134  32.9267  32.9268  34.1448  34.1454
    35.7239  35.7573  36.7248  36.7417  38.4335  38.4871  38.8479  38.8480
    44.0296  44.0300  44.2400  44.2667  45.3672  45.3745  47.8510  47.8511
    48.9370  48.9484  52.3431  52.3450

          k = 0.0946-0.1419-0.1419 (  1268 PWs)   bands (ev):

     9.9071   9.9097   9.9097   9.9115  12.3456  12.3502  12.3502  12.3545
    12.5725  12.5770  12.5770  12.5820  12.9687  12.9805  12.9806  12.9924
    14.2661  14.2748  14.2748  14.2837  15.1613  15.1722  15.1722  15.1826
    21.0412  21.0491  21.0491  21.0569  34.6160  34.6217  34.6217  34.6276
    37.6231  37.6357  37.6357  37.6492  38.3886  38.4037  38.4037  38.4160
    43.4695  43.4826  43.4827  43.4953  44.5077  44.5111  44.5112  44.5142
    49.7752  49.7802  49.7802  49.7866

          k =-0.1419-0.1419-0.1419 (  1328 PWs)   bands (ev):

     9.8278   9.8285   9.8285   9.8285  12.4650  12.4650  12.4650  12.4654
    12.4654  12.4657  12.4658  12.4658  13.9017  13.9017  13.9017  13.9027
    14.4040  14.4040  14.4044  14.4044  14.4044  14.4048  14.4048  14.4048
    20.2591  20.2591  20.2591  20.2592  36.3073  36.3075  36.3075  36.3076
    39.0300  39.0300  39.0301  39.0301  39.0301  39.0311  39.0311  39.0311
    42.2060  42.2060  42.2062  42.2062  42.2062  42.2067  42.2067  42.2067
    48.1575  48.1575  48.1575  48.1579

          k =-0.0473 0.0000 0.0473 (  1269 PWs)   bands (ev):

     5.8883  10.1432  10.1432  10.3337  10.8788  10.8895  10.8902  12.3476
    12.7107  12.7148  13.4076  13.4315  13.4473  13.4743  13.6571  14.0451
    14.1679  14.1679  14.4329  14.4330  14.5024  16.3699  16.3700  18.5966
    23.7098  24.7614  25.9623  25.9626  27.9004  27.9005  28.4867  28.4874
    30.1717  35.5726  35.5921  36.5414  36.5418  36.7908  39.5782  39.5790
    40.6299  42.0304  42.8948  44.5618  45.7411  49.1625  49.7296  52.4608
    52.9617  54.6153  54.6164  55.5503

          k =-0.0473 0.0000 0.0946 (  1263 PWs)   bands (ev):

     6.9067   9.7334  10.6508  10.7700  11.1539  11.1884  11.2277  12.0431
    12.4073  12.5736  12.7564  12.8084  12.9795  13.2926  13.7045  13.7862
    13.8550  13.9406  13.9702  14.4295  14.4403  14.8200  17.9814  20.3912
    21.8644  24.3601  25.2042  26.2180  27.0135  29.2228  29.4743  29.5334
    30.5833  33.2775  33.9734  37.1652  38.0917  39.7811  39.9556  40.2040
    40.5331  43.4461  44.4854  46.4276  47.0814  47.9018  49.2046  50.5980
    52.2113  52.5057  54.2726  55.7929

          k =-0.0946 0.0000 0.0946 (  1276 PWs)   bands (ev):

     7.8474  10.3634  10.3636  11.1217  11.2038  11.4363  11.4379  11.9477
    12.0877  12.0877  12.2572  12.6478  13.1197  13.1914  13.4832  13.6170
    13.6176  13.9736  13.9739  14.1595  14.2326  15.9387  15.9388  19.2170
    21.9116  24.8809  26.4743  26.4745  27.5163  27.5170  30.6089  31.1971
    31.2041  31.2960  33.1175  36.3178  40.8950  41.2744  41.2747  42.4762
    42.7304  43.1632  43.1633  46.5747  46.6836  47.8260  47.8270  51.0042
    51.4070  51.4562  52.6629  54.5603

          k = 0.0473-0.0473 0.0473 (  1274 PWs)   bands (ev):

     6.2330  10.3278  10.3279  10.3279  10.9776  10.9786  10.9786  12.2940
    12.7347  12.7347  13.1133  13.1133  13.1133  13.5715  13.5715  13.8570
    13.8575  13.8575  14.5019  14.5019  14.5023  17.0124  17.0127  17.0127
    25.0100  25.0102  25.0102  26.2781  26.2781  26.2785  30.6897  30.6901
    30.6902  33.0260  35.6964  35.6965  35.6969  38.5972  40.5723  40.5723
    42.2337  42.2338  42.2338  45.8877  46.9662  46.9662  50.9905  50.9905
    54.4771  54.4781  54.4782  54.8174

          k = 0.0473-0.0473 0.0946 (  1265 PWs)   bands (ev):

     7.2199   9.9302  10.7791  10.7793  11.2121  11.2130  11.2689  12.0528
    12.4090  12.4091  12.5686  12.7675  12.8541  13.4791  13.5100  13.5739
    13.5769  13.8413  14.3922  14.4218  14.4224  15.0979  18.3220  18.3222
    22.4841  22.4841  26.2941  26.9099  26.9100  29.9243  29.9246  30.3521
    30.5307  32.1727  36.1521  37.1768  37.3367  38.2433  38.2434  41.7561
    42.9160  43.8422  46.3787  46.3789  47.2256  48.3815  49.5116  49.5119
    50.0050  52.2731  52.3411  54.9264

          k =-0.0946 0.0473 0.0473 (  1265 PWs)   bands (ev):

     7.2199   9.9302  10.7791  10.7793  11.2121  11.2130  11.2689  12.0528
    12.4090  12.4091  12.5686  12.7675  12.8541  13.4791  13.5100  13.5738
    13.5770  13.8413  14.3922  14.4218  14.4224  15.0979  18.3220  18.3222
    22.4840  22.4841  26.2941  26.9099  26.9100  29.9243  29.9246  30.3521
    30.5307  32.1727  36.1521  37.1768  37.3367  38.2433  38.2434  41.7561
    42.9160  43.8422  46.3788  46.3789  47.2256  48.3815  49.5116  49.5119
    50.0050  52.2731  52.3411  54.9264

          k = 0.0473-0.0473-0.1419 (  1250 PWs)   bands (ev):

     8.6411   8.6617  11.2003  11.2004  11.2602  11.2614  11.6546  11.6859
    12.0371  12.0375  12.5357  12.5716  13.1062  13.1152  13.3874  13.3879
    13.9769  14.0012  14.1469  14.1494  14.3757  14.3759  19.3957  19.3958
    21.0201  21.0202  27.8509  27.8550  28.0905  28.1058  28.5221  28.5295
    34.4355  34.4687  34.8517  34.9189  37.5404  37.6090  41.5882  41.5883
    44.1374  44.1757  44.7227  44.7231  48.7292  48.7799  50.1721  50.1899
    51.4720  51.4723  53.1439  53.1612

          k = 0.0946-0.0473 0.0946 (  1245 PWs)   bands (ev):

     8.0988  10.3744  10.3747  10.8873  11.3756  11.5125  11.5133  12.0281
    12.2279  12.2283  12.3502  12.6589  12.8040  13.2444  13.2460  13.2500
    13.6015  14.1473  14.2908  14.2929  14.3117  16.0184  16.0186  18.5278
    20.7175  23.6708  23.6708  27.6050  27.7080  30.7063  30.7065  31.6716
    31.6721  33.5275  34.7356  36.3806  38.7597  38.7601  39.5301  42.4765
    43.1089  44.1190  45.8031  45.8031  48.5399  48.5404  49.6804  49.8943
    50.2040  50.9337  51.6496  52.1694

          k =-0.0946 0.0473 0.0946 (  1245 PWs)   bands (ev):

     8.0988  10.3744  10.3747  10.8873  11.3756  11.5125  11.5133  12.0281
    12.2279  12.2283  12.3502  12.6589  12.8040  13.2444  13.2460  13.2500
    13.6015  14.1473  14.2908  14.2929  14.3117  16.0184  16.0186  18.5278
    20.7175  23.6708  23.6708  27.6050  27.7080  30.7063  30.7065  31.6716
    31.6721  33.5275  34.7356  36.3806  38.7597  38.7601  39.5301  42.4765
    43.1089  44.1190  45.8031  45.8031  48.5399  48.5404  49.6804  49.8943
    50.2040  50.9337  51.6496  52.1697

          k = 0.0946-0.0473-0.1419 (  1254 PWs)   bands (ev):

     9.3061   9.3217  10.7332  10.7401  11.6296  11.6328  11.8509  11.8775
    12.2032  12.2153  12.3825  12.4063  12.9267  12.9328  13.1044  13.1087
    13.9057  13.9189  14.1982  14.2088  14.7366  14.7412  17.2298  17.2474
    21.6772  21.6903  25.3918  25.4009  29.0381  29.0480  32.5760  32.5785
    32.7806  32.7895  36.3269  36.4025  39.5368  39.5528  39.8619  39.8760
    44.5423  44.5479  45.0159  45.0535  47.0105  47.0317  49.8803  49.9105
    51.0388  51.0562  53.2177  53.2524

          k = 0.0946-0.0946 0.0946 (  1253 PWs)   bands (ev):

     8.7638  10.3317  10.3323  10.3323  11.8214  11.8220  11.8220  12.2854
    12.4992  12.4992  12.5011  12.6269  12.6269  12.8924  12.8924  12.8929
    14.0305  14.0305  14.4316  14.4316  14.4320  16.2725  16.2727  16.2727
    21.3128  21.3128  21.3128  24.9103  32.0383  32.0383  32.0388  34.7458
    34.7462  34.7462  36.7291  36.7292  36.7298  37.1474  39.4154  39.4154
    43.8176  43.8176  47.1077  47.3651  47.3651  47.3671  47.4677  47.4680
    47.4681  51.7286  51.7292  51.7292

          k = 0.0946-0.0946-0.1419 (  1266 PWs)   bands (ev):

     9.5872   9.5947  10.2940  10.2945  12.0106  12.0110  12.3067  12.3242
    12.5451  12.5672  12.6575  12.6594  12.7001  12.7001  12.7633  12.7635
    14.3342  14.3370  14.3623  14.3634  14.5560  14.5599  16.4646  16.4647
    20.3836  20.3836  22.8039  22.8134  32.9267  32.9269  34.1448  34.1454
    35.7240  35.7573  36.7248  36.7417  38.4335  38.4871  38.8478  38.8481
    44.0297  44.0300  44.2400  44.2667  45.3672  45.3745  47.8510  47.8511
    48.9370  48.9484  52.3431  52.3450

     the Fermi energy is    14.1795 ev

!    total energy              =    -343.62943907 Ry
     Harris-Foulkes estimate   =    -343.62941685 Ry
     estimated scf accuracy    <          6.6E-09 Ry

     The total energy is the sum of the following terms:

     one-electron contribution =      -8.70013082 Ry
     hartree contribution      =      61.07897741 Ry
     xc contribution           =    -120.47483748 Ry
     ewald contribution        =    -275.48620515 Ry
     Dispersion Correction     =      -0.04675218 Ry
     smearing contrib. (-TS)   =      -0.00049086 Ry

     total magnetization       =     2.87 Bohr mag/cell
     absolute magnetization    =     3.30 Bohr mag/cell

     convergence has been achieved in  13 iterations

     Forces acting on atoms (Ry/au):

     atom    1 type  1   force =    -0.00230314   -0.00230314    0.00230442
     atom    2 type  1   force =     0.00230186    0.00230186    0.00230186
     atom    3 type  1   force =    -0.00230314    0.00230442   -0.00230314
     atom    4 type  1   force =     0.00230442   -0.00230314   -0.00230314

     Total force =     0.007978     Total SCF correction =     0.000030


     entering subroutine stress ...

          total   stress  (Ry/bohr**3)                   (kbar)     P=  -32.48
  -0.00022081   0.00000000   0.00000000        -32.48      0.00      0.00
   0.00000000  -0.00022081   0.00000000          0.00    -32.48      0.00
   0.00000000   0.00000000  -0.00022081          0.00      0.00    -32.48


     BFGS Geometry Optimization

     number of scf cycles    =   1
     number of bfgs steps    =   0

     enthalpy new            =    -343.6294390730 Ry

     new trust radius        =       0.0189622872 bohr
     new conv_thr            =       0.0000000100 Ry

     new unit-cell volume =    290.14255 a.u.^3 (    42.99469 Ang^3 )

CELL_PARAMETERS (alat=  1.88972590)
   3.503254251   0.000000019   0.000000019
   0.000000019   3.503254251   0.000000019
   0.000000019   0.000000019   3.503254251

ATOMIC_POSITIONS (alat)
Ni1      1.758191874   1.758191874   0.001212734
Ni1      0.001211367   0.001211367   0.001211367
Ni1      1.758191874   0.001212734   1.758191874
Ni1      0.001212734   1.758191874   1.758191874



     Writing output data file Ni-ferromag.save
     NEW-OLD atomic charge density approx. for the potential

     Check: negative/imaginary core charge=   -0.000005    0.000000
     extrapolated charge   39.33023, renormalised to   40.00000

     total cpu time spent up to now is      346.4 secs

     Self-consistent Calculation

     iteration #  1     ecut=    40.00 Ry     beta=0.20
     Davidson diagonalization with overlap
     c_bands:  1 eigenvalues not converged
     c_bands:  1 eigenvalues not converged
     c_bands:  2 eigenvalues not converged
     c_bands:  3 eigenvalues not converged
     c_bands:  2 eigenvalues not converged
     ethr =  1.00E-06,  avg # of iterations =  7.3

     total cpu time spent up to now is      399.9 secs

     total energy              =    -343.54090594 Ry
     Harris-Foulkes estimate   =    -344.36850770 Ry
     estimated scf accuracy    <       0.14619322 Ry

     total magnetization       =     2.55 Bohr mag/cell
     absolute magnetization    =     2.97 Bohr mag/cell

     iteration #  2     ecut=    40.00 Ry     beta=0.20
     Davidson diagonalization with overlap
     ethr =  3.65E-04,  avg # of iterations =  3.3

     total cpu time spent up to now is      423.4 secs

     total energy              =    -343.63303675 Ry
     Harris-Foulkes estimate   =    -343.64377570 Ry
     estimated scf accuracy    <       0.05508676 Ry

     total magnetization       =     2.94 Bohr mag/cell
     absolute magnetization    =     3.35 Bohr mag/cell

     iteration #  3     ecut=    40.00 Ry     beta=0.20
     Davidson diagonalization with overlap
     ethr =  1.38E-04,  avg # of iterations =  1.0

     total cpu time spent up to now is      443.9 secs

     total energy              =    -343.62629357 Ry
     Harris-Foulkes estimate   =    -343.63479556 Ry
     estimated scf accuracy    <       0.01905917 Ry

     total magnetization       =     2.90 Bohr mag/cell
     absolute magnetization    =     3.32 Bohr mag/cell

     iteration #  4     ecut=    40.00 Ry     beta=0.20
     Davidson diagonalization with overlap
     ethr =  4.76E-05,  avg # of iterations =  3.0

     total cpu time spent up to now is      466.4 secs

     total energy              =    -343.63016591 Ry
     Harris-Foulkes estimate   =    -343.63005950 Ry
     estimated scf accuracy    <       0.00008570 Ry

     total magnetization       =     2.84 Bohr mag/cell
     absolute magnetization    =     3.26 Bohr mag/cell

     iteration #  5     ecut=    40.00 Ry     beta=0.20
     Davidson diagonalization with overlap
     ethr =  2.14E-07,  avg # of iterations =  4.4

     total cpu time spent up to now is      495.1 secs

     total energy              =    -343.63046681 Ry
     Harris-Foulkes estimate   =    -343.63023757 Ry
     estimated scf accuracy    <       0.00077951 Ry

     total magnetization       =     2.83 Bohr mag/cell
     absolute magnetization    =     3.25 Bohr mag/cell

     iteration #  6     ecut=    40.00 Ry     beta=0.20
     Davidson diagonalization with overlap
     ethr =  2.14E-07,  avg # of iterations =  1.8

     total cpu time spent up to now is      516.3 secs

     total energy              =    -343.63012187 Ry
     Harris-Foulkes estimate   =    -343.63050851 Ry
     estimated scf accuracy    <       0.00187227 Ry

     total magnetization       =     2.82 Bohr mag/cell
     absolute magnetization    =     3.24 Bohr mag/cell

     iteration #  7     ecut=    40.00 Ry     beta=0.20
     Davidson diagonalization with overlap
     ethr =  2.14E-07,  avg # of iterations =  1.9

     total cpu time spent up to now is      538.1 secs

     total energy              =    -343.63001677 Ry
     Harris-Foulkes estimate   =    -343.63018767 Ry
     estimated scf accuracy    <       0.00056958 Ry

     total magnetization       =     2.83 Bohr mag/cell
     absolute magnetization    =     3.25 Bohr mag/cell

     iteration #  8     ecut=    40.00 Ry     beta=0.20
     Davidson diagonalization with overlap
     ethr =  2.14E-07,  avg # of iterations =  1.9

     total cpu time spent up to now is      559.4 secs

     total energy              =    -343.63008018 Ry
     Harris-Foulkes estimate   =    -343.63006255 Ry
     estimated scf accuracy    <       0.00005925 Ry

     total magnetization       =     2.84 Bohr mag/cell
     absolute magnetization    =     3.25 Bohr mag/cell

     iteration #  9     ecut=    40.00 Ry     beta=0.20
     Davidson diagonalization with overlap
     ethr =  1.48E-07,  avg # of iterations =  1.0

     total cpu time spent up to now is      579.9 secs

     total energy              =    -343.63005661 Ry
     Harris-Foulkes estimate   =    -343.63008348 Ry
     estimated scf accuracy    <       0.00014286 Ry

     total magnetization       =     2.83 Bohr mag/cell
     absolute magnetization    =     3.25 Bohr mag/cell

     iteration # 10     ecut=    40.00 Ry     beta=0.20
     Davidson diagonalization with overlap
     ethr =  1.48E-07,  avg # of iterations =  1.0

     total cpu time spent up to now is      600.3 secs

     total energy              =    -343.63003958 Ry
     Harris-Foulkes estimate   =    -343.63006071 Ry
     estimated scf accuracy    <       0.00005038 Ry

     total magnetization       =     2.83 Bohr mag/cell
     absolute magnetization    =     3.25 Bohr mag/cell

     iteration # 11     ecut=    40.00 Ry     beta=0.20
     Davidson diagonalization with overlap
     ethr =  1.26E-07,  avg # of iterations =  1.0

     Magnetic moment per site:
     atom:    1    charge:    3.0058    magn:    0.3351    constr:    0.0000
     atom:    2    charge:    3.0040    magn:    0.3349    constr:    0.0000
     atom:    3    charge:    3.0058    magn:    0.3351    constr:    0.0000
     atom:    4    charge:    3.0058    magn:    0.3351    constr:    0.0000

     total cpu time spent up to now is      620.8 secs

     End of self-consistent calculation

 ------ SPIN UP ------------


          k = 0.0000 0.0000 0.0000 (  1237 PWs)   bands (ev):

     5.4291   9.7127   9.7127   9.7127  10.1654  10.1657  10.1657  11.9442
    11.9442  11.9443  13.1226  13.1226  13.8405  13.8405  13.8405  13.9303
    13.9303  13.9303  13.9304  13.9304  13.9304  17.0692  17.0693  17.0693
    23.8063  23.8063  23.8063  29.5643  29.5643  29.5643  29.5644  29.5644
    29.5645  34.6423  34.6423  34.6425  37.9858  37.9859  37.9859  38.4923
    42.4675  42.4675  42.4675  46.0663  46.0663  46.0663  48.1691  55.1620
    55.1620  55.1620  57.6188  59.0593

          k =-0.0000-0.0000 0.0476 (  1273 PWs)   bands (ev):

     5.7952   9.7347   9.8968   9.8968  10.2760  10.2918  10.2920  11.8156
    12.0466  12.0466  13.0045  13.1690  13.2769  13.2769  13.6868  13.6868
    13.7547  13.7547  13.7910  13.9307  13.9307  15.4684  18.0276  18.0277
    23.9022  23.9022  26.0555  27.8127  27.8128  28.4407  28.4407  30.1247
    30.1247  34.7585  36.8149  36.8150  37.8566  38.1177  39.9420  39.9420
    40.2471  40.2471  40.9126  47.4861  48.1229  48.1229  49.1437  51.5533
    56.2578  56.2578  56.6686  56.6688

          k =-0.0000-0.0000 0.0951 (  1246 PWs)   bands (ev):

     6.8444   9.5054  10.3337  10.3337  10.5835  10.6747  10.6751  11.4718
    12.2207  12.2211  12.3431  12.3431  12.7171  13.2980  13.3030  13.3031
    13.3046  13.3216  13.3216  13.6569  13.9312  13.9312  19.9897  19.9898
    24.2196  24.2196  25.0393  25.0394  26.6725  26.6725  30.3553  31.7037
    31.7037  35.1217  36.7240  37.0252  37.0252  38.3451  38.6698  40.8588
    40.8589  44.1073  44.1074  44.1398  50.9215  51.0431  51.0431  51.0461
    51.0461  55.0312  55.9421  55.9421

          k = 0.0000 0.0000-0.1427 (  1238 PWs)   bands (ev):

     8.3360   8.3513  10.6097  10.6097  11.0069  11.0294  11.3105  11.3107
    11.3328  11.3329  12.5245  12.5560  12.7864  12.7864  12.8032  12.8032
    13.0610  13.0610  13.4699  13.4822  13.9315  13.9315  22.3557  22.3557
    22.3946  22.3947  24.5929  24.5930  25.7269  25.7270  34.0677  34.0677
    34.0951  34.0951  34.8765  34.9340  35.7626  35.7762  40.2173  40.3092
    45.6197  45.6199  45.6998  45.6999  47.6125  47.6125  52.2883  52.2884
    54.1338  54.1338  54.2077  54.2077

          k =-0.0000 0.0476 0.0476 (  1269 PWs)   bands (ev):

     6.1528   9.9330   9.9330  10.0599  10.3932  10.3935  10.4073  11.7557
    12.0916  12.1086  12.9305  12.9721  12.9889  12.9971  13.1648  13.5585
    13.6828  13.6828  13.7532  13.7533  13.8148  16.4002  16.4002  18.7972
    23.8966  25.0952  26.2429  26.2430  28.2900  28.2900  28.9332  28.9335
    30.6523  36.0309  36.1154  37.0233  37.0235  37.3283  40.1108  40.1111
    41.2667  42.5989  43.5267  45.2274  46.3594  49.7823  50.4508  53.0893
    53.6653  55.3456  55.3461  56.2989

          k =-0.0000 0.0476 0.0951 (  1263 PWs)   bands (ev):

     7.1742   9.7414  10.4150  10.4634  10.6749  10.7283  10.7473  11.4749
    11.9824  12.1217  12.2375  12.3547  12.3807  12.8135  13.2348  13.3077
    13.3247  13.3444  13.4963  13.7494  13.7565  14.4336  18.0142  20.5797
    22.0776  24.6046  25.5005  26.5299  27.3968  29.6038  29.8949  29.9554
    31.0114  33.7201  34.4630  37.6756  38.6278  40.3859  40.5646  40.7429
    41.1146  44.0347  45.0268  47.0530  47.7810  48.5838  49.8893  51.3307
    52.9357  53.2559  54.8158  56.2054

          k = 0.0000 0.0476-0.1427 (  1256 PWs)   bands (ev):

     8.6179   8.6323  10.7617  10.7627  11.0586  11.0803  11.1807  11.1989
    11.3254  11.3471  12.1552  12.1784  12.7870  12.8042  13.0209  13.0284
    13.0458  13.0468  13.6596  13.6597  13.7459  13.7493  19.8727  19.8924
    22.8568  22.8918  25.3951  25.4217  28.3010  28.3099  31.4875  31.4992
    32.0128  32.0209  35.7918  35.8579  38.8220  38.8270  42.1792  42.2359
    43.0995  43.1207  45.8980  45.9737  50.0431  50.1106  50.3344  50.3662
    52.5955  52.6207  53.1910  53.2114

          k =-0.0000 0.0951 0.0951 (  1276 PWs)   bands (ev):

     8.1007  10.3288  10.3289  10.6946  10.9425  10.9431  10.9570  11.4053
    11.6519  11.6520  11.8064  12.1251  12.4853  12.7272  13.0190  13.1733
    13.1735  13.3143  13.3144  13.4843  13.6993  15.6792  15.6792  19.2971
    22.1061  25.1553  26.7727  26.7728  27.8930  27.8933  30.9813  31.6334
    31.6368  31.7361  33.6001  36.8342  41.5233  41.8763  41.8764  43.0711
    43.4082  43.7667  43.7668  47.1835  47.3259  48.4706  48.4710  51.6696
    52.1732  52.1854  53.1993  55.3441

          k = 0.0000 0.0951-0.1427 (  1264 PWs)   bands (ev):

     9.3617   9.3734  10.7926  10.8064  11.1842  11.1976  11.2086  11.2138
    11.3449  11.3651  11.8535  11.8687  12.8231  12.8321  12.8331  12.8403
    12.9000  12.9026  13.3440  13.3543  14.3592  14.3620  17.2027  17.2182
    24.2167  24.2432  26.2122  26.2339  28.6429  28.6555  29.5330  29.5357
    32.9426  32.9483  36.7548  36.8193  40.3542  40.3669  43.0395  43.0520
    43.2093  43.2152  46.7053  46.7669  47.9010  47.9382  50.4059  50.4402
    51.7301  51.7852  53.5512  53.5656

          k = 0.0000-0.1427-0.1427 (  1260 PWs)   bands (ev):

    10.2105  10.2206  10.2206  10.2306  11.2973  11.3165  11.3165  11.3356
    11.6205  11.6260  11.6260  11.6314  12.6844  12.6863  12.6863  12.6884
    12.9851  13.0011  13.0011  13.0169  15.4235  15.4307  15.4307  15.4380
    26.1853  26.2037  26.2037  26.2218  27.5627  27.5757  27.5757  27.5891
    37.8707  37.8883  37.8883  37.9066  38.4749  38.4971  38.4971  38.5171
    47.1735  47.1736  47.1740  47.1746  49.1515  49.1863  49.1864  49.2210
    51.8102  51.8133  51.8133  51.8160

          k = 0.0476 0.0476 0.0476 (  1274 PWs)   bands (ev):

     6.4985  10.0938  10.0939  10.0939  10.5076  10.5080  10.5080  11.7208
    12.1281  12.1281  12.6850  12.6850  12.6851  13.0779  13.0779  13.3251
    13.3254  13.3254  13.8688  13.8688  13.8689  17.0272  17.0273  17.0273
    25.3220  25.3222  25.3222  26.5880  26.5880  26.5881  31.1673  31.1675
    31.1675  33.4786  36.1624  36.1624  36.1626  39.2491  41.1335  41.1335
    42.8062  42.8063  42.8063  46.5879  47.6440  47.6440  51.6376  51.6376
    55.1105  55.2232  55.2237  55.2237

          k = 0.0476 0.0476 0.0951 (  1265 PWs)   bands (ev):

     7.4798   9.9001  10.4767  10.4769  10.7932  10.8216  10.8217  11.5116
    11.9727  11.9727  12.1660  12.2099  12.2679  12.9228  12.9928  13.0792
    13.0802  13.3178  13.7715  13.7715  13.8039  14.7953  18.3693  18.3693
    22.7032  22.7033  26.6154  27.2393  27.2393  30.3543  30.3544  30.7413
    30.9442  32.6469  36.6413  37.7730  37.8462  38.7865  38.7865  42.3563
    43.4983  44.4650  47.0154  47.0154  47.8777  49.0788  50.1960  50.1961
    50.6913  53.0127  53.0729  55.6513

          k = 0.0476 0.0476-0.1427 (  1250 PWs)   bands (ev):

     8.8457   8.8585  10.8633  10.8639  10.9220  10.9221  11.1552  11.1755
    11.5791  11.5792  12.0597  12.0825  12.5369  12.5446  12.9115  12.9117
    13.4790  13.4951  13.5918  13.5953  13.7156  13.7157  19.5180  19.5181
    21.1421  21.1421  28.2019  28.2039  28.4374  28.4466  28.9229  28.9261
    34.9229  34.9458  35.3893  35.4346  38.0669  38.1143  42.1998  42.1998
    44.7383  44.7639  45.3651  45.3653  49.4583  49.4939  50.8884  50.9007
    52.1797  52.1798  53.6759  53.6806

          k = 0.0476 0.0951 0.0951 (  1245 PWs)   bands (ev):

     8.3186  10.2176  10.2178  10.5037  11.1089  11.1548  11.1550  11.5566
    11.7689  11.7690  11.9020  12.1272  12.2527  12.7305  12.7308  12.7474
    13.0504  13.6050  13.6733  13.6894  13.6904  15.8100  15.8100  18.6213
    20.7997  23.8998  23.8998  27.9348  28.0544  31.1307  31.1308  32.1163
    32.1165  34.0131  35.2377  36.9050  39.3204  39.3205  40.1505  43.0325
    43.7316  44.7799  46.4584  46.4584  49.1872  49.1874  50.4128  50.5912
    50.9195  51.6131  52.2975  52.9217

          k = 0.0476 0.0951-0.1427 (  1254 PWs)   bands (ev):

     9.3978   9.4057  10.4377  10.4400  11.3219  11.3226  11.4625  11.4789
    11.7723  11.7792  11.8894  11.9044  12.3990  12.4047  12.6108  12.6144
    13.3441  13.3505  13.5716  13.5782  14.2657  14.2682  17.1813  17.1938
    21.8106  21.8204  25.6568  25.6638  29.4290  29.4351  33.0343  33.0369
    33.2467  33.2522  36.8745  36.9273  40.1275  40.1391  40.4370  40.4464
    45.1864  45.1907  45.6677  45.6932  47.6925  47.7061  50.5574  50.5786
    51.7799  51.7922  53.8721  53.8959

          k = 0.0476-0.1427-0.1427 (  1256 PWs)   bands (ev):

     9.9677   9.9711   9.9711   9.9742  11.7077  11.7131  11.7131  11.7181
    11.7900  11.8011  11.8011  11.8125  12.3679  12.3733  12.3733  12.3789
    13.3199  13.3299  13.3299  13.3399  15.3337  15.3417  15.3417  15.3497
    23.4416  23.4492  23.4492  23.4567  30.9673  30.9696  30.9696  30.9721
    38.1533  38.1672  38.1672  38.1850  38.3213  38.3423  38.3423  38.3582
    46.6494  46.6495  46.6500  46.6526  46.7350  46.7555  46.7555  46.7725
    54.7918  54.8030  54.8030  55.0664

          k = 0.0951 0.0951 0.0951 (  1253 PWs)   bands (ev):

     8.8624  10.0526  10.0529  10.0529  11.5132  11.5135  11.5135  12.0267
    12.0838  12.0838  12.0893  12.0981  12.0981  12.3767  12.3767  12.3769
    13.4529  13.4529  13.8175  13.8175  13.8176  16.1883  16.1884  16.1884
    21.4070  21.4070  21.4071  25.1469  32.4964  32.4964  32.4966  35.2402
    35.2404  35.2404  37.2700  37.2700  37.2702  37.7886  39.9476  39.9476
    44.4415  44.4415  47.7683  48.0617  48.0617  48.0626  48.1358  48.1360
    48.1360  52.4434  52.4438  52.4438

          k = 0.0951 0.0951-0.1427 (  1266 PWs)   bands (ev):

     9.4874   9.4895   9.9842   9.9843  11.6331  11.6333  11.9134  11.9259
    12.1355  12.1372  12.2537  12.2568  12.2666  12.2791  12.3714  12.3718
    13.7372  13.7384  13.7458  13.7466  14.1567  14.1574  16.4726  16.4727
    20.3780  20.3781  22.9611  22.9684  33.4123  33.4123  34.6233  34.6236
    36.3163  36.3383  37.2366  37.2485  38.9719  39.0094  39.4359  39.4359
    44.6484  44.6485  44.8904  44.9091  46.0107  46.0157  48.5470  48.5470
    49.5977  49.6056  52.9742  52.9750

          k = 0.0951-0.1427-0.1427 (  1268 PWs)   bands (ev):

     9.6638   9.6641   9.6641   9.6642  11.8759  11.8792  11.8792  11.8823
    12.0654  12.0689  12.0689  12.0725  12.8112  12.8183  12.8183  12.8255
    13.6607  13.6661  13.6661  13.6716  14.9561  14.9652  14.9653  14.9743
    21.0854  21.0915  21.0915  21.0976  35.1488  35.1518  35.1518  35.1549
    38.2058  38.2155  38.2155  38.2255  38.9263  38.9366  38.9366  38.9456
    44.0819  44.0906  44.0907  44.0991  45.1514  45.1537  45.1537  45.1558
    50.4125  50.4161  50.4161  50.4204

          k =-0.1427-0.1427-0.1427 (  1328 PWs)   bands (ev):

     9.5479   9.5482   9.5482   9.5482  11.9572  11.9572  11.9572  11.9573
    11.9573  11.9576  11.9576  11.9576  13.7930  13.7930  13.7930  13.7935
    13.7935  13.7936  13.7936  13.7936  14.2905  14.2908  14.2909  14.2909
    20.2103  20.2103  20.2103  20.2104  36.9474  36.9476  36.9476  36.9476
    39.5721  39.5721  39.5722  39.5722  39.5722  39.5727  39.5727  39.5727
    42.7995  42.7995  42.7996  42.7996  42.7996  42.7998  42.7998  42.7998
    48.7698  48.7698  48.7698  48.7700

          k =-0.0476 0.0000 0.0476 (  1269 PWs)   bands (ev):

     6.1528   9.9330   9.9330  10.0599  10.3932  10.3935  10.4073  11.7557
    12.0916  12.1086  12.9305  12.9721  12.9889  12.9971  13.1648  13.5585
    13.6828  13.6828  13.7532  13.7533  13.8148  16.4002  16.4002  18.7972
    23.8966  25.0952  26.2429  26.2431  28.2899  28.2900  28.9332  28.9335
    30.6523  36.0309  36.1154  37.0233  37.0235  37.3283  40.1108  40.1111
    41.2667  42.5989  43.5267  45.2274  46.3594  49.7823  50.4508  53.0893
    53.6653  55.3456  55.3461  56.2989

          k =-0.0476-0.0000 0.0951 (  1263 PWs)   bands (ev):

     7.1742   9.7414  10.4150  10.4634  10.6749  10.7283  10.7473  11.4749
    11.9824  12.1217  12.2375  12.3547  12.3807  12.8135  13.2348  13.3077
    13.3247  13.3444  13.4963  13.7494  13.7565  14.4336  18.0142  20.5797
    22.0776  24.6046  25.5005  26.5299  27.3968  29.6038  29.8949  29.9554
    31.0114  33.7201  34.4630  37.6756  38.6278  40.3859  40.5646  40.7429
    41.1146  44.0347  45.0268  47.0530  47.7810  48.5838  49.8893  51.3307
    52.9357  53.2559  54.8158  56.2054

          k =-0.0951 0.0000 0.0951 (  1276 PWs)   bands (ev):

     8.1007  10.3288  10.3289  10.6946  10.9425  10.9431  10.9570  11.4053
    11.6519  11.6520  11.8064  12.1251  12.4853  12.7272  13.0190  13.1733
    13.1735  13.3142  13.3144  13.4843  13.6993  15.6792  15.6793  19.2971
    22.1061  25.1553  26.7727  26.7728  27.8930  27.8933  30.9813  31.6335
    31.6368  31.7361  33.6001  36.8342  41.5233  41.8763  41.8764  43.0711
    43.4082  43.7668  43.7668  47.1835  47.3259  48.4706  48.4710  51.6696
    52.1732  52.1854  53.1993  55.3403

          k = 0.0476-0.0476 0.0476 (  1274 PWs)   bands (ev):

     6.4985  10.0939  10.0939  10.0939  10.5076  10.5080  10.5080  11.7208
    12.1281  12.1281  12.6850  12.6850  12.6851  13.0779  13.0779  13.3251
    13.3254  13.3254  13.8688  13.8688  13.8689  17.0272  17.0272  17.0273
    25.3220  25.3221  25.3222  26.5879  26.5880  26.5881  31.1674  31.1675
    31.1675  33.4786  36.1624  36.1624  36.1626  39.2491  41.1335  41.1335
    42.8062  42.8063  42.8063  46.5879  47.6440  47.6440  51.6376  51.6376
    55.1105  55.2232  55.2237  55.2237

          k = 0.0476-0.0476 0.0951 (  1265 PWs)   bands (ev):

     7.4798   9.9001  10.4767  10.4769  10.7932  10.8216  10.8217  11.5116
    11.9727  11.9727  12.1660  12.2099  12.2679  12.9228  12.9928  13.0792
    13.0802  13.3178  13.7715  13.7715  13.8039  14.7953  18.3693  18.3693
    22.7032  22.7033  26.6154  27.2393  27.2393  30.3543  30.3544  30.7413
    30.9442  32.6469  36.6413  37.7730  37.8462  38.7864  38.7865  42.3563
    43.4983  44.4650  47.0154  47.0155  47.8777  49.0788  50.1960  50.1962
    50.6913  53.0127  53.0729  55.6513

          k =-0.0951 0.0476 0.0476 (  1265 PWs)   bands (ev):

     7.4798   9.9001  10.4767  10.4769  10.7932  10.8216  10.8217  11.5116
    11.9727  11.9727  12.1660  12.2099  12.2679  12.9228  12.9928  13.0792
    13.0802  13.3178  13.7715  13.7715  13.8039  14.7953  18.3693  18.3693
    22.7032  22.7033  26.6154  27.2393  27.2393  30.3543  30.3544  30.7413
    30.9442  32.6469  36.6413  37.7730  37.8462  38.7865  38.7865  42.3563
    43.4983  44.4650  47.0154  47.0154  47.8777  49.0788  50.1960  50.1961
    50.6913  53.0127  53.0729  55.6513

          k = 0.0476-0.0476-0.1427 (  1250 PWs)   bands (ev):

     8.8457   8.8585  10.8633  10.8639  10.9220  10.9221  11.1552  11.1755
    11.5791  11.5792  12.0597  12.0825  12.5369  12.5446  12.9115  12.9117
    13.4790  13.4951  13.5918  13.5953  13.7156  13.7157  19.5180  19.5181
    21.1421  21.1421  28.2019  28.2038  28.4373  28.4466  28.9229  28.9260
    34.9229  34.9458  35.3893  35.4346  38.0669  38.1143  42.1998  42.1999
    44.7383  44.7639  45.3651  45.3653  49.4583  49.4939  50.8884  50.9007
    52.1797  52.1798  53.6759  53.6805

          k = 0.0951-0.0476 0.0951 (  1245 PWs)   bands (ev):

     8.3186  10.2176  10.2178  10.5037  11.1089  11.1548  11.1550  11.5566
    11.7689  11.7690  11.9020  12.1272  12.2527  12.7305  12.7308  12.7474
    13.0504  13.6050  13.6733  13.6894  13.6904  15.8100  15.8100  18.6213
    20.7997  23.8998  23.8998  27.9348  28.0544  31.1307  31.1308  32.1163
    32.1165  34.0131  35.2377  36.9050  39.3204  39.3205  40.1505  43.0325
    43.7316  44.7799  46.4584  46.4584  49.1872  49.1874  50.4128  50.5912
    50.9195  51.6131  52.2975  52.9217

          k =-0.0951 0.0476 0.0951 (  1245 PWs)   bands (ev):

     8.3186  10.2176  10.2178  10.5037  11.1089  11.1548  11.1550  11.5566
    11.7689  11.7690  11.9020  12.1272  12.2527  12.7305  12.7308  12.7474
    13.0504  13.6050  13.6733  13.6894  13.6904  15.8100  15.8100  18.6213
    20.7997  23.8998  23.8998  27.9348  28.0544  31.1307  31.1308  32.1163
    32.1165  34.0131  35.2377  36.9050  39.3204  39.3205  40.1505  43.0325
    43.7316  44.7799  46.4584  46.4584  49.1872  49.1874  50.4128  50.5912
    50.9195  51.6131  52.2975  52.9217

          k = 0.0951-0.0476-0.1427 (  1254 PWs)   bands (ev):

     9.3978   9.4057  10.4377  10.4400  11.3219  11.3226  11.4625  11.4789
    11.7723  11.7792  11.8894  11.9044  12.3990  12.4047  12.6108  12.6144
    13.3441  13.3505  13.5716  13.5782  14.2657  14.2682  17.1813  17.1938
    21.8106  21.8204  25.6568  25.6638  29.4290  29.4351  33.0343  33.0369
    33.2467  33.2522  36.8745  36.9273  40.1275  40.1391  40.4370  40.4464
    45.1864  45.1907  45.6677  45.6932  47.6925  47.7061  50.5574  50.5786
    51.7799  51.7922  53.8721  53.8957

          k = 0.0951-0.0951 0.0951 (  1253 PWs)   bands (ev):

     8.8624  10.0526  10.0529  10.0529  11.5132  11.5135  11.5135  12.0267
    12.0838  12.0838  12.0893  12.0981  12.0981  12.3767  12.3767  12.3769
    13.4529  13.4529  13.8175  13.8176  13.8176  16.1883  16.1884  16.1884
    21.4070  21.4070  21.4071  25.1469  32.4964  32.4964  32.4966  35.2402
    35.2403  35.2404  37.2699  37.2700  37.2703  37.7886  39.9476  39.9476
    44.4415  44.4415  47.7683  48.0617  48.0617  48.0627  48.1358  48.1360
    48.1360  52.4434  52.4438  52.4438

          k = 0.0951-0.0951-0.1427 (  1266 PWs)   bands (ev):

     9.4874   9.4895   9.9842   9.9844  11.6331  11.6332  11.9134  11.9259
    12.1355  12.1372  12.2537  12.2568  12.2666  12.2791  12.3714  12.3718
    13.7372  13.7384  13.7458  13.7466  14.1567  14.1574  16.4727  16.4727
    20.3780  20.3780  22.9611  22.9684  33.4123  33.4124  34.6234  34.6236
    36.3163  36.3383  37.2366  37.2485  38.9719  39.0094  39.4359  39.4360
    44.6484  44.6485  44.8904  44.9091  46.0107  46.0157  48.5470  48.5470
    49.5977  49.6056  52.9742  52.9750

 ------ SPIN DOWN ----------


          k = 0.0000 0.0000 0.0000 (  1237 PWs)   bands (ev):

     5.3743  10.1750  10.1750  10.1750  10.8839  10.8843  10.8843  12.8251
    12.8251  12.8251  13.9032  13.9032  14.6551  14.6551  14.6551  14.9402
    14.9402  14.9402  14.9404  14.9404  14.9404  16.9903  16.9904  16.9904
    24.1120  24.1121  24.1121  29.5504  29.5505  29.5505  29.5506  29.5506
    29.5507  34.8063  34.8063  34.8065  38.1292  38.1294  38.1294  38.2863
    42.4381  42.4381  42.4381  46.1386  46.1386  46.1386  48.0093  55.3511
    55.3511  55.3511  58.1424  59.5829

          k =-0.0000-0.0000 0.0476 (  1273 PWs)   bands (ev):

     5.7404  10.1505  10.3691  10.3691  11.0035  11.0078  11.0081  12.6832
    12.9315  12.9315  13.7753  13.9516  14.0974  14.0976  14.4880  14.4881
    14.6032  14.7477  14.7477  14.9407  14.9407  15.5385  18.1343  18.1344
    24.1928  24.1928  26.2574  27.8812  27.8813  28.4679  28.4679  30.1272
    30.1272  34.9099  36.8956  36.8957  37.7176  38.2587  40.0619  40.0620
    40.2894  40.2894  40.8425  47.5063  48.0965  48.0965  49.2154  51.5440
    56.4691  56.4691  56.5950  56.5953

          k =-0.0000-0.0000 0.0951 (  1246 PWs)   bands (ev):

     6.7939   9.7135  10.8305  10.8305  11.3364  11.3854  11.3858  12.3051
    12.9504  12.9508  13.2411  13.2411  13.4543  13.6762  14.0760  14.0760
    14.0866  14.2733  14.2733  14.4626  14.9413  14.9413  20.1748  20.1749
    24.4658  24.4658  25.1800  25.1800  26.7706  26.7707  30.4508  31.7406
    31.7406  35.2354  36.6890  37.0966  37.0966  38.2546  38.8157  40.8639
    40.8641  44.2067  44.2068  44.3581  50.8768  50.9479  50.9479  50.9724
    50.9724  54.9264  56.1835  56.1835

          k = 0.0000 0.0000-0.1427 (  1238 PWs)   bands (ev):

     8.3291   8.3449  11.1221  11.1222  11.7968  11.8208  12.0199  12.0202
    12.0427  12.0430  13.1714  13.2058  13.7073  13.7073  13.7248  13.7248
    13.8093  13.8093  14.2666  14.2795  14.9416  14.9416  22.5368  22.5369
    22.5766  22.5767  24.7895  24.7896  25.8844  25.8844  34.1328  34.1328
    34.1600  34.1600  34.8556  34.9148  35.8124  35.8286  40.4087  40.5021
    45.5741  45.5742  45.6561  45.6562  47.6865  47.6866  52.4778  52.4778
    54.0232  54.0232  54.0971  54.0971

          k =-0.0000 0.0476 0.0476 (  1269 PWs)   bands (ev):

     6.0989  10.3614  10.3614  10.5511  11.1073  11.1176  11.1179  12.6096
    12.9819  12.9863  13.6959  13.7277  13.7375  13.7590  13.9525  14.3497
    14.4757  14.4757  14.7465  14.7466  14.8175  16.7148  16.7148  18.9628
    24.1553  25.2248  26.4316  26.4317  28.3728  28.3728  28.9742  28.9745
    30.6633  36.1062  36.1355  37.0937  37.0939  37.3457  40.2287  40.2289
    41.1857  42.6863  43.4957  45.1708  46.4198  49.9410  50.3760  53.2613
    53.6313  55.3072  55.3078  56.2390

          k =-0.0000 0.0476 0.0951 (  1263 PWs)   bands (ev):

     7.1285   9.9640  10.8775  10.9958  11.3906  11.4232  11.4646  12.2974
    12.6742  12.8431  13.0347  13.0797  13.2573  13.5785  14.0003  14.0849
    14.1555  14.2424  14.2716  14.7433  14.7534  15.1431  18.3529  20.7838
    22.2761  24.8326  25.6521  26.6646  27.5221  29.7122  29.9570  30.0254
    31.1087  33.7980  34.5053  37.7174  38.6656  40.3373  40.5120  40.8626
    41.1139  44.1168  45.2315  47.1193  47.7031  48.5659  49.8732  51.2557
    52.8910  53.1650  55.0356  56.4585

          k = 0.0000 0.0476-0.1427 (  1256 PWs)   bands (ev):

     8.6230   8.6380  11.2648  11.2667  11.8373  11.8592  11.8623  11.8809
    12.0376  12.0599  12.8949  12.9216  13.7105  13.7281  13.7900  13.7940
    13.7993  13.8020  14.4983  14.4991  14.7403  14.7442  20.1540  20.1741
    23.0497  23.0850  25.5655  25.5942  28.4172  28.4276  31.6021  31.6125
    32.0711  32.0781  35.8170  35.8829  38.8238  38.8274  42.3310  42.3896
    43.0913  43.1147  45.8489  45.9263  50.1090  50.1753  50.2665  50.2986
    52.5112  52.5374  53.3593  53.3795

          k =-0.0000 0.0951 0.0951 (  1276 PWs)   bands (ev):

     8.0784  10.6021  10.6022  11.3592  11.4415  11.6785  11.6792  12.1997
    12.3456  12.3456  12.5191  12.9168  13.4011  13.4747  13.7731  13.9114
    13.9116  14.2755  14.2756  14.4656  14.5422  16.2847  16.2848  19.6048
    22.3253  25.3537  26.9395  26.9395  27.9942  27.9945  31.1122  31.7216
    31.7255  31.8040  33.6526  36.8697  41.4596  41.8579  41.8581  43.1057
    43.2905  43.8091  43.8092  47.3047  47.3549  48.5154  48.5158  51.7290
    52.0621  52.1278  53.4028  55.2448

          k = 0.0000 0.0951-0.1427 (  1264 PWs)   bands (ev):

     9.4224   9.4352  11.2126  11.2262  11.8438  11.8451  11.9502  11.9716
    12.0658  12.0869  12.5900  12.6069  13.5672  13.5677  13.6391  13.6417
    13.7594  13.7777  14.3126  14.3238  15.1654  15.1688  17.6672  17.6823
    24.4221  24.4480  26.3630  26.3866  28.8058  28.8170  29.6225  29.6263
    33.0136  33.0208  36.7823  36.8469  40.3537  40.3650  42.9856  42.9971
    43.2279  43.2331  46.6427  46.7055  47.9823  48.0213  50.3525  50.3878
    51.8510  51.9059  53.4660  53.4797

          k = 0.0000-0.1427-0.1427 (  1260 PWs)   bands (ev):

    10.4286  10.4400  10.4400  10.4512  12.0342  12.0547  12.0547  12.0750
    12.2894  12.2958  12.2958  12.3021  13.4225  13.4246  13.4246  13.4269
    13.9338  13.9505  13.9505  13.9672  16.1068  16.1130  16.1130  16.1191
    26.3813  26.3986  26.3986  26.4156  27.6848  27.6992  27.6993  27.7142
    37.9453  37.9622  37.9622  37.9804  38.4421  38.4632  38.4633  38.4816
    47.0529  47.0533  47.0534  47.0553  49.1397  49.1753  49.1754  49.2109
    51.9096  51.9144  51.9144  51.9188

          k = 0.0476 0.0476 0.0476 (  1274 PWs)   bands (ev):

     6.4475  10.5492  10.5493  10.5493  11.2086  11.2091  11.2091  12.5547
    13.0067  13.0067  13.3962  13.3962  13.3962  13.8647  13.8647  14.1567
    14.1570  14.1570  14.8176  14.8176  14.8178  17.3682  17.3684  17.3684
    25.4535  25.4536  25.4536  26.7612  26.7612  26.7614  31.1891  31.1894
    31.1894  33.5451  36.2572  36.2572  36.2573  39.0934  41.1860  41.1860
    42.8902  42.8903  42.8903  46.5003  47.6009  47.6009  51.8044  51.8044
    55.1763  55.1769  55.1769  55.4488

          k = 0.0476 0.0476 0.0951 (  1265 PWs)   bands (ev):

     7.4446  10.1628  11.0087  11.0088  11.4501  11.4505  11.5061  12.3077
    12.6755  12.6755  12.8404  13.0392  13.1287  13.7695  13.8027  13.8665
    13.8681  14.1406  14.7055  14.7353  14.7356  15.4260  18.6962  18.6963
    22.9134  22.9135  26.7596  27.3883  27.3883  30.4291  30.4293  30.8553
    31.0316  32.6933  36.7157  37.6786  37.9233  38.8166  38.8166  42.3637
    43.5786  44.4824  47.0595  47.0595  47.9196  49.0243  50.1848  50.1849
    50.6981  52.9418  53.0329  55.7662

          k = 0.0476 0.0476-0.1427 (  1250 PWs)   bands (ev):

     8.8796   8.8935  11.4362  11.4363  11.5032  11.5038  11.9055  11.9276
    12.2935  12.2937  12.8086  12.8339  13.3887  13.3950  13.6756  13.6758
    14.2837  14.3008  14.4544  14.4562  14.6878  14.6879  19.7753  19.7754
    21.4460  21.4461  28.3168  28.3187  28.5794  28.5879  29.0376  29.0410
    34.9924  35.0149  35.3615  35.4085  38.1439  38.1917  42.1810  42.1810
    44.8241  44.8519  45.3539  45.3542  49.3785  49.4143  50.8425  50.8549
    52.2131  52.2132  53.8524  53.8604

          k = 0.0476 0.0951 0.0951 (  1245 PWs)   bands (ev):

     8.3304  10.6106  10.6107  11.1225  11.6164  11.7568  11.7572  12.2836
    12.4894  12.4896  12.6143  12.9283  13.0774  13.5296  13.5306  13.5338
    13.8943  14.4545  14.6021  14.6031  14.6212  16.3635  16.3636  18.8960
    21.1437  24.1168  24.1168  28.0943  28.1844  31.1944  31.1944  32.2088
    32.2091  34.0677  35.2631  36.9301  39.3350  39.3352  40.0740  43.1462
    43.7231  44.7255  46.4522  46.4523  49.2418  49.2421  50.3443  50.5747
    50.8957  51.6856  52.3629  52.8483

          k = 0.0476 0.0951-0.1427 (  1254 PWs)   bands (ev):

     9.5460   9.5563  10.9718  10.9764  11.8758  11.8781  12.1076  12.1263
    12.4657  12.4743  12.6491  12.6659  13.2043  13.2086  13.3861  13.3891
    14.2084  14.2176  14.5075  14.5150  15.0587  15.0621  17.5927  17.6047
    22.1113  22.1201  25.8573  25.8632  29.5288  29.5364  33.0918  33.0927
    33.3149  33.3219  36.8876  36.9399  40.1121  40.1228  40.4591  40.4693
    45.1738  45.1774  45.6586  45.6855  47.6723  47.6878  50.5956  50.6167
    51.7194  51.7312  53.9543  53.9765

          k = 0.0476-0.1427-0.1427 (  1256 PWs)   bands (ev):

    10.3218  10.3281  10.3281  10.3342  12.2748  12.2839  12.2839  12.2929
    12.4934  12.5045  12.5045  12.5156  13.1461  13.1509  13.1509  13.1559
    14.2309  14.2424  14.2424  14.2540  15.9809  15.9877  15.9877  15.9943
    23.7005  23.7069  23.7069  23.7132  31.0484  31.0522  31.0522  31.0562
    38.2260  38.2342  38.2342  38.2567  38.2732  38.2982  38.2983  38.3077
    46.5817  46.5817  46.5821  46.5836  46.7592  46.7803  46.7803  46.7994
    54.8526  54.8669  54.8669  55.0838

          k = 0.0951 0.0951 0.0951 (  1253 PWs)   bands (ev):

     8.9955  10.5625  10.5628  10.5628  12.0725  12.0727  12.0727  12.5501
    12.7678  12.7678  12.7687  12.8956  12.8956  13.1682  13.1682  13.1684
    14.3344  14.3344  14.7457  14.7457  14.7459  16.6149  16.6151  16.6151
    21.7456  21.7456  21.7457  25.3723  32.5427  32.5427  32.5429  35.3015
    35.3018  35.3018  37.2826  37.2826  37.2828  37.6173  40.0336  40.0336
    44.4506  44.4506  47.7832  48.0100  48.0100  48.0110  48.1371  48.1373
    48.1373  52.4746  52.4749  52.4749

          k = 0.0951 0.0951-0.1427 (  1266 PWs)   bands (ev):

     9.8184   9.8233  10.5225  10.5227  12.2650  12.2652  12.5724  12.5847
    12.8182  12.8338  12.9281  12.9293  12.9719  12.9719  13.0358  13.0359
    14.6464  14.6484  14.6747  14.6752  14.8719  14.8746  16.8043  16.8043
    20.8152  20.8152  23.2511  23.2573  33.4200  33.4200  34.7093  34.7097
    36.2067  36.2301  37.3094  37.3204  39.0524  39.0895  39.4104  39.4105
    44.6747  44.6749  44.8672  44.8862  46.0184  46.0244  48.5066  48.5067
    49.6512  49.6589  53.0831  53.0839

          k = 0.0951-0.1427-0.1427 (  1268 PWs)   bands (ev):

    10.1335  10.1350  10.1350  10.1362  12.6093  12.6125  12.6125  12.6156
    12.8419  12.8451  12.8451  12.8485  13.2506  13.2589  13.2589  13.2672
    14.5786  14.5847  14.5847  14.5910  15.4895  15.4970  15.4970  15.5043
    21.4791  21.4843  21.4843  21.4895  35.1211  35.1257  35.1258  35.1306
    38.1757  38.1844  38.1844  38.1936  38.9960  39.0058  39.0058  39.0143
    44.1128  44.1225  44.1225  44.1320  45.1434  45.1462  45.1462  45.1489
    50.5028  50.5065  50.5065  50.5109

          k =-0.1427-0.1427-0.1427 (  1328 PWs)   bands (ev):

    10.0494  10.0498  10.0498  10.0498  12.7306  12.7306  12.7306  12.7308
    12.7308  12.7309  12.7309  12.7309  14.1905  14.1905  14.1905  14.1910
    14.7174  14.7174  14.7176  14.7176  14.7176  14.7178  14.7178  14.7178
    20.6927  20.6927  20.6927  20.6928  36.7630  36.7632  36.7632  36.7633
    39.6423  39.6423  39.6423  39.6424  39.6424  39.6428  39.6428  39.6429
    42.8297  42.8297  42.8297  42.8298  42.8298  42.8300  42.8300  42.8300
    48.8837  48.8837  48.8837  48.8840

          k =-0.0476 0.0000 0.0476 (  1269 PWs)   bands (ev):

     6.0989  10.3614  10.3614  10.5511  11.1073  11.1176  11.1179  12.6096
    12.9819  12.9863  13.6959  13.7277  13.7375  13.7590  13.9525  14.3497
    14.4757  14.4757  14.7465  14.7466  14.8175  16.7148  16.7148  18.9628
    24.1553  25.2248  26.4316  26.4318  28.3727  28.3728  28.9742  28.9746
    30.6633  36.1062  36.1355  37.0937  37.0939  37.3457  40.2286  40.2290
    41.1857  42.6863  43.4956  45.1708  46.4198  49.9410  50.3760  53.2613
    53.6313  55.3072  55.3078  56.2390

          k =-0.0476-0.0000 0.0951 (  1263 PWs)   bands (ev):

     7.1285   9.9640  10.8775  10.9958  11.3906  11.4232  11.4646  12.2974
    12.6742  12.8431  13.0347  13.0797  13.2573  13.5785  14.0003  14.0849
    14.1555  14.2424  14.2716  14.7433  14.7534  15.1431  18.3529  20.7838
    22.2761  24.8326  25.6521  26.6646  27.5221  29.7122  29.9570  30.0254
    31.1087  33.7980  34.5053  37.7174  38.6656  40.3373  40.5120  40.8626
    41.1139  44.1168  45.2315  47.1193  47.7031  48.5659  49.8732  51.2557
    52.8910  53.1650  55.0356  56.4585

          k =-0.0951 0.0000 0.0951 (  1276 PWs)   bands (ev):

     8.0784  10.6021  10.6022  11.3592  11.4415  11.6785  11.6792  12.1997
    12.3456  12.3456  12.5191  12.9168  13.4011  13.4747  13.7731  13.9113
    13.9116  14.2755  14.2756  14.4656  14.5422  16.2848  16.2848  19.6048
    22.3253  25.3537  26.9394  26.9395  27.9941  27.9945  31.1122  31.7216
    31.7255  31.8040  33.6526  36.8697  41.4596  41.8580  41.8581  43.1057
    43.2905  43.8091  43.8092  47.3047  47.3549  48.5154  48.5158  51.7290
    52.0621  52.1278  53.4028  55.2466

          k = 0.0476-0.0476 0.0476 (  1274 PWs)   bands (ev):

     6.4475  10.5492  10.5492  10.5493  11.2086  11.2091  11.2091  12.5547
    13.0067  13.0067  13.3962  13.3962  13.3962  13.8647  13.8647  14.1567
    14.1569  14.1570  14.8176  14.8176  14.8178  17.3683  17.3684  17.3684
    25.4535  25.4536  25.4536  26.7612  26.7612  26.7614  31.1892  31.1893
    31.1894  33.5451  36.2571  36.2572  36.2574  39.0934  41.1860  41.1860
    42.8902  42.8903  42.8903  46.5003  47.6009  47.6009  51.8044  51.8044
    55.1763  55.1768  55.1769  55.4488

          k = 0.0476-0.0476 0.0951 (  1265 PWs)   bands (ev):

     7.4446  10.1628  11.0087  11.0087  11.4501  11.4505  11.5061  12.3077
    12.6755  12.6755  12.8404  13.0392  13.1287  13.7695  13.8027  13.8665
    13.8681  14.1406  14.7055  14.7353  14.7356  15.4260  18.6962  18.6963
    22.9135  22.9135  26.7596  27.3883  27.3883  30.4291  30.4292  30.8553
    31.0316  32.6933  36.7157  37.6786  37.9233  38.8166  38.8167  42.3637
    43.5786  44.4824  47.0595  47.0596  47.9196  49.0243  50.1847  50.1849
    50.6981  52.9418  53.0329  55.7662

          k =-0.0951 0.0476 0.0476 (  1265 PWs)   bands (ev):

     7.4446  10.1628  11.0087  11.0088  11.4501  11.4505  11.5061  12.3077
    12.6755  12.6755  12.8404  13.0392  13.1287  13.7695  13.8027  13.8665
    13.8681  14.1406  14.7055  14.7353  14.7356  15.4260  18.6962  18.6963
    22.9134  22.9135  26.7596  27.3883  27.3883  30.4291  30.4293  30.8553
    31.0316  32.6933  36.7157  37.6786  37.9233  38.8166  38.8166  42.3637
    43.5786  44.4824  47.0595  47.0595  47.9196  49.0243  50.1848  50.1849
    50.6981  52.9418  53.0329  55.7662

          k = 0.0476-0.0476-0.1427 (  1250 PWs)   bands (ev):

     8.8796   8.8935  11.4362  11.4362  11.5032  11.5038  11.9055  11.9276
    12.2935  12.2937  12.8086  12.8339  13.3887  13.3950  13.6756  13.6759
    14.2837  14.3008  14.4544  14.4562  14.6878  14.6879  19.7754  19.7754
    21.4461  21.4461  28.3168  28.3186  28.5794  28.5879  29.0376  29.0410
    34.9924  35.0149  35.3615  35.4085  38.1439  38.1917  42.1809  42.1811
    44.8241  44.8519  45.3540  45.3541  49.3785  49.4143  50.8425  50.8549
    52.2131  52.2133  53.8524  53.8604

          k = 0.0951-0.0476 0.0951 (  1245 PWs)   bands (ev):

     8.3304  10.6106  10.6107  11.1225  11.6164  11.7568  11.7572  12.2836
    12.4894  12.4896  12.6143  12.9283  13.0774  13.5296  13.5306  13.5339
    13.8943  14.4545  14.6021  14.6031  14.6212  16.3635  16.3636  18.8960
    21.1437  24.1168  24.1168  28.0943  28.1844  31.1944  31.1944  32.2088
    32.2091  34.0677  35.2631  36.9301  39.3350  39.3352  40.0740  43.1462
    43.7231  44.7255  46.4522  46.4523  49.2418  49.2421  50.3443  50.5747
    50.8957  51.6856  52.3629  52.8485

          k =-0.0951 0.0476 0.0951 (  1245 PWs)   bands (ev):

     8.3304  10.6106  10.6107  11.1225  11.6164  11.7568  11.7572  12.2836
    12.4894  12.4896  12.6143  12.9283  13.0774  13.5296  13.5306  13.5339
    13.8943  14.4545  14.6021  14.6031  14.6212  16.3635  16.3636  18.8960
    21.1437  24.1168  24.1168  28.0943  28.1844  31.1943  31.1945  32.2088
    32.2090  34.0677  35.2631  36.9301  39.3350  39.3352  40.0740  43.1462
    43.7231  44.7255  46.4522  46.4523  49.2418  49.2421  50.3443  50.5747
    50.8957  51.6856  52.3629  52.8487

          k = 0.0951-0.0476-0.1427 (  1254 PWs)   bands (ev):

     9.5460   9.5563  10.9718  10.9764  11.8758  11.8781  12.1076  12.1263
    12.4657  12.4743  12.6491  12.6659  13.2043  13.2086  13.3861  13.3891
    14.2084  14.2176  14.5075  14.5150  15.0587  15.0621  17.5927  17.6047
    22.1113  22.1201  25.8573  25.8632  29.5288  29.5364  33.0918  33.0927
    33.3149  33.3219  36.8876  36.9399  40.1121  40.1228  40.4591  40.4693
    45.1738  45.1774  45.6586  45.6855  47.6723  47.6878  50.5956  50.6167
    51.7194  51.7312  53.9543  53.9765

          k = 0.0951-0.0951 0.0951 (  1253 PWs)   bands (ev):

     8.9955  10.5625  10.5628  10.5629  12.0725  12.0727  12.0727  12.5501
    12.7678  12.7678  12.7687  12.8956  12.8956  13.1682  13.1682  13.1685
    14.3344  14.3344  14.7457  14.7457  14.7459  16.6150  16.6151  16.6151
    21.7456  21.7457  21.7457  25.3723  32.5427  32.5427  32.5430  35.3016
    35.3018  35.3018  37.2825  37.2826  37.2829  37.6173  40.0336  40.0336
    44.4506  44.4506  47.7832  48.0099  48.0100  48.0111  48.1371  48.1373
    48.1373  52.4746  52.4749  52.4749

          k = 0.0951-0.0951-0.1427 (  1266 PWs)   bands (ev):

     9.8184   9.8233  10.5225  10.5227  12.2651  12.2652  12.5724  12.5847
    12.8182  12.8338  12.9281  12.9294  12.9719  12.9719  13.0358  13.0359
    14.6464  14.6484  14.6747  14.6752  14.8719  14.8746  16.8043  16.8043
    20.8152  20.8152  23.2511  23.2573  33.4199  33.4200  34.7094  34.7096
    36.2067  36.2301  37.3094  37.3204  39.0524  39.0895  39.4104  39.4105
    44.6747  44.6749  44.8672  44.8862  46.0184  46.0244  48.5066  48.5067
    49.6512  49.6589  53.0830  53.0839

     the Fermi energy is    14.4905 ev

!    total energy              =    -343.63004839 Ry
     Harris-Foulkes estimate   =    -343.63004838 Ry
     estimated scf accuracy    <          2.0E-09 Ry

     The total energy is the sum of the following terms:

     one-electron contribution =      -6.40529796 Ry
     hartree contribution      =      60.35704532 Ry
     xc contribution           =    -120.51401240 Ry
     ewald contribution        =    -277.01937141 Ry
     Dispersion Correction     =      -0.04783669 Ry
     smearing contrib. (-TS)   =      -0.00057525 Ry

     total magnetization       =     2.84 Bohr mag/cell
     absolute magnetization    =     3.25 Bohr mag/cell

     convergence has been achieved in  11 iterations

     Forces acting on atoms (Ry/au):

     atom    1 type  1   force =    -0.00171203   -0.00171203    0.00171236
     atom    2 type  1   force =     0.00171170    0.00171170    0.00171170
     atom    3 type  1   force =    -0.00171203    0.00171236   -0.00171203
     atom    4 type  1   force =     0.00171236   -0.00171203   -0.00171203

     Total force =     0.005931     Total SCF correction =     0.000026


     entering subroutine stress ...

          total   stress  (Ry/bohr**3)                   (kbar)     P=   -0.59
  -0.00000403  -0.00000000  -0.00000000         -0.59     -0.00     -0.00
  -0.00000000  -0.00000403  -0.00000000         -0.00     -0.59     -0.00
  -0.00000000  -0.00000000  -0.00000403         -0.00     -0.00     -0.59


     number of scf cycles    =   2
     number of bfgs steps    =   1

     enthalpy old            =    -343.6294390730 Ry
     enthalpy new            =    -343.6300483945 Ry

     CASE: enthalpy_new < enthalpy_old

     new trust radius        =       0.0032367024 bohr
     new conv_thr            =       0.0000000002 Ry

     new unit-cell volume =    289.90085 a.u.^3 (    42.95887 Ang^3 )

CELL_PARAMETERS (alat=  1.88972590)
   3.502281201  -0.000000151  -0.000000151
  -0.000000151   3.502281201  -0.000000151
  -0.000000151  -0.000000151   3.502281201

ATOMIC_POSITIONS (alat)
Ni1      1.756714903   1.756714903   0.002200966
Ni1      0.002199366   0.002199366   0.002199366
Ni1      1.756714903   0.002200966   1.756714903
Ni1      0.002200966   1.756714903   1.756714903



     Writing output data file Ni-ferromag.save
     NEW-OLD atomic charge density approx. for the potential

     Check: negative/imaginary core charge=   -0.000005    0.000000
     extrapolated charge   39.96665, renormalised to   40.00000

     total cpu time spent up to now is      647.6 secs

     Self-consistent Calculation

     iteration #  1     ecut=    40.00 Ry     beta=0.20
     Davidson diagonalization with overlap
     ethr =  1.00E-06,  avg # of iterations =  2.8

     total cpu time spent up to now is      680.6 secs

     total energy              =    -343.62984941 Ry
     Harris-Foulkes estimate   =    -343.66517556 Ry
     estimated scf accuracy    <       0.00036041 Ry

     total magnetization       =     2.82 Bohr mag/cell
     absolute magnetization    =     3.24 Bohr mag/cell

     iteration #  2     ecut=    40.00 Ry     beta=0.20
     Davidson diagonalization with overlap
     ethr =  9.01E-07,  avg # of iterations =  2.3

     total cpu time spent up to now is      702.4 secs

     total energy              =    -343.63007802 Ry
     Harris-Foulkes estimate   =    -343.63010541 Ry
     estimated scf accuracy    <       0.00014308 Ry

     total magnetization       =     2.84 Bohr mag/cell
     absolute magnetization    =     3.26 Bohr mag/cell

     iteration #  3     ecut=    40.00 Ry     beta=0.20
     Davidson diagonalization with overlap
     ethr =  3.58E-07,  avg # of iterations =  1.0

     total cpu time spent up to now is      722.9 secs

     total energy              =    -343.63004615 Ry
     Harris-Foulkes estimate   =    -343.63008265 Ry
     estimated scf accuracy    <       0.00004975 Ry

     total magnetization       =     2.84 Bohr mag/cell
     absolute magnetization    =     3.25 Bohr mag/cell

     iteration #  4     ecut=    40.00 Ry     beta=0.20
     Davidson diagonalization with overlap
     ethr =  1.24E-07,  avg # of iterations =  2.0

     total cpu time spent up to now is      745.1 secs

     total energy              =    -343.63007617 Ry
     Harris-Foulkes estimate   =    -343.63009020 Ry
     estimated scf accuracy    <       0.00007949 Ry

     total magnetization       =     2.83 Bohr mag/cell
     absolute magnetization    =     3.25 Bohr mag/cell

     iteration #  5     ecut=    40.00 Ry     beta=0.20
     Davidson diagonalization with overlap
     ethr =  1.24E-07,  avg # of iterations =  1.0

     total cpu time spent up to now is      765.6 secs

     total energy              =    -343.63007430 Ry
     Harris-Foulkes estimate   =    -343.63007819 Ry
     estimated scf accuracy    <       0.00003092 Ry

     total magnetization       =     2.83 Bohr mag/cell
     absolute magnetization    =     3.25 Bohr mag/cell

     iteration #  6     ecut=    40.00 Ry     beta=0.20
     Davidson diagonalization with overlap
     ethr =  7.73E-08,  avg # of iterations =  1.0

     total cpu time spent up to now is      786.0 secs

     total energy              =    -343.63006785 Ry
     Harris-Foulkes estimate   =    -343.63007469 Ry
     estimated scf accuracy    <       0.00001663 Ry

     total magnetization       =     2.83 Bohr mag/cell
     absolute magnetization    =     3.25 Bohr mag/cell

     iteration #  7     ecut=    40.00 Ry     beta=0.20
     Davidson diagonalization with overlap
     ethr =  4.16E-08,  avg # of iterations =  1.0

     total cpu time spent up to now is      806.4 secs

     total energy              =    -343.63007067 Ry
     Harris-Foulkes estimate   =    -343.63007059 Ry
     estimated scf accuracy    <       0.00000001 Ry

     total magnetization       =     2.84 Bohr mag/cell
     absolute magnetization    =     3.25 Bohr mag/cell

     iteration #  8     ecut=    40.00 Ry     beta=0.20
     Davidson diagonalization with overlap
     ethr =  3.61E-11,  avg # of iterations =  2.2

     total cpu time spent up to now is      832.2 secs

     total energy              =    -343.63007076 Ry
     Harris-Foulkes estimate   =    -343.63007077 Ry
     estimated scf accuracy    <       0.00000066 Ry

     total magnetization       =     2.83 Bohr mag/cell
     absolute magnetization    =     3.25 Bohr mag/cell

     iteration #  9     ecut=    40.00 Ry     beta=0.20
     Davidson diagonalization with overlap
     ethr =  3.61E-11,  avg # of iterations =  1.0

     total cpu time spent up to now is      852.6 secs

     total energy              =    -343.63007088 Ry
     Harris-Foulkes estimate   =    -343.63007076 Ry
     estimated scf accuracy    <       0.00000061 Ry

     total magnetization       =     2.83 Bohr mag/cell
     absolute magnetization    =     3.25 Bohr mag/cell

     iteration # 10     ecut=    40.00 Ry     beta=0.20
     Davidson diagonalization with overlap
     ethr =  3.61E-11,  avg # of iterations =  2.0

     total cpu time spent up to now is      875.1 secs

     total energy              =    -343.63007041 Ry
     Harris-Foulkes estimate   =    -343.63007089 Ry
     estimated scf accuracy    <       0.00000114 Ry

     total magnetization       =     2.83 Bohr mag/cell
     absolute magnetization    =     3.25 Bohr mag/cell

     iteration # 11     ecut=    40.00 Ry     beta=0.20
     Davidson diagonalization with overlap
     ethr =  3.61E-11,  avg # of iterations =  2.7

     Magnetic moment per site:
     atom:    1    charge:    3.0032    magn:    0.3346    constr:    0.0000
     atom:    2    charge:    3.0014    magn:    0.3344    constr:    0.0000
     atom:    3    charge:    3.0032    magn:    0.3346    constr:    0.0000
     atom:    4    charge:    3.0032    magn:    0.3346    constr:    0.0000

     total cpu time spent up to now is      901.5 secs

     End of self-consistent calculation

 ------ SPIN UP ------------


          k = 0.0000 0.0000 0.0000 (  1237 PWs)   bands (ev):

     5.4392   9.7238   9.7239   9.7239  10.1774  10.1775  10.1775  11.9584
    11.9584  11.9584  13.1383  13.1383  13.8570  13.8570  13.8570  13.9471
    13.9471  13.9471  13.9471  13.9471  13.9472  17.0856  17.0856  17.0856
    23.8300  23.8301  23.8301  29.5881  29.5881  29.5881  29.5882  29.5882
    29.5882  34.6697  34.6697  34.6698  38.0184  38.0185  38.0185  38.5152
    42.4971  42.4971  42.4972  46.1009  46.1009  46.1009  48.1995  55.2034
    55.2034  55.2034  57.6365  59.0758

          k = 0.0000 0.0000 0.0476 (  1273 PWs)   bands (ev):

     5.8056   9.7460   9.9082   9.9082  10.2881  10.3039  10.3040  11.8296
    12.0609  12.0609  13.0201  13.1849  13.2924  13.2924  13.7032  13.7032
    13.7711  13.7711  13.8074  13.9474  13.9474  15.4846  18.0452  18.0452
    23.9258  23.9258  26.0795  27.8360  27.8361  28.4647  28.4648  30.1488
    30.1488  34.7857  36.8428  36.8428  37.8806  38.1503  39.9756  39.9757
    40.2765  40.2765  40.9404  47.5202  48.1557  48.1557  49.1808  51.5875
    56.3012  56.3012  56.7033  56.7034

          k = 0.0000 0.0000 0.0952 (  1246 PWs)   bands (ev):

     6.8554   9.5170  10.3455  10.3455  10.5960  10.6874  10.6876  11.4852
    12.2352  12.2354  12.3578  12.3578  12.7321  13.3138  13.3196  13.3216
    13.3216  13.3346  13.3346  13.6731  13.9479  13.9480  20.0090  20.0090
    24.2426  24.2426  25.0615  25.0615  26.6970  26.6970  30.3802  31.7291
    31.7291  35.1486  36.7493  37.0541  37.0541  38.3710  38.7028  40.8880
    40.8881  44.1418  44.1418  44.1771  50.9559  51.0749  51.0749  51.0789
    51.0789  55.0662  55.9744  55.9744

          k =-0.0000-0.0000-0.1428 (  1238 PWs)   bands (ev):

     8.3504   8.3601  10.6218  10.6218  11.0242  11.0384  11.3279  11.3279
    11.3419  11.3420  12.5450  12.5648  12.8050  12.8050  12.8156  12.8156
    13.0759  13.0759  13.4882  13.4960  13.9482  13.9482  22.3837  22.3837
    22.4082  22.4082  24.6147  24.6148  25.7524  25.7524  34.0999  34.0999
    34.1171  34.1171  34.9121  34.9484  35.7913  35.7999  40.2693  40.3274
    45.6654  45.6654  45.7159  45.7160  47.6485  47.6486  52.3239  52.3239
    54.1800  54.1800  54.2266  54.2266

          k = 0.0000 0.0476 0.0476 (  1269 PWs)   bands (ev):

     6.1633   9.9445   9.9445  10.0715  10.4055  10.4056  10.4195  11.7696
    12.1059  12.1230  12.9458  12.9914  13.0042  13.0085  13.1804  13.5746
    13.6992  13.6992  13.7697  13.7697  13.8313  16.4176  16.4177  18.8156
    23.9193  25.1186  26.2667  26.2667  28.3139  28.3139  28.9576  28.9577
    30.6769  36.0594  36.1412  37.0512  37.0513  37.3564  40.1438  40.1439
    41.2945  42.6320  43.5569  45.2579  46.3937  49.8214  50.4833  53.1298
    53.6982  55.3801  55.3803  56.3332

          k = 0.0000 0.0476 0.0952 (  1263 PWs)   bands (ev):

     7.1854   9.7532  10.4270  10.4755  10.6876  10.7409  10.7600  11.4883
    11.9965  12.1362  12.2519  12.3695  12.3950  12.8286  13.2504  13.3263
    13.3383  13.3598  13.5121  13.7662  13.7727  14.4503  18.0330  20.5995
    22.0984  24.6287  25.5231  26.5523  27.4227  29.6283  29.9212  29.9781
    31.0379  33.7462  34.4898  37.7034  38.6568  40.4138  40.5925  40.7761
    41.1438  44.0686  45.0644  47.0881  47.8121  48.6172  49.9226  51.3636
    52.9697  53.2891  54.8532  56.2370

          k =-0.0000 0.0476-0.1428 (  1256 PWs)   bands (ev):

     8.6323   8.6414  10.7742  10.7748  11.0761  11.0898  11.1969  11.2084
    11.3426  11.3563  12.1737  12.1884  12.8056  12.8165  13.0381  13.0429
    13.0607  13.0613  13.6758  13.6759  13.7629  13.7651  19.8963  19.9087
    22.8844  22.9065  25.4235  25.4403  28.3277  28.3333  31.5152  31.5226
    32.0398  32.0449  35.8312  35.8728  38.8508  38.8539  42.2245  42.2603
    43.1340  43.1474  45.9429  45.9907  50.0924  50.1350  50.3728  50.3929
    52.6337  52.6497  53.2297  53.2425

          k = 0.0000 0.0952 0.0952 (  1276 PWs)   bands (ev):

     8.1123  10.3411  10.3412  10.7072  10.9558  10.9560  10.9696  11.4184
    11.6656  11.6656  11.8203  12.1392  12.5004  12.7422  13.0342  13.1892
    13.1893  13.3300  13.3300  13.5002  13.7155  15.6971  15.6971  19.3168
    22.1269  25.1793  26.7965  26.7965  27.9168  27.9169  31.0065  31.6618
    31.6631  31.7598  33.6270  36.8620  41.5515  41.9057  41.9058  43.1029
    43.4361  43.7993  43.7993  47.2204  47.3598  48.5054  48.5056  51.7058
    52.2067  52.2187  53.2354  55.3796

          k =-0.0000 0.0952-0.1428 (  1264 PWs)   bands (ev):

     9.3760   9.3834  10.8080  10.8167  11.2025  11.2121  11.2199  11.2222
    11.3618  11.3745  11.8701  11.8797  12.8425  12.8475  12.8481  12.8536
    12.9145  12.9163  13.3617  13.3682  14.3767  14.3785  17.2243  17.2341
    24.2438  24.2605  26.2404  26.2541  28.6694  28.6773  29.5584  29.5601
    32.9703  32.9740  36.7947  36.8353  40.3858  40.3938  43.0711  43.0790
    43.2419  43.2455  46.7478  46.7866  47.9436  47.9671  50.4457  50.4674
    51.7781  51.8128  53.5876  53.5968

          k =-0.0000-0.1428-0.1428 (  1260 PWs)   bands (ev):

    10.2267  10.2331  10.2331  10.2394  11.3178  11.3299  11.3299  11.3420
    11.6359  11.6394  11.6394  11.6428  12.7002  12.7014  12.7014  12.7028
    13.0063  13.0163  13.0163  13.0263  15.4440  15.4486  15.4486  15.4532
    26.2157  26.2272  26.2272  26.2387  27.5914  27.5997  27.5997  27.6082
    37.9073  37.9184  37.9184  37.9299  38.5101  38.5238  38.5239  38.5367
    47.2040  47.2040  47.2041  47.2045  49.1978  49.2198  49.2198  49.2417
    51.8507  51.8526  51.8526  51.8544

          k = 0.0476 0.0476 0.0476 (  1274 PWs)   bands (ev):

     6.5093  10.1056  10.1056  10.1056  10.5201  10.5202  10.5202  11.7346
    12.1426  12.1426  12.6999  12.6999  12.7000  13.0934  13.0934  13.3409
    13.3410  13.3410  13.8854  13.8854  13.8854  17.0452  17.0453  17.0453
    25.3445  25.3445  25.3445  26.6124  26.6124  26.6125  31.1924  31.1925
    31.1925  33.5047  36.1907  36.1907  36.1908  39.2737  41.1645  41.1645
    42.8394  42.8394  42.8394  46.6186  47.6758  47.6758  51.6789  51.6789
    55.1409  55.2584  55.2586  55.2586

          k = 0.0476 0.0476 0.0952 (  1265 PWs)   bands (ev):

     7.4911   9.9120  10.4890  10.4891  10.8060  10.8342  10.8343  11.5249
    11.9868  11.9869  12.1816  12.2229  12.2823  12.9382  13.0087  13.0947
    13.0951  13.3334  13.7880  13.7880  13.8203  14.8123  18.3883  18.3883
    22.7249  22.7250  26.6390  27.2635  27.2635  30.3797  30.3798  30.7667
    30.9692  32.6730  36.6698  37.7980  37.8758  38.8153  38.8153  42.3870
    43.5317  44.4971  47.0499  47.0499  47.9127  49.1110  50.2297  50.2298
    50.7260  53.0460  53.1077  55.6942

          k = 0.0476 0.0476-0.1428 (  1250 PWs)   bands (ev):

     8.8599   8.8679  10.8766  10.8768  10.9345  10.9346  11.1719  11.1848
    11.5926  11.5926  12.0780  12.0924  12.5532  12.5581  12.9268  12.9269
    13.4979  13.5081  13.6086  13.6108  13.7320  13.7320  19.5372  19.5373
    21.1637  21.1637  28.2264  28.2272  28.4640  28.4694  28.9490  28.9502
    34.9549  34.9693  35.4227  35.4514  38.1055  38.1355  42.2296  42.2296
    44.7773  44.7935  45.3971  45.3971  49.4971  49.5196  50.9243  50.9321
    52.2171  52.2171  53.7128  53.7147

          k = 0.0476 0.0952 0.0952 (  1245 PWs)   bands (ev):

     8.3302  10.2299  10.2300  10.5163  11.1218  11.1679  11.1680  11.5700
    11.7827  11.7828  11.9160  12.1412  12.2672  12.7458  12.7459  12.7624
    13.0657  13.6211  13.6901  13.7057  13.7062  15.8278  15.8278  18.6398
    20.8214  23.9224  23.9224  27.9623  28.0757  31.1552  31.1552  32.1434
    32.1435  34.0402  35.2643  36.9327  39.3494  39.3494  40.1775  43.0663
    43.7626  44.8105  46.4911  46.4912  49.2228  49.2228  50.4463  50.6253
    50.9544  51.6509  52.3330  52.9557

          k = 0.0476 0.0952-0.1428 (  1254 PWs)   bands (ev):

     9.4113   9.4162  10.4506  10.4521  11.3352  11.3357  11.4789  11.4892
    11.7874  11.7918  11.9059  11.9154  12.4148  12.4184  12.6264  12.6286
    13.3610  13.3651  13.5889  13.5931  14.2830  14.2845  17.2019  17.2099
    21.8343  21.8405  25.6816  25.6860  29.4547  29.4586  33.0609  33.0624
    33.2745  33.2779  36.9118  36.9451  40.1584  40.1657  40.4686  40.4746
    45.2190  45.2217  45.7045  45.7207  47.7281  47.7367  50.5973  50.6106
    51.8162  51.8239  53.9183  53.9337

          k = 0.0476-0.1428-0.1428 (  1256 PWs)   bands (ev):

     9.9812   9.9833   9.9833   9.9852  11.7236  11.7270  11.7270  11.7302
    11.8075  11.8145  11.8145  11.8217  12.3845  12.3880  12.3880  12.3915
    13.3394  13.3457  13.3457  13.3520  15.3542  15.3592  15.3592  15.3643
    23.4670  23.4718  23.4718  23.4765  30.9933  30.9948  30.9948  30.9964
    38.1892  38.1984  38.1984  38.2092  38.3550  38.3677  38.3678  38.3783
    46.6817  46.6818  46.6818  46.6833  46.7755  46.7881  46.7881  46.7993
    54.8360  54.8437  54.8437  55.1064

          k = 0.0952 0.0952 0.0952 (  1253 PWs)   bands (ev):

     8.8741  10.0648  10.0649  10.0649  11.5267  11.5268  11.5268  12.0410
    12.1001  12.1001  12.1028  12.1102  12.1102  12.3914  12.3914  12.3915
    13.4688  13.4688  13.8341  13.8341  13.8341  16.2058  16.2058  16.2058
    21.4290  21.4290  21.4290  25.1703  32.5219  32.5219  32.5219  35.2682
    35.2683  35.2683  37.2978  37.2978  37.2979  37.8118  39.9787  39.9787
    44.4734  44.4734  47.8029  48.0943  48.0943  48.0946  48.1697  48.1697
    48.1697  52.4814  52.4815  52.4815

          k = 0.0952 0.0952-0.1428 (  1266 PWs)   bands (ev):

     9.4996   9.5009   9.9963   9.9963  11.6467  11.6468  11.9297  11.9376
    12.1501  12.1512  12.2699  12.2712  12.2821  12.2903  12.3857  12.3858
    13.7540  13.7548  13.7623  13.7626  14.1732  14.1736  16.4898  16.4898
    20.4001  20.4001  22.9851  22.9896  33.4371  33.4371  34.6519  34.6520
    36.3442  36.3581  37.2681  37.2755  39.0096  39.0332  39.4640  39.4640
    44.6811  44.6811  44.9252  44.9370  46.0444  46.0476  48.5800  48.5800
    49.6352  49.6401  53.0116  53.0120

          k = 0.0952-0.1428-0.1428 (  1268 PWs)   bands (ev):

     9.6757   9.6759   9.6759   9.6759  11.8911  11.8931  11.8931  11.8951
    12.0809  12.0831  12.0831  12.0853  12.8285  12.8330  12.8330  12.8375
    13.6790  13.6824  13.6824  13.6859  14.9760  14.9818  14.9818  14.9875
    21.1098  21.1136  21.1137  21.1175  35.1753  35.1772  35.1772  35.1792
    38.2368  38.2429  38.2429  38.2492  38.9603  38.9667  38.9667  38.9725
    44.1174  44.1229  44.1230  44.1283  45.1843  45.1858  45.1858  45.1871
    50.4505  50.4529  50.4529  50.4555

          k =-0.1428-0.1428-0.1428 (  1328 PWs)   bands (ev):

     9.5596   9.5598   9.5598   9.5598  11.9714  11.9714  11.9714  11.9714
    11.9714  11.9715  11.9715  11.9715  13.8098  13.8098  13.8098  13.8100
    13.8100  13.8100  13.8100  13.8101  14.3048  14.3050  14.3050  14.3050
    20.2325  20.2325  20.2325  20.2326  36.9699  36.9701  36.9701  36.9701
    39.6030  39.6030  39.6030  39.6031  39.6031  39.6032  39.6032  39.6033
    42.8311  42.8311  42.8312  42.8312  42.8312  42.8313  42.8313  42.8313
    48.8066  48.8066  48.8066  48.8067

          k =-0.0476-0.0000 0.0476 (  1269 PWs)   bands (ev):

     6.1633   9.9445   9.9445  10.0715  10.4055  10.4056  10.4195  11.7696
    12.1059  12.1230  12.9458  12.9914  13.0042  13.0085  13.1804  13.5746
    13.6992  13.6992  13.7697  13.7697  13.8313  16.4176  16.4177  18.8156
    23.9193  25.1186  26.2667  26.2667  28.3139  28.3139  28.9576  28.9577
    30.6769  36.0594  36.1412  37.0512  37.0513  37.3564  40.1438  40.1440
    41.2945  42.6320  43.5569  45.2579  46.3937  49.8214  50.4833  53.1298
    53.6982  55.3801  55.3803  56.3332

          k =-0.0476 0.0000 0.0952 (  1263 PWs)   bands (ev):

     7.1854   9.7532  10.4270  10.4755  10.6876  10.7409  10.7600  11.4883
    11.9965  12.1362  12.2519  12.3695  12.3950  12.8286  13.2504  13.3263
    13.3383  13.3598  13.5121  13.7662  13.7727  14.4503  18.0330  20.5995
    22.0984  24.6287  25.5231  26.5523  27.4227  29.6283  29.9212  29.9781
    31.0379  33.7462  34.4898  37.7034  38.6568  40.4138  40.5925  40.7761
    41.1438  44.0686  45.0644  47.0881  47.8121  48.6172  49.9226  51.3636
    52.9697  53.2891  54.8532  56.2370

          k =-0.0952-0.0000 0.0952 (  1276 PWs)   bands (ev):

     8.1123  10.3411  10.3412  10.7072  10.9558  10.9560  10.9696  11.4184
    11.6656  11.6656  11.8203  12.1392  12.5004  12.7422  13.0342  13.1892
    13.1893  13.3299  13.3300  13.5002  13.7155  15.6971  15.6971  19.3168
    22.1269  25.1793  26.7964  26.7965  27.9168  27.9169  31.0065  31.6618
    31.6631  31.7598  33.6270  36.8620  41.5515  41.9057  41.9057  43.1029
    43.4361  43.7993  43.7993  47.2204  47.3598  48.5054  48.5056  51.7058
    52.2068  52.2187  53.2354  55.3781

          k = 0.0476-0.0476 0.0476 (  1274 PWs)   bands (ev):

     6.5093  10.1056  10.1056  10.1056  10.5201  10.5202  10.5202  11.7346
    12.1426  12.1426  12.6999  12.6999  12.7000  13.0934  13.0934  13.3409
    13.3410  13.3410  13.8854  13.8854  13.8854  17.0453  17.0453  17.0453
    25.3445  25.3445  25.3445  26.6124  26.6124  26.6125  31.1924  31.1925
    31.1925  33.5047  36.1907  36.1908  36.1908  39.2737  41.1645  41.1645
    42.8393  42.8394  42.8394  46.6186  47.6758  47.6758  51.6789  51.6789
    55.1409  55.2584  55.2586  55.2586

          k = 0.0476-0.0476 0.0952 (  1265 PWs)   bands (ev):

     7.4911   9.9120  10.4890  10.4891  10.8060  10.8342  10.8343  11.5249
    11.9868  11.9869  12.1816  12.2229  12.2823  12.9382  13.0087  13.0947
    13.0951  13.3334  13.7880  13.7880  13.8203  14.8123  18.3883  18.3883
    22.7249  22.7250  26.6390  27.2635  27.2635  30.3797  30.3798  30.7667
    30.9692  32.6730  36.6698  37.7980  37.8758  38.8153  38.8153  42.3870
    43.5317  44.4971  47.0499  47.0499  47.9127  49.1110  50.2297  50.2298
    50.7260  53.0460  53.1077  55.6943

          k =-0.0952 0.0476 0.0476 (  1265 PWs)   bands (ev):

     7.4911   9.9120  10.4890  10.4891  10.8060  10.8342  10.8343  11.5249
    11.9868  11.9869  12.1816  12.2229  12.2823  12.9382  13.0087  13.0947
    13.0951  13.3334  13.7880  13.7880  13.8203  14.8123  18.3883  18.3883
    22.7249  22.7250  26.6390  27.2635  27.2635  30.3797  30.3798  30.7667
    30.9692  32.6730  36.6698  37.7980  37.8758  38.8153  38.8153  42.3870
    43.5317  44.4971  47.0499  47.0499  47.9128  49.1110  50.2297  50.2298
    50.7260  53.0460  53.1077  55.6942

          k = 0.0476-0.0476-0.1428 (  1250 PWs)   bands (ev):

     8.8599   8.8679  10.8766  10.8768  10.9345  10.9346  11.1719  11.1848
    11.5926  11.5926  12.0780  12.0924  12.5532  12.5581  12.9268  12.9269
    13.4979  13.5081  13.6086  13.6108  13.7320  13.7320  19.5372  19.5372
    21.1637  21.1637  28.2264  28.2272  28.4640  28.4694  28.9490  28.9502
    34.9549  34.9693  35.4227  35.4514  38.1056  38.1355  42.2296  42.2297
    44.7773  44.7935  45.3970  45.3971  49.4971  49.5196  50.9243  50.9321
    52.2171  52.2172  53.7128  53.7146

          k = 0.0952-0.0476 0.0952 (  1245 PWs)   bands (ev):

     8.3302  10.2299  10.2300  10.5163  11.1218  11.1679  11.1680  11.5700
    11.7827  11.7828  11.9160  12.1412  12.2672  12.7458  12.7459  12.7624
    13.0657  13.6211  13.6901  13.7057  13.7062  15.8278  15.8278  18.6398
    20.8214  23.9224  23.9224  27.9623  28.0757  31.1552  31.1553  32.1434
    32.1435  34.0402  35.2643  36.9327  39.3494  39.3494  40.1775  43.0663
    43.7626  44.8105  46.4911  46.4911  49.2228  49.2228  50.4463  50.6253
    50.9544  51.6509  52.3330  52.9557

          k =-0.0952 0.0476 0.0952 (  1245 PWs)   bands (ev):

     8.3302  10.2299  10.2300  10.5162  11.1218  11.1679  11.1680  11.5700
    11.7827  11.7828  11.9160  12.1412  12.2672  12.7458  12.7459  12.7624
    13.0657  13.6211  13.6901  13.7057  13.7062  15.8278  15.8278  18.6398
    20.8214  23.9224  23.9224  27.9623  28.0757  31.1552  31.1553  32.1434
    32.1435  34.0402  35.2643  36.9327  39.3494  39.3494  40.1775  43.0663
    43.7626  44.8105  46.4911  46.4911  49.2227  49.2228  50.4463  50.6253
    50.9544  51.6509  52.3330  52.9557

          k = 0.0952-0.0476-0.1428 (  1254 PWs)   bands (ev):

     9.4113   9.4162  10.4506  10.4521  11.3352  11.3357  11.4789  11.4892
    11.7874  11.7918  11.9059  11.9154  12.4148  12.4184  12.6264  12.6286
    13.3610  13.3651  13.5889  13.5931  14.2830  14.2845  17.2019  17.2099
    21.8343  21.8405  25.6816  25.6860  29.4547  29.4586  33.0609  33.0624
    33.2745  33.2779  36.9118  36.9451  40.1584  40.1657  40.4686  40.4746
    45.2190  45.2217  45.7045  45.7207  47.7281  47.7367  50.5973  50.6106
    51.8162  51.8239  53.9183  53.9336

          k = 0.0952-0.0952 0.0952 (  1253 PWs)   bands (ev):

     8.8741  10.0648  10.0649  10.0649  11.5267  11.5268  11.5268  12.0410
    12.1001  12.1001  12.1028  12.1102  12.1102  12.3914  12.3914  12.3915
    13.4689  13.4689  13.8341  13.8341  13.8341  16.2058  16.2058  16.2058
    21.4290  21.4290  21.4290  25.1703  32.5218  32.5219  32.5219  35.2682
    35.2682  35.2683  37.2978  37.2978  37.2979  37.8118  39.9787  39.9787
    44.4734  44.4734  47.8029  48.0942  48.0943  48.0946  48.1697  48.1697
    48.1697  52.4814  52.4815  52.4815

          k = 0.0952-0.0952-0.1428 (  1266 PWs)   bands (ev):

     9.4996   9.5009   9.9962   9.9963  11.6467  11.6468  11.9297  11.9376
    12.1501  12.1512  12.2699  12.2712  12.2821  12.2903  12.3857  12.3859
    13.7540  13.7548  13.7623  13.7626  14.1732  14.1736  16.4898  16.4898
    20.4001  20.4001  22.9850  22.9896  33.4370  33.4371  34.6519  34.6520
    36.3442  36.3581  37.2681  37.2755  39.0096  39.0332  39.4640  39.4641
    44.6811  44.6811  44.9252  44.9370  46.0444  46.0476  48.5800  48.5800
    49.6352  49.6401  53.0116  53.0120

 ------ SPIN DOWN ----------


          k = 0.0000 0.0000 0.0000 (  1237 PWs)   bands (ev):

     5.3846  10.1857  10.1857  10.1857  10.8954  10.8955  10.8955  12.8386
    12.8386  12.8386  13.9182  13.9182  14.6709  14.6709  14.6709  14.9563
    14.9563  14.9563  14.9564  14.9564  14.9564  17.0069  17.0070  17.0070
    24.1357  24.1357  24.1357  29.5744  29.5744  29.5744  29.5745  29.5745
    29.5745  34.8339  34.8339  34.8340  38.1619  38.1621  38.1621  38.3097
    42.4678  42.4678  42.4678  46.1733  46.1733  46.1733  48.0401  55.3928
    55.3928  55.3928  58.1598  59.5991

          k = 0.0000 0.0000 0.0476 (  1273 PWs)   bands (ev):

     5.7509  10.1614  10.3800  10.3800  11.0149  11.0194  11.0195  12.6965
    12.9451  12.9451  13.7904  13.9669  14.1122  14.1122  14.5037  14.5037
    14.6189  14.7635  14.7635  14.9567  14.9567  15.5547  18.1521  18.1522
    24.2164  24.2164  26.2814  27.9046  27.9047  28.4921  28.4921  30.1515
    30.1515  34.9373  36.9237  36.9237  37.7418  38.2915  40.0961  40.0962
    40.3185  40.3185  40.8704  47.5407  48.1295  48.1295  49.2523  51.5790
    56.5127  56.5127  56.6299  56.6300

          k = 0.0000 0.0000 0.0952 (  1246 PWs)   bands (ev):

     6.8051   9.7251  10.8418  10.8418  11.3483  11.3975  11.3976  12.3178
    12.9643  12.9645  13.2552  13.2552  13.4692  13.6903  14.0912  14.0912
    14.1018  14.2882  14.2882  14.4781  14.9573  14.9573  20.1942  20.1943
    24.4888  24.4888  25.2023  25.2023  26.7951  26.7952  30.4758  31.7661
    31.7661  35.2625  36.7145  37.1255  37.1255  38.2807  38.8489  40.8934
    40.8935  44.2413  44.2414  44.3955  50.9115  50.9801  50.9801  51.0054
    51.0055  54.9620  56.2170  56.2171

          k =-0.0000-0.0000-0.1428 (  1238 PWs)   bands (ev):

     8.3438   8.3538  11.1338  11.1338  11.8139  11.8291  12.0367  12.0369
    12.0511  12.0513  13.1918  13.2134  13.7259  13.7259  13.7370  13.7370
    13.8225  13.8225  14.2843  14.2925  14.9576  14.9576  22.5651  22.5651
    22.5902  22.5902  24.8115  24.8115  25.9098  25.9098  34.1650  34.1650
    34.1822  34.1822  34.8917  34.9291  35.8418  35.8521  40.4611  40.5201
    45.6203  45.6204  45.6721  45.6721  47.7226  47.7227  52.5140  52.5140
    54.0698  54.0698  54.1164  54.1164

          k = 0.0000 0.0476 0.0476 (  1269 PWs)   bands (ev):

     6.1097  10.3725  10.3725  10.5622  11.1189  11.1293  11.1294  12.6228
    12.9956  13.0000  13.7105  13.7471  13.7521  13.7690  13.9673  14.3651
    14.4913  14.4913  14.7623  14.7624  14.8332  16.7322  16.7322  18.9814
    24.1779  25.2484  26.4554  26.4555  28.3969  28.3969  28.9987  28.9988
    30.6880  36.1326  36.1637  37.1218  37.1219  37.3738  40.2618  40.2618
    41.2138  42.7195  43.5259  45.2017  46.4543  49.9803  50.4088  53.3017
    53.6653  55.3422  55.3424  56.2736

          k = 0.0000 0.0476 0.0952 (  1263 PWs)   bands (ev):

     7.1398   9.9758  10.8891  11.0073  11.4027  11.4352  11.4767  12.3101
    12.6877  12.8568  13.0500  13.0921  13.2714  13.5928  14.0152  14.1005
    14.1708  14.2574  14.2866  14.7593  14.7689  15.1593  18.3717  20.8037
    22.2970  24.8567  25.6748  26.6872  27.5480  29.7368  29.9832  30.0485
    31.1353  33.8243  34.5322  37.7454  38.6947  40.3654  40.5402  40.8961
    41.1434  44.1509  45.2690  47.1547  47.7347  48.5997  49.9068  51.2889
    52.9254  53.1985  55.0739  56.4913

          k =-0.0000 0.0476-0.1428 (  1256 PWs)   bands (ev):

     8.6377   8.6472  11.2769  11.2782  11.8565  11.8707  11.8757  11.8871
    12.0542  12.0683  12.9134  12.9302  13.7292  13.7404  13.8067  13.8091
    13.8124  13.8143  14.5140  14.5144  14.7568  14.7592  20.1777  20.1903
    23.0776  23.0998  25.5944  25.6125  28.4442  28.4508  31.6297  31.6362
    32.0981  32.1024  35.8564  35.8980  38.8525  38.8548  42.3768  42.4138
    43.1264  43.1412  45.8944  45.9432  50.1583  50.2002  50.3052  50.3255
    52.5499  52.5665  53.3986  53.4114

          k = 0.0000 0.0952 0.0952 (  1276 PWs)   bands (ev):

     8.0902  10.6143  10.6143  11.3713  11.4536  11.6912  11.6915  12.2121
    12.3586  12.3586  12.5324  12.9302  13.4155  13.4890  13.7876  13.9265
    13.9266  14.2906  14.2906  14.4808  14.5577  16.3023  16.3023  19.6244
    22.3463  25.3778  26.9633  26.9634  28.0181  28.0181  31.1375  31.7503
    31.7520  31.8276  33.6796  36.8977  41.4881  41.8876  41.8877  43.1375
    43.3188  43.8418  43.8418  47.3418  47.3890  48.5505  48.5507  51.7656
    52.0956  52.1616  53.4397  55.2814

          k =-0.0000 0.0952-0.1428 (  1264 PWs)   bands (ev):

     9.4370   9.4451  11.2275  11.2362  11.8570  11.8578  11.9666  11.9801
    12.0820  12.0953  12.6062  12.6169  13.5819  13.5821  13.6547  13.6563
    13.7768  13.7884  14.3297  14.3368  15.1824  15.1846  17.6886  17.6981
    24.4492  24.4655  26.3916  26.4065  28.8321  28.8392  29.6482  29.6505
    33.0417  33.0462  36.8223  36.8631  40.3852  40.3923  43.0172  43.0245
    43.2605  43.2637  46.6856  46.7253  48.0255  48.0501  50.3928  50.4150
    51.8993  51.9339  53.5026  53.5112

          k =-0.0000-0.1428-0.1428 (  1260 PWs)   bands (ev):

    10.4453  10.4525  10.4525  10.4596  12.0546  12.0676  12.0676  12.0805
    12.3044  12.3084  12.3085  12.3125  13.4377  13.4390  13.4390  13.4405
    13.9546  13.9652  13.9652  13.9757  16.1264  16.1303  16.1303  16.1342
    26.4115  26.4223  26.4224  26.4331  27.7141  27.7233  27.7233  27.7327
    37.9818  37.9926  37.9926  38.0039  38.4771  38.4901  38.4901  38.5020
    47.0836  47.0841  47.0841  47.0852  49.1865  49.2090  49.2090  49.2315
    51.9508  51.9538  51.9538  51.9566

          k = 0.0476 0.0476 0.0476 (  1274 PWs)   bands (ev):

     6.4585  10.5605  10.5605  10.5605  11.2205  11.2207  11.2207  12.5678
    13.0206  13.0206  13.4104  13.4104  13.4104  13.8796  13.8796  14.1718
    14.1719  14.1719  14.8336  14.8336  14.8336  17.3863  17.3863  17.3863
    25.4761  25.4761  25.4761  26.7857  26.7857  26.7858  31.2143  31.2145
    31.2145  33.5713  36.2857  36.2857  36.2857  39.1184  41.2170  41.2170
    42.9236  42.9237  42.9237  46.5313  47.6330  47.6330  51.8457  51.8457
    55.2117  55.2119  55.2119  55.4799

          k = 0.0476 0.0476 0.0952 (  1265 PWs)   bands (ev):

     7.4561  10.1746  11.0204  11.0204  11.4623  11.4625  11.5182  12.3204
    12.6890  12.6890  12.8544  13.0525  13.1425  13.7843  13.8182  13.8814
    13.8820  14.1556  14.7214  14.7511  14.7512  15.4425  18.7152  18.7152
    22.9352  22.9352  26.7833  27.4125  27.4126  30.4546  30.4547  30.8808
    31.0567  32.7196  36.7443  37.7039  37.9530  38.8456  38.8456  42.3945
    43.6122  44.5147  47.0942  47.0942  47.9548  49.0568  50.2188  50.2188
    50.7332  52.9756  53.0678  55.8091

          k = 0.0476 0.0476-0.1428 (  1250 PWs)   bands (ev):

     8.8942   8.9029  11.4483  11.4483  11.5158  11.5161  11.9220  11.9360
    12.3064  12.3065  12.8267  12.8427  13.4041  13.4081  13.6903  13.6904
    14.3021  14.3129  14.4702  14.4713  14.7035  14.7035  19.7946  19.7947
    21.4676  21.4677  28.3414  28.3422  28.6062  28.6110  29.0637  29.0651
    35.0244  35.0386  35.3955  35.4251  38.1827  38.2128  42.2110  42.2110
    44.8637  44.8812  45.3860  45.3861  49.4176  49.4402  50.8785  50.8864
    52.2507  52.2507  53.8922  53.8954

          k = 0.0476 0.0952 0.0952 (  1245 PWs)   bands (ev):

     8.3423  10.6227  10.6227  11.1345  11.6287  11.7695  11.7696  12.2965
    12.5026  12.5027  12.6277  12.9417  13.0912  13.5446  13.5451  13.5478
    13.9089  14.4699  14.6183  14.6188  14.6361  16.3810  16.3810  18.9146
    21.1653  24.1395  24.1395  28.1232  28.2045  31.2191  31.2191  32.2360
    32.2362  34.0949  35.2897  36.9579  39.3642  39.3642  40.1014  43.1799
    43.7543  44.7562  46.4851  46.4852  49.2777  49.2778  50.3780  50.6090
    50.9308  51.7236  52.3990  52.8827

          k = 0.0476 0.0952-0.1428 (  1254 PWs)   bands (ev):

     9.5600   9.5665  10.9847  10.9877  11.8888  11.8902  12.1239  12.1357
    12.4804  12.4859  12.6654  12.6760  13.2191  13.2219  13.4009  13.4028
    14.2252  14.2311  14.5243  14.5290  15.0755  15.0776  17.6131  17.6207
    22.1348  22.1404  25.8821  25.8858  29.5548  29.5596  33.1181  33.1187
    33.3430  33.3474  36.9250  36.9580  40.1430  40.1498  40.4910  40.4975
    45.2065  45.2088  45.6959  45.7129  47.7085  47.7183  50.6357  50.6490
    51.7558  51.7633  54.0000  54.0134

          k = 0.0476-0.1428-0.1428 (  1256 PWs)   bands (ev):

    10.3362  10.3401  10.3401  10.3440  12.2914  12.2971  12.2971  12.3028
    12.5104  12.5174  12.5175  12.5245  13.1619  13.1649  13.1649  13.1681
    14.2502  14.2575  14.2575  14.2648  16.0006  16.0048  16.0048  16.0090
    23.7256  23.7296  23.7296  23.7335  31.0751  31.0775  31.0775  31.0801
    38.2618  38.2682  38.2682  38.2812  38.3067  38.3211  38.3212  38.3285
    46.6138  46.6138  46.6139  46.6148  46.8004  46.8135  46.8135  46.8258
    54.8983  54.9079  54.9080  55.1210

          k = 0.0952 0.0952 0.0952 (  1253 PWs)   bands (ev):

     9.0073  10.5744  10.5745  10.5745  12.0854  12.0855  12.0855  12.5637
    12.7816  12.7816  12.7819  12.9089  12.9089  13.1822  13.1822  13.1823
    14.3496  14.3496  14.7615  14.7615  14.7616  16.6323  16.6324  16.6324
    21.7676  21.7676  21.7677  25.3958  32.5683  32.5683  32.5683  35.3297
    35.3298  35.3298  37.3106  37.3106  37.3107  37.6410  40.0648  40.0648
    44.4827  44.4827  47.8181  48.0428  48.0428  48.0432  48.1711  48.1712
    48.1712  52.5127  52.5128  52.5128

          k = 0.0952 0.0952-0.1428 (  1266 PWs)   bands (ev):

     9.8310   9.8341  10.5342  10.5342  12.2781  12.2782  12.5881  12.5959
    12.8347  12.8446  12.9421  12.9429  12.9854  12.9854  13.0496  13.0497
    14.6625  14.6638  14.6906  14.6908  14.8882  14.8900  16.8215  16.8215
    20.8371  20.8371  23.2749  23.2788  33.4449  33.4449  34.7379  34.7381
    36.2351  36.2499  37.3408  37.3477  39.0900  39.1135  39.4388  39.4388
    44.7076  44.7076  44.9024  44.9144  46.0525  46.0563  48.5399  48.5399
    49.6888  49.6936  53.1211  53.1214

          k = 0.0952-0.1428-0.1428 (  1268 PWs)   bands (ev):

    10.1456  10.1465  10.1465  10.1472  12.6238  12.6258  12.6258  12.6278
    12.8566  12.8587  12.8587  12.8608  13.2677  13.2730  13.2730  13.2782
    14.5965  14.6004  14.6004  14.6043  15.5087  15.5134  15.5134  15.5180
    21.5031  21.5064  21.5064  21.5096  35.1482  35.1511  35.1512  35.1542
    38.2067  38.2122  38.2122  38.2179  39.0299  39.0359  39.0359  39.0414
    44.1488  44.1550  44.1550  44.1610  45.1767  45.1784  45.1785  45.1802
    50.5412  50.5436  50.5436  50.5462

          k =-0.1428-0.1428-0.1428 (  1328 PWs)   bands (ev):

    10.0608  10.0610  10.0610  10.0610  12.7441  12.7441  12.7441  12.7442
    12.7442  12.7442  12.7442  12.7442  14.2054  14.2055  14.2055  14.2056
    14.7332  14.7332  14.7333  14.7333  14.7333  14.7334  14.7334  14.7334
    20.7147  20.7147  20.7147  20.7148  36.7859  36.7861  36.7861  36.7862
    39.6732  39.6732  39.6732  39.6733  39.6733  39.6734  39.6734  39.6735
    42.8615  42.8615  42.8615  42.8615  42.8615  42.8616  42.8616  42.8616
    48.9208  48.9208  48.9208  48.9209

          k =-0.0476-0.0000 0.0476 (  1269 PWs)   bands (ev):

     6.1097  10.3725  10.3725  10.5622  11.1189  11.1293  11.1294  12.6228
    12.9956  13.0000  13.7105  13.7471  13.7521  13.7690  13.9673  14.3651
    14.4913  14.4913  14.7623  14.7624  14.8332  16.7322  16.7322  18.9814
    24.1779  25.2484  26.4554  26.4555  28.3969  28.3969  28.9987  28.9988
    30.6880  36.1325  36.1637  37.1218  37.1219  37.3738  40.2617  40.2620
    41.2138  42.7195  43.5259  45.2017  46.4543  49.9803  50.4088  53.3017
    53.6653  55.3422  55.3424  56.2736

          k =-0.0476 0.0000 0.0952 (  1263 PWs)   bands (ev):

     7.1398   9.9758  10.8891  11.0073  11.4027  11.4352  11.4767  12.3101
    12.6877  12.8568  13.0500  13.0921  13.2714  13.5928  14.0152  14.1005
    14.1708  14.2574  14.2866  14.7593  14.7689  15.1593  18.3717  20.8037
    22.2970  24.8567  25.6748  26.6872  27.5480  29.7368  29.9832  30.0485
    31.1353  33.8243  34.5322  37.7454  38.6947  40.3654  40.5402  40.8960
    41.1434  44.1509  45.2690  47.1547  47.7347  48.5997  49.9068  51.2889
    52.9254  53.1985  55.0739  56.4913

          k =-0.0952-0.0000 0.0952 (  1276 PWs)   bands (ev):

     8.0902  10.6143  10.6143  11.3713  11.4536  11.6912  11.6915  12.2121
    12.3586  12.3586  12.5324  12.9302  13.4155  13.4890  13.7876  13.9265
    13.9266  14.2906  14.2907  14.4808  14.5577  16.3023  16.3023  19.6244
    22.3463  25.3778  26.9633  26.9634  28.0180  28.0182  31.1375  31.7504
    31.7519  31.8275  33.6796  36.8977  41.4881  41.8876  41.8876  43.1375
    43.3188  43.8418  43.8418  47.3418  47.3890  48.5505  48.5507  51.7656
    52.0956  52.1616  53.4397  55.2826

          k = 0.0476-0.0476 0.0476 (  1274 PWs)   bands (ev):

     6.4585  10.5605  10.5605  10.5605  11.2205  11.2207  11.2207  12.5678
    13.0205  13.0205  13.4104  13.4104  13.4104  13.8796  13.8796  14.1718
    14.1719  14.1719  14.8336  14.8336  14.8336  17.3863  17.3863  17.3863
    25.4761  25.4761  25.4761  26.7857  26.7857  26.7858  31.2144  31.2145
    31.2145  33.5713  36.2856  36.2857  36.2858  39.1184  41.2170  41.2170
    42.9236  42.9237  42.9237  46.5313  47.6330  47.6330  51.8457  51.8457
    55.2117  55.2119  55.2119  55.4799

          k = 0.0476-0.0476 0.0952 (  1265 PWs)   bands (ev):

     7.4561  10.1746  11.0204  11.0204  11.4624  11.4625  11.5182  12.3204
    12.6890  12.6890  12.8544  13.0525  13.1425  13.7843  13.8182  13.8814
    13.8820  14.1556  14.7214  14.7511  14.7512  15.4425  18.7152  18.7152
    22.9352  22.9352  26.7833  27.4126  27.4126  30.4547  30.4547  30.8808
    31.0567  32.7196  36.7443  37.7039  37.9530  38.8456  38.8457  42.3945
    43.6122  44.5147  47.0942  47.0942  47.9548  49.0568  50.2188  50.2188
    50.7332  52.9756  53.0678  55.8092

          k =-0.0952 0.0476 0.0476 (  1265 PWs)   bands (ev):

     7.4561  10.1746  11.0204  11.0204  11.4623  11.4625  11.5182  12.3204
    12.6890  12.6890  12.8544  13.0525  13.1425  13.7843  13.8182  13.8814
    13.8820  14.1556  14.7214  14.7511  14.7512  15.4425  18.7152  18.7152
    22.9352  22.9352  26.7833  27.4125  27.4126  30.4546  30.4547  30.8808
    31.0567  32.7196  36.7443  37.7039  37.9530  38.8456  38.8457  42.3945
    43.6122  44.5147  47.0942  47.0942  47.9549  49.0568  50.2188  50.2188
    50.7332  52.9756  53.0678  55.8092

          k = 0.0476-0.0476-0.1428 (  1250 PWs)   bands (ev):

     8.8942   8.9029  11.4483  11.4483  11.5158  11.5161  11.9220  11.9360
    12.3064  12.3065  12.8267  12.8427  13.4041  13.4081  13.6903  13.6904
    14.3021  14.3129  14.4702  14.4713  14.7035  14.7035  19.7946  19.7946
    21.4676  21.4676  28.3414  28.3421  28.6062  28.6110  29.0637  29.0651
    35.0244  35.0386  35.3955  35.4251  38.1827  38.2128  42.2110  42.2110
    44.8637  44.8812  45.3861  45.3861  49.4176  49.4402  50.8785  50.8864
    52.2506  52.2507  53.8922  53.8954

          k = 0.0952-0.0476 0.0952 (  1245 PWs)   bands (ev):

     8.3423  10.6227  10.6227  11.1345  11.6287  11.7695  11.7696  12.2965
    12.5026  12.5027  12.6277  12.9417  13.0912  13.5446  13.5451  13.5478
    13.9089  14.4699  14.6183  14.6188  14.6361  16.3810  16.3810  18.9146
    21.1653  24.1395  24.1395  28.1232  28.2045  31.2191  31.2191  32.2360
    32.2362  34.0949  35.2897  36.9579  39.3642  39.3642  40.1014  43.1799
    43.7543  44.7562  46.4851  46.4852  49.2777  49.2778  50.3780  50.6090
    50.9308  51.7236  52.3990  52.8828

          k =-0.0952 0.0476 0.0952 (  1245 PWs)   bands (ev):

     8.3423  10.6227  10.6227  11.1345  11.6287  11.7695  11.7696  12.2965
    12.5026  12.5027  12.6277  12.9417  13.0912  13.5447  13.5451  13.5478
    13.9089  14.4699  14.6183  14.6188  14.6361  16.3810  16.3810  18.9146
    21.1653  24.1395  24.1395  28.1232  28.2045  31.2190  31.2191  32.2361
    32.2361  34.0949  35.2897  36.9579  39.3642  39.3642  40.1014  43.1799
    43.7543  44.7562  46.4851  46.4852  49.2777  49.2778  50.3780  50.6090
    50.9308  51.7236  52.3990  52.8829

          k = 0.0952-0.0476-0.1428 (  1254 PWs)   bands (ev):

     9.5600   9.5665  10.9847  10.9877  11.8888  11.8902  12.1239  12.1357
    12.4804  12.4859  12.6654  12.6760  13.2191  13.2219  13.4009  13.4028
    14.2252  14.2311  14.5243  14.5290  15.0755  15.0776  17.6131  17.6207
    22.1348  22.1404  25.8821  25.8858  29.5548  29.5596  33.1181  33.1187
    33.3430  33.3474  36.9250  36.9580  40.1430  40.1498  40.4910  40.4975
    45.2065  45.2088  45.6959  45.7129  47.7085  47.7183  50.6357  50.6490
    51.7558  51.7633  54.0000  54.0134

          k = 0.0952-0.0952 0.0952 (  1253 PWs)   bands (ev):

     9.0073  10.5744  10.5745  10.5745  12.0854  12.0855  12.0855  12.5637
    12.7815  12.7816  12.7819  12.9089  12.9089  13.1822  13.1822  13.1823
    14.3496  14.3496  14.7615  14.7615  14.7616  16.6323  16.6324  16.6324
    21.7676  21.7676  21.7677  25.3958  32.5682  32.5683  32.5684  35.3297
    35.3298  35.3298  37.3105  37.3106  37.3107  37.6410  40.0648  40.0648
    44.4827  44.4827  47.8181  48.0427  48.0428  48.0432  48.1711  48.1711
    48.1712  52.5127  52.5128  52.5128

          k = 0.0952-0.0952-0.1428 (  1266 PWs)   bands (ev):

     9.8310   9.8341  10.5342  10.5343  12.2781  12.2781  12.5881  12.5959
    12.8347  12.8446  12.9421  12.9429  12.9854  12.9854  13.0496  13.0497
    14.6625  14.6638  14.6906  14.6908  14.8882  14.8900  16.8215  16.8215
    20.8371  20.8371  23.2749  23.2788  33.4449  33.4449  34.7380  34.7380
    36.2351  36.2499  37.3408  37.3477  39.0900  39.1135  39.4387  39.4388
    44.7076  44.7076  44.9024  44.9144  46.0525  46.0563  48.5399  48.5399
    49.6888  49.6936  53.1210  53.1214

     the Fermi energy is    14.5062 ev

!    total energy              =    -343.63007062 Ry
     Harris-Foulkes estimate   =    -343.63007061 Ry
     estimated scf accuracy    <          2.6E-11 Ry

     The total energy is the sum of the following terms:

     one-electron contribution =      -6.28628451 Ry
     hartree contribution      =      60.31914759 Ry
     xc contribution           =    -120.51595295 Ry
     ewald contribution        =    -277.09850992 Ry
     Dispersion Correction     =      -0.04789130 Ry
     smearing contrib. (-TS)   =      -0.00057952 Ry

     total magnetization       =     2.84 Bohr mag/cell
     absolute magnetization    =     3.25 Bohr mag/cell

     convergence has been achieved in  11 iterations

     Forces acting on atoms (Ry/au):

     atom    1 type  1   force =    -0.00108513   -0.00108513    0.00108516
     atom    2 type  1   force =     0.00108510    0.00108510    0.00108510
     atom    3 type  1   force =    -0.00108513    0.00108516   -0.00108513
     atom    4 type  1   force =     0.00108516   -0.00108513   -0.00108513

     Total force =     0.003759     Total SCF correction =     0.000004


     entering subroutine stress ...

          total   stress  (Ry/bohr**3)                   (kbar)     P=    1.04
   0.00000708   0.00000001   0.00000001          1.04      0.00      0.00
   0.00000001   0.00000708   0.00000001          0.00      1.04      0.00
   0.00000001   0.00000001   0.00000708          0.00      0.00      1.04


     number of scf cycles    =   3
     number of bfgs steps    =   2

     enthalpy old            =    -343.6300483945 Ry
     enthalpy new            =    -343.6300706171 Ry

     CASE: enthalpy_new < enthalpy_old

     new trust radius        =       0.0048537053 bohr
     new conv_thr            =            1.0E-10 Ry

     new unit-cell volume =    289.96346 a.u.^3 (    42.96815 Ang^3 )

CELL_PARAMETERS (alat=  1.88972590)
   3.502533335   0.000002198   0.000002198
   0.000002198   3.502533335   0.000002198
   0.000002198   0.000002198   3.502533335

ATOMIC_POSITIONS (alat)
Ni1      1.755359575   1.755359575   0.003686568
Ni1      0.003682392   0.003682392   0.003682392
Ni1      1.755359575   0.003686568   1.755359575
Ni1      0.003686568   1.755359575   1.755359575



     Writing output data file Ni-ferromag.save
     NEW-OLD atomic charge density approx. for the potential

     Check: negative/imaginary core charge=   -0.000005    0.000000
     extrapolated charge   40.00864, renormalised to   40.00000

     total cpu time spent up to now is      928.5 secs

     Self-consistent Calculation

     iteration #  1     ecut=    40.00 Ry     beta=0.20
     Davidson diagonalization with overlap
     ethr =  1.00E-06,  avg # of iterations =  3.6

     Threshold (ethr) on eigenvalues was too large:
     Diagonalizing with lowered threshold

     Davidson diagonalization with overlap
     ethr =  7.45E-08,  avg # of iterations =  1.0

     total cpu time spent up to now is      982.7 secs

     total energy              =    -343.63015050 Ry
     Harris-Foulkes estimate   =    -343.62109598 Ry
     estimated scf accuracy    <       0.00002990 Ry

     total magnetization       =     2.84 Bohr mag/cell
     absolute magnetization    =     3.25 Bohr mag/cell

     iteration #  2     ecut=    40.00 Ry     beta=0.20
     Davidson diagonalization with overlap
     ethr =  7.47E-08,  avg # of iterations =  1.1

     total cpu time spent up to now is     1003.7 secs

     total energy              =    -343.63016574 Ry
     Harris-Foulkes estimate   =    -343.63016765 Ry
     estimated scf accuracy    <       0.00001318 Ry

     total magnetization       =     2.83 Bohr mag/cell
     absolute magnetization    =     3.25 Bohr mag/cell

     iteration #  3     ecut=    40.00 Ry     beta=0.20
     Davidson diagonalization with overlap
     ethr =  3.29E-08,  avg # of iterations =  1.0

     total cpu time spent up to now is     1024.5 secs

     total energy              =    -343.63016353 Ry
     Harris-Foulkes estimate   =    -343.63016608 Ry
     estimated scf accuracy    <       0.00000585 Ry

     total magnetization       =     2.83 Bohr mag/cell
     absolute magnetization    =     3.25 Bohr mag/cell

     iteration #  4     ecut=    40.00 Ry     beta=0.20
     Davidson diagonalization with overlap
     ethr =  1.46E-08,  avg # of iterations =  1.1

     total cpu time spent up to now is     1045.4 secs

     total energy              =    -343.63016446 Ry
     Harris-Foulkes estimate   =    -343.63016685 Ry
     estimated scf accuracy    <       0.00000650 Ry

     total magnetization       =     2.84 Bohr mag/cell
     absolute magnetization    =     3.25 Bohr mag/cell

     iteration #  5     ecut=    40.00 Ry     beta=0.20
     Davidson diagonalization with overlap
     ethr =  1.46E-08,  avg # of iterations =  1.0

     total cpu time spent up to now is     1066.3 secs

     total energy              =    -343.63016524 Ry
     Harris-Foulkes estimate   =    -343.63016532 Ry
     estimated scf accuracy    <       0.00000027 Ry

     total magnetization       =     2.84 Bohr mag/cell
     absolute magnetization    =     3.25 Bohr mag/cell

     iteration #  6     ecut=    40.00 Ry     beta=0.20
     Davidson diagonalization with overlap
     ethr =  6.69E-10,  avg # of iterations =  1.0

     total cpu time spent up to now is     1087.1 secs

     total energy              =    -343.63016535 Ry
     Harris-Foulkes estimate   =    -343.63016535 Ry
     estimated scf accuracy    <       0.00000016 Ry

     total magnetization       =     2.84 Bohr mag/cell
     absolute magnetization    =     3.25 Bohr mag/cell

     iteration #  7     ecut=    40.00 Ry     beta=0.20
     Davidson diagonalization with overlap
     ethr =  3.92E-10,  avg # of iterations =  1.0

     total cpu time spent up to now is     1107.9 secs

     total energy              =    -343.63016530 Ry
     Harris-Foulkes estimate   =    -343.63016535 Ry
     estimated scf accuracy    <       0.00000008 Ry

     total magnetization       =     2.84 Bohr mag/cell
     absolute magnetization    =     3.25 Bohr mag/cell

     iteration #  8     ecut=    40.00 Ry     beta=0.20
     Davidson diagonalization with overlap
     ethr =  1.91E-10,  avg # of iterations =  2.0

     total cpu time spent up to now is     1131.2 secs

     total energy              =    -343.63016536 Ry
     Harris-Foulkes estimate   =    -343.63016538 Ry
     estimated scf accuracy    <       0.00000018 Ry

     total magnetization       =     2.84 Bohr mag/cell
     absolute magnetization    =     3.25 Bohr mag/cell

     iteration #  9     ecut=    40.00 Ry     beta=0.20
     Davidson diagonalization with overlap
     ethr =  1.91E-10,  avg # of iterations =  1.0

     total cpu time spent up to now is     1152.1 secs

     total energy              =    -343.63016537 Ry
     Harris-Foulkes estimate   =    -343.63016536 Ry
     estimated scf accuracy    <       0.00000005 Ry

     total magnetization       =     2.84 Bohr mag/cell
     absolute magnetization    =     3.25 Bohr mag/cell

     iteration # 10     ecut=    40.00 Ry     beta=0.20
     Davidson diagonalization with overlap
     ethr =  1.32E-10,  avg # of iterations =  1.0

     total cpu time spent up to now is     1172.9 secs

     total energy              =    -343.63016535 Ry
     Harris-Foulkes estimate   =    -343.63016537 Ry
     estimated scf accuracy    <       0.00000005 Ry

     total magnetization       =     2.84 Bohr mag/cell
     absolute magnetization    =     3.25 Bohr mag/cell

     iteration # 11     ecut=    40.00 Ry     beta=0.20
     Davidson diagonalization with overlap
     ethr =  1.32E-10,  avg # of iterations =  1.0

     Magnetic moment per site:
     atom:    1    charge:    3.0035    magn:    0.3346    constr:    0.0000
     atom:    2    charge:    3.0017    magn:    0.3345    constr:    0.0000
     atom:    3    charge:    3.0035    magn:    0.3346    constr:    0.0000
     atom:    4    charge:    3.0035    magn:    0.3346    constr:    0.0000

     total cpu time spent up to now is     1193.7 secs

     End of self-consistent calculation

 ------ SPIN UP ------------


          k = 0.0000 0.0000 0.0000 (  1237 PWs)   bands (ev):

     5.4366   9.7210   9.7210   9.7210  10.1745  10.1745  10.1745  11.9548
    11.9548  11.9548  13.1344  13.1344  13.8527  13.8527  13.8527  13.9428
    13.9428  13.9428  13.9429  13.9429  13.9429  17.0813  17.0813  17.0813
    23.8240  23.8240  23.8240  29.5818  29.5818  29.5818  29.5818  29.5819
    29.5819  34.6627  34.6627  34.6627  38.0102  38.0103  38.0103  38.5090
    42.4892  42.4893  42.4893  46.0920  46.0921  46.0921  48.1918  55.1925
    55.1925  55.1925  57.6320  59.0715

          k =-0.0000-0.0000 0.0476 (  1273 PWs)   bands (ev):

     5.8029   9.7431   9.9053   9.9053  10.2851  10.3010  10.3010  11.8260
    12.0572  12.0572  13.0164  13.1811  13.2882  13.2882  13.6992  13.6992
    13.7667  13.7667  13.8032  13.9431  13.9431  15.4803  18.0406  18.0406
    23.9198  23.9198  26.0734  27.8299  27.8299  28.4585  28.4585  30.1423
    30.1424  34.7787  36.8356  36.8356  37.8742  38.1421  39.9678  39.9679
    40.2680  40.2681  40.9330  47.5114  48.1472  48.1472  49.1712  51.5788
    56.2898  56.2899  56.6941  56.6941

          k =-0.0000-0.0000 0.0952 (  1246 PWs)   bands (ev):

     6.8526   9.5140  10.3425  10.3425  10.5930  10.6844  10.6844  11.4816
    12.2317  12.2317  12.3541  12.3541  12.7283  13.3098  13.3155  13.3204
    13.3204  13.3277  13.3277  13.6689  13.9436  13.9436  20.0040  20.0040
    24.2367  24.2367  25.0557  25.0557  26.6906  26.6906  30.3738  31.7223
    31.7224  35.1417  36.7426  37.0465  37.0465  38.3644  38.6943  40.8805
    40.8805  44.1330  44.1330  44.1672  50.9471  51.0666  51.0667  51.0702
    51.0702  55.0573  55.9662  55.9662

          k = 0.0000 0.0000-0.1428 (  1238 PWs)   bands (ev):

     8.3517   8.3528  10.6188  10.6188  11.0273  11.0291  11.3307  11.3307
    11.3324  11.3324  12.5498  12.5522  12.8059  12.8059  12.8072  12.8072
    13.0716  13.0717  13.4875  13.4884  13.9439  13.9439  22.3890  22.3890
    22.3920  22.3920  24.6092  24.6092  25.7458  25.7458  34.1003  34.1003
    34.1023  34.1024  34.9215  34.9259  35.7883  35.7893  40.2858  40.2928
    45.6795  45.6795  45.6856  45.6856  47.6394  47.6394  52.3148  52.3149
    54.1919  54.1919  54.1975  54.1976

          k =-0.0000 0.0476 0.0476 (  1269 PWs)   bands (ev):

     6.1606   9.9416   9.9416  10.0686  10.4025  10.4025  10.4164  11.7660
    12.1023  12.1193  12.9419  12.9917  13.0003  13.0004  13.1763  13.5704
    13.6951  13.6951  13.7654  13.7654  13.8270  16.4131  16.4131  18.8108
    23.9135  25.1126  26.2605  26.2606  28.3078  28.3079  28.9510  28.9510
    30.6703  36.0523  36.1343  37.0440  37.0440  37.3491  40.1354  40.1355
    41.2872  42.6235  43.5489  45.2500  46.3850  49.8112  50.4749  53.1194
    53.6899  55.3711  55.3711  56.3240

          k =-0.0000 0.0476 0.0952 (  1263 PWs)   bands (ev):

     7.1825   9.7502  10.4239  10.4725  10.6845  10.7378  10.7569  11.4847
    11.9929  12.1327  12.2482  12.3658  12.3911  12.8246  13.2463  13.3250
    13.3319  13.3555  13.5080  13.7621  13.7682  14.4460  18.0281  20.5944
    22.0930  24.6226  25.5172  26.5465  27.4161  29.6217  29.9166  29.9699
    31.0309  33.7394  34.4828  37.6962  38.6493  40.4065  40.5853  40.7676
    41.1362  44.0599  45.0545  47.0792  47.8041  48.6086  49.9138  51.3549
    52.9608  53.2805  54.8437  56.2289

          k = 0.0000 0.0476-0.1428 (  1256 PWs)   bands (ev):

     8.6333   8.6344  10.7714  10.7714  11.0792  11.0808  11.1984  11.1997
    11.3452  11.3468  12.1765  12.1783  12.8067  12.8080  13.0365  13.0371
    13.0566  13.0567  13.6716  13.6716  13.7596  13.7599  19.8966  19.8981
    22.8886  22.8913  25.4248  25.4269  28.3237  28.3244  31.5117  31.5126
    32.0353  32.0359  35.8424  35.8475  38.8449  38.8453  42.2312  42.2355
    43.1319  43.1336  45.9558  45.9616  50.1017  50.1069  50.3731  50.3756
    52.6321  52.6340  53.2264  53.2280

          k =-0.0000 0.0952 0.0952 (  1276 PWs)   bands (ev):

     8.1093  10.3380  10.3380  10.7041  10.9528  10.9528  10.9664  11.4148
    11.6621  11.6621  11.8168  12.1354  12.4967  12.7384  13.0302  13.1855
    13.1855  13.3257  13.3257  13.4959  13.7113  15.6925  15.6925  19.3116
    22.1215  25.1732  26.7906  26.7906  27.9103  27.9104  30.9999  31.6563
    31.6563  31.7517  33.6199  36.8548  41.5441  41.8981  41.8981  43.0947
    43.4287  43.7908  43.7908  47.2109  47.3511  48.4966  48.4966  51.6963
    52.1978  52.2105  53.2259  55.3712

          k = 0.0000 0.0952-0.1428 (  1264 PWs)   bands (ev):

     9.3761   9.3770  10.8086  10.8097  11.2065  11.2080  11.2147  11.2148
    11.3639  11.3654  11.8707  11.8718  12.8439  12.8440  12.8442  12.8455
    12.9107  12.9110  13.3603  13.3611  14.3731  14.3733  17.2238  17.2249
    24.2454  24.2474  26.2403  26.2420  28.6664  28.6673  29.5526  29.5528
    32.9649  32.9654  36.8052  36.8101  40.3817  40.3827  43.0669  43.0679
    43.2352  43.2357  46.7567  46.7614  47.9447  47.9476  50.4467  50.4493
    51.7835  51.7877  53.5828  53.5839

          k = 0.0000-0.1428-0.1428 (  1260 PWs)   bands (ev):

    10.2291  10.2299  10.2299  10.2307  11.3251  11.3266  11.3266  11.3281
    11.6354  11.6359  11.6359  11.6363  12.6976  12.6978  12.6978  12.6979
    13.0109  13.0121  13.0122  13.0134  15.4434  15.4440  15.4440  15.4445
    26.2200  26.2214  26.2214  26.2228  27.5921  27.5931  27.5932  27.5942
    37.9095  37.9109  37.9109  37.9123  38.5147  38.5163  38.5163  38.5179
    47.1964  47.1964  47.1964  47.1964  49.2083  49.2109  49.2110  49.2136
    51.8421  51.8423  51.8424  51.8426

          k = 0.0476 0.0476 0.0476 (  1274 PWs)   bands (ev):

     6.5065  10.1026  10.1026  10.1026  10.5171  10.5171  10.5171  11.7310
    12.1390  12.1390  12.6961  12.6961  12.6961  13.0895  13.0895  13.3369
    13.3369  13.3369  13.8811  13.8811  13.8811  17.0406  17.0406  17.0406
    25.3387  25.3387  25.3387  26.6061  26.6061  26.6061  31.1859  31.1859
    31.1859  33.4978  36.1835  36.1835  36.1835  39.2672  41.1565  41.1565
    42.8308  42.8309  42.8309  46.6106  47.6675  47.6675  51.6682  51.6682
    55.1332  55.2493  55.2493  55.2493

          k = 0.0476 0.0476 0.0952 (  1265 PWs)   bands (ev):

     7.4882   9.9090  10.4860  10.4860  10.8030  10.8311  10.8311  11.5214
    11.9833  11.9833  12.1788  12.2183  12.2785  12.9344  13.0051  13.0908
    13.0908  13.3293  13.7838  13.7838  13.8161  14.8079  18.3834  18.3834
    22.7193  22.7193  26.6331  27.2572  27.2572  30.3731  30.3731  30.7601
    30.9625  32.6661  36.6625  37.7914  37.8681  38.8078  38.8078  42.3790
    43.5230  44.4887  47.0411  47.0412  47.9037  49.1026  50.2209  50.2209
    50.7170  53.0373  53.0986  55.6837

          k = 0.0476 0.0476-0.1428 (  1250 PWs)   bands (ev):

     8.8604   8.8614  10.8736  10.8736  10.9314  10.9314  11.1742  11.1758
    11.5891  11.5891  12.0807  12.0824  12.5516  12.5522  12.9230  12.9230
    13.4983  13.4995  13.6054  13.6057  13.7277  13.7277  19.5323  19.5323
    21.1581  21.1581  28.2211  28.2211  28.4602  28.4608  28.9422  28.9423
    34.9539  34.9557  35.4288  35.4323  38.1109  38.1145  42.2219  42.2219
    44.7755  44.7774  45.3889  45.3889  49.4986  49.5014  50.9190  50.9199
    52.2074  52.2074  53.7058  53.7058

          k = 0.0476 0.0952 0.0952 (  1245 PWs)   bands (ev):

     8.3272  10.2269  10.2269  10.5132  11.1186  11.1647  11.1647  11.5665
    11.7792  11.7792  11.9125  12.1374  12.2634  12.7421  12.7421  12.7585
    13.0616  13.6169  13.6863  13.7015  13.7015  15.8232  15.8232  18.6350
    20.8158  23.9166  23.9166  27.9580  28.0672  31.1488  31.1488  32.1364
    32.1364  34.0330  35.2573  36.9255  39.3419  39.3419  40.1703  43.0575
    43.7546  44.8026  46.4826  46.4826  49.2138  49.2138  50.4377  50.6162
    50.9455  51.6411  52.3238  52.9468

          k = 0.0476 0.0952-0.1428 (  1254 PWs)   bands (ev):

     9.4104   9.4110  10.4482  10.4484  11.3322  11.3323  11.4800  11.4812
    11.7858  11.7864  11.9064  11.9075  12.4127  12.4131  12.6236  12.6239
    13.3587  13.3592  13.5865  13.5870  14.2793  14.2795  17.2007  17.2016
    21.8314  21.8321  25.6776  25.6781  29.4499  29.4503  33.0549  33.0551
    33.2688  33.2693  36.9192  36.9233  40.1541  40.1550  40.4634  40.4641
    45.2120  45.2124  45.7033  45.7053  47.7233  47.7243  50.5940  50.5956
    51.8107  51.8116  53.9244  53.9265

          k = 0.0476-0.1428-0.1428 (  1256 PWs)   bands (ev):

     9.9799   9.9802   9.9802   9.9804  11.7233  11.7237  11.7237  11.7241
    11.8100  11.8108  11.8108  11.8117  12.3839  12.3843  12.3843  12.3847
    13.3408  13.3416  13.3416  13.3423  15.3541  15.3547  15.3547  15.3553
    23.4654  23.4660  23.4660  23.4666  30.9880  30.9882  30.9882  30.9884
    38.1902  38.1914  38.1915  38.1926  38.3582  38.3597  38.3597  38.3611
    46.6743  46.6744  46.6744  46.6745  46.7772  46.7787  46.7787  46.7801
    54.8331  54.8341  54.8341  55.0998

          k = 0.0952 0.0952 0.0952 (  1253 PWs)   bands (ev):

     8.8711  10.0618  10.0618  10.0619  11.5234  11.5234  11.5234  12.0378
    12.0987  12.0987  12.0988  12.1043  12.1043  12.3877  12.3877  12.3877
    13.4647  13.4647  13.8299  13.8299  13.8299  16.2013  16.2013  16.2013
    21.4234  21.4234  21.4234  25.1643  32.5152  32.5152  32.5152  35.2609
    35.2609  35.2609  37.2906  37.2906  37.2906  37.8056  39.9705  39.9705
    44.4651  44.4651  47.7945  48.0859  48.0859  48.0859  48.1609  48.1609
    48.1609  52.4718  52.4718  52.4718

          k = 0.0952 0.0952-0.1428 (  1266 PWs)   bands (ev):

     9.4972   9.4973   9.9933   9.9933  11.6434  11.6434  11.9297  11.9306
    12.1470  12.1471  12.2675  12.2675  12.2815  12.2825  12.3820  12.3820
    13.7502  13.7503  13.7582  13.7582  14.1691  14.1692  16.4853  16.4853
    20.3944  20.3945  22.9812  22.9818  33.4305  33.4306  34.6445  34.6445
    36.3440  36.3457  37.2637  37.2646  39.0119  39.0148  39.4566  39.4566
    44.6728  44.6728  44.9223  44.9237  46.0374  46.0377  48.5715  48.5715
    49.6282  49.6288  53.0027  53.0027

          k = 0.0952-0.1428-0.1428 (  1268 PWs)   bands (ev):

     9.6729   9.6729   9.6729   9.6729  11.8893  11.8896  11.8896  11.8898
    12.0792  12.0795  12.0795  12.0798  12.8287  12.8292  12.8292  12.8298
    13.6778  13.6782  13.6782  13.6786  14.9768  14.9775  14.9775  14.9782
    21.1075  21.1080  21.1080  21.1084  35.1703  35.1705  35.1705  35.1708
    38.2350  38.2357  38.2358  38.2365  38.9578  38.9585  38.9585  38.9592
    44.1139  44.1146  44.1146  44.1152  45.1773  45.1775  45.1775  45.1777
    50.4434  50.4437  50.4437  50.4440

          k =-0.1428-0.1428-0.1428 (  1328 PWs)   bands (ev):

     9.5568   9.5568   9.5568   9.5568  11.9679  11.9679  11.9679  11.9679
    11.9679  11.9679  11.9679  11.9679  13.8058  13.8058  13.8058  13.8058
    13.8058  13.8058  13.8058  13.8058  14.3010  14.3011  14.3011  14.3011
    20.2268  20.2269  20.2269  20.2269  36.9639  36.9640  36.9640  36.9641
    39.5949  39.5949  39.5949  39.5949  39.5950  39.5950  39.5950  39.5950
    42.8231  42.8231  42.8231  42.8231  42.8231  42.8231  42.8232  42.8232
    48.7975  48.7975  48.7975  48.7975

          k =-0.0476-0.0000 0.0476 (  1269 PWs)   bands (ev):

     6.1606   9.9416   9.9416  10.0686  10.4025  10.4025  10.4164  11.7660
    12.1023  12.1193  12.9419  12.9917  13.0003  13.0004  13.1763  13.5704
    13.6951  13.6951  13.7654  13.7654  13.8270  16.4131  16.4131  18.8108
    23.9135  25.1126  26.2606  26.2606  28.3078  28.3079  28.9510  28.9510
    30.6703  36.0522  36.1343  37.0440  37.0440  37.3491  40.1354  40.1355
    41.2872  42.6236  43.5489  45.2500  46.3849  49.8112  50.4749  53.1194
    53.6899  55.3711  55.3711  56.3240

          k =-0.0476-0.0000 0.0952 (  1263 PWs)   bands (ev):

     7.1825   9.7502  10.4239  10.4725  10.6845  10.7378  10.7569  11.4847
    11.9929  12.1327  12.2482  12.3658  12.3911  12.8246  13.2463  13.3250
    13.3319  13.3555  13.5080  13.7621  13.7682  14.4460  18.0281  20.5944
    22.0930  24.6226  25.5172  26.5465  27.4161  29.6217  29.9166  29.9699
    31.0309  33.7394  34.4828  37.6962  38.6492  40.4064  40.5853  40.7676
    41.1362  44.0599  45.0545  47.0793  47.8040  48.6086  49.9138  51.3549
    52.9609  53.2806  54.8437  56.2289

          k =-0.0952-0.0000 0.0952 (  1276 PWs)   bands (ev):

     8.1093  10.3380  10.3380  10.7041  10.9528  10.9528  10.9664  11.4148
    11.6621  11.6621  11.8168  12.1354  12.4967  12.7384  13.0302  13.1855
    13.1855  13.3257  13.3257  13.4959  13.7113  15.6925  15.6925  19.3117
    22.1215  25.1732  26.7906  26.7906  27.9103  27.9104  30.9999  31.6563
    31.6563  31.7517  33.6199  36.8547  41.5440  41.8981  41.8981  43.0946
    43.4287  43.7908  43.7909  47.2109  47.3510  48.4966  48.4966  51.6964
    52.1978  52.2105  53.2259  55.3712

          k = 0.0476-0.0476 0.0476 (  1274 PWs)   bands (ev):

     6.5065  10.1026  10.1027  10.1027  10.5171  10.5171  10.5171  11.7310
    12.1390  12.1390  12.6961  12.6961  12.6961  13.0895  13.0895  13.3368
    13.3368  13.3369  13.8811  13.8811  13.8811  17.0406  17.0406  17.0406
    25.3387  25.3387  25.3388  26.6061  26.6061  26.6061  31.1858  31.1858
    31.1859  33.4979  36.1834  36.1835  36.1835  39.2672  41.1564  41.1565
    42.8308  42.8309  42.8309  46.6106  47.6675  47.6675  51.6682  51.6682
    55.1332  55.2493  55.2493  55.2493

          k = 0.0476-0.0476 0.0952 (  1265 PWs)   bands (ev):

     7.4882   9.9090  10.4860  10.4860  10.8030  10.8311  10.8311  11.5214
    11.9833  11.9833  12.1788  12.2183  12.2785  12.9344  13.0051  13.0908
    13.0908  13.3292  13.7838  13.7838  13.8161  14.8079  18.3833  18.3834
    22.7193  22.7193  26.6331  27.2572  27.2573  30.3731  30.3731  30.7601
    30.9625  32.6661  36.6624  37.7914  37.8680  38.8077  38.8078  42.3790
    43.5231  44.4886  47.0412  47.0412  47.9037  49.1025  50.2209  50.2210
    50.7170  53.0373  53.0986  55.6836

          k =-0.0952 0.0476 0.0476 (  1265 PWs)   bands (ev):

     7.4882   9.9090  10.4860  10.4860  10.8030  10.8311  10.8311  11.5214
    11.9833  11.9833  12.1788  12.2183  12.2785  12.9344  13.0051  13.0908
    13.0908  13.3292  13.7838  13.7838  13.8161  14.8079  18.3834  18.3834
    22.7193  22.7193  26.6330  27.2572  27.2573  30.3731  30.3731  30.7601
    30.9625  32.6661  36.6625  37.7914  37.8681  38.8078  38.8078  42.3790
    43.5231  44.4886  47.0412  47.0412  47.9037  49.1026  50.2209  50.2210
    50.7170  53.0374  53.0986  55.6837

          k = 0.0476-0.0476-0.1428 (  1250 PWs)   bands (ev):

     8.8604   8.8614  10.8736  10.8736  10.9314  10.9314  11.1742  11.1758
    11.5891  11.5891  12.0807  12.0824  12.5516  12.5522  12.9230  12.9230
    13.4983  13.4995  13.6054  13.6057  13.7277  13.7277  19.5323  19.5323
    21.1581  21.1581  28.2211  28.2211  28.4603  28.4609  28.9422  28.9423
    34.9539  34.9556  35.4288  35.4322  38.1109  38.1145  42.2218  42.2219
    44.7755  44.7775  45.3889  45.3889  49.4987  49.5014  50.9190  50.9199
    52.2074  52.2075  53.7058  53.7058

          k = 0.0952-0.0476 0.0952 (  1245 PWs)   bands (ev):

     8.3272  10.2269  10.2269  10.5132  11.1186  11.1647  11.1647  11.5665
    11.7792  11.7792  11.9125  12.1374  12.2635  12.7421  12.7421  12.7585
    13.0615  13.6169  13.6863  13.7015  13.7015  15.8232  15.8232  18.6350
    20.8158  23.9166  23.9166  27.9581  28.0673  31.1488  31.1488  32.1364
    32.1364  34.0331  35.2572  36.9255  39.3418  39.3418  40.1703  43.0574
    43.7546  44.8026  46.4826  46.4827  49.2139  49.2139  50.4377  50.6163
    50.9454  51.6411  52.3238  52.9468

          k =-0.0952 0.0476 0.0952 (  1245 PWs)   bands (ev):

     8.3272  10.2269  10.2269  10.5132  11.1186  11.1647  11.1647  11.5665
    11.7792  11.7792  11.9125  12.1374  12.2634  12.7421  12.7421  12.7585
    13.0615  13.6169  13.6863  13.7015  13.7015  15.8232  15.8232  18.6350
    20.8158  23.9166  23.9166  27.9581  28.0673  31.1488  31.1489  32.1364
    32.1364  34.0330  35.2573  36.9255  39.3418  39.3419  40.1703  43.0574
    43.7546  44.8025  46.4827  46.4827  49.2139  49.2139  50.4377  50.6162
    50.9455  51.6410  52.3239  52.9468

          k = 0.0952-0.0476-0.1428 (  1254 PWs)   bands (ev):

     9.4104   9.4110  10.4482  10.4484  11.3322  11.3323  11.4800  11.4812
    11.7858  11.7864  11.9064  11.9075  12.4126  12.4131  12.6236  12.6239
    13.3587  13.3592  13.5865  13.5870  14.2793  14.2795  17.2007  17.2016
    21.8314  21.8321  25.6776  25.6781  29.4499  29.4504  33.0548  33.0550
    33.2689  33.2693  36.9192  36.9233  40.1541  40.1550  40.4633  40.4641
    45.2120  45.2123  45.7033  45.7053  47.7233  47.7244  50.5941  50.5957
    51.8107  51.8117  53.9244  53.9265

          k = 0.0952-0.0952 0.0952 (  1253 PWs)   bands (ev):

     8.8711  10.0619  10.0619  10.0619  11.5234  11.5234  11.5234  12.0378
    12.0987  12.0987  12.0988  12.1043  12.1043  12.3877  12.3877  12.3877
    13.4647  13.4647  13.8299  13.8299  13.8299  16.2013  16.2013  16.2013
    21.4233  21.4234  21.4234  25.1643  32.5152  32.5152  32.5153  35.2608
    35.2609  35.2609  37.2905  37.2906  37.2906  37.8056  39.9704  39.9705
    44.4651  44.4651  47.7945  48.0859  48.0860  48.0860  48.1609  48.1609
    48.1610  52.4719  52.4719  52.4719

          k = 0.0952-0.0952-0.1428 (  1266 PWs)   bands (ev):

     9.4972   9.4973   9.9933   9.9933  11.6434  11.6434  11.9297  11.9306
    12.1470  12.1471  12.2674  12.2675  12.2815  12.2825  12.3820  12.3820
    13.7502  13.7503  13.7582  13.7582  14.1691  14.1692  16.4853  16.4853
    20.3944  20.3945  22.9813  22.9818  33.4306  33.4306  34.6445  34.6445
    36.3440  36.3457  37.2636  37.2645  39.0119  39.0147  39.4565  39.4566
    44.6727  44.6728  44.9223  44.9237  46.0373  46.0377  48.5715  48.5716
    49.6282  49.6288  53.0027  53.0027

 ------ SPIN DOWN ----------


          k = 0.0000 0.0000 0.0000 (  1237 PWs)   bands (ev):

     5.3820  10.1829  10.1830  10.1830  10.8926  10.8926  10.8926  12.8351
    12.8351  12.8351  13.9144  13.9144  14.6668  14.6668  14.6668  14.9522
    14.9522  14.9522  14.9522  14.9522  14.9522  17.0025  17.0025  17.0025
    24.1297  24.1297  24.1297  29.5681  29.5681  29.5681  29.5681  29.5682
    29.5682  34.8269  34.8269  34.8269  38.1537  38.1539  38.1539  38.3034
    42.4598  42.4599  42.4599  46.1644  46.1645  46.1645  48.0324  55.3817
    55.3818  55.3818  58.1553  59.5948

          k =-0.0000-0.0000 0.0476 (  1273 PWs)   bands (ev):

     5.7482  10.1586  10.3773  10.3773  11.0120  11.0165  11.0165  12.6930
    12.9416  12.9416  13.7868  13.9633  14.1081  14.1081  14.4996  14.4997
    14.6148  14.7594  14.7594  14.9525  14.9525  15.5503  18.1475  18.1475
    24.2104  24.2104  26.2753  27.8985  27.8985  28.4858  28.4859  30.1450
    30.1450  34.9303  36.9165  36.9165  37.7354  38.2833  40.0884  40.0885
    40.3098  40.3099  40.8630  47.5319  48.1209  48.1210  49.2427  51.5701
    56.5013  56.5013  56.6207  56.6207

          k =-0.0000-0.0000 0.0952 (  1246 PWs)   bands (ev):

     6.8022   9.7221  10.8389  10.8389  11.3453  11.3946  11.3946  12.3144
    12.9609  12.9609  13.2516  13.2516  13.4658  13.6859  14.0874  14.0874
    14.0979  14.2841  14.2841  14.4740  14.9531  14.9531  20.1892  20.1892
    24.4829  24.4829  25.1964  25.1964  26.7888  26.7888  30.4694  31.7593
    31.7594  35.2556  36.7078  37.1179  37.1180  38.2740  38.8405  40.8859
    40.8859  44.2325  44.2325  44.3856  50.9027  50.9717  50.9718  50.9967
    50.9967  54.9529  56.2085  56.2086

          k = 0.0000 0.0000-0.1428 (  1238 PWs)   bands (ev):

     8.3452   8.3464  11.1308  11.1308  11.8177  11.8195  12.0398  12.0398
    12.0415  12.0415  13.1976  13.2002  13.7275  13.7275  13.7288  13.7288
    13.8176  13.8176  14.2839  14.2849  14.9534  14.9534  22.5707  22.5707
    22.5737  22.5737  24.8059  24.8060  25.9032  25.9032  34.1654  34.1654
    34.1674  34.1675  34.9016  34.9061  35.8395  35.8407  40.4779  40.4851
    45.6350  45.6350  45.6412  45.6412  47.7134  47.7136  52.5048  52.5048
    54.0816  54.0817  54.0872  54.0873

          k =-0.0000 0.0476 0.0476 (  1269 PWs)   bands (ev):

     6.1069  10.3697  10.3697  10.5594  11.1160  11.1265  11.1265  12.6193
    12.9920  12.9965  13.7068  13.7481  13.7482  13.7603  13.9634  14.3610
    14.4872  14.4872  14.7582  14.7582  14.8290  16.7276  16.7276  18.9765
    24.1721  25.2424  26.4493  26.4493  28.3908  28.3909  28.9921  28.9921
    30.6814  36.1259  36.1563  37.1146  37.1146  37.3665  40.2534  40.2535
    41.2065  42.7110  43.5179  45.1937  46.4455  49.9701  50.4003  53.2913
    53.6567  55.3331  55.3331  56.2644

          k =-0.0000 0.0476 0.0952 (  1263 PWs)   bands (ev):

     7.1369   9.9728  10.8862  11.0044  11.3997  11.4323  11.4738  12.3066
    12.6842  12.8534  13.0473  13.0875  13.2678  13.5890  14.0113  14.0969
    14.1669  14.2532  14.2825  14.7554  14.7645  15.1550  18.3668  20.7985
    22.2915  24.8506  25.6689  26.6813  27.5414  29.7303  29.9783  30.0405
    31.1283  33.8174  34.5252  37.7381  38.6872  40.3580  40.5329  40.8875
    41.1358  44.1422  45.2591  47.1458  47.7265  48.5910  49.8979  51.2801
    52.9164  53.1900  55.0642  56.4829

          k = 0.0000 0.0476-0.1428 (  1256 PWs)   bands (ev):

     8.6388   8.6400  11.2745  11.2746  11.8622  11.8639  11.8751  11.8764
    12.0570  12.0587  12.9172  12.9192  13.7309  13.7323  13.8061  13.8062
    13.8067  13.8071  14.5101  14.5101  14.7537  14.7540  20.1780  20.1796
    23.0818  23.0845  25.5963  25.5985  28.4407  28.4415  31.6258  31.6266
    32.0932  32.0937  35.8676  35.8727  38.8462  38.8465  42.3840  42.3885
    43.1249  43.1267  45.9077  45.9136  50.1673  50.1723  50.3055  50.3080
    52.5485  52.5505  53.3952  53.3967

          k =-0.0000 0.0952 0.0952 (  1276 PWs)   bands (ev):

     8.0871  10.6112  10.6112  11.3683  11.4505  11.6884  11.6884  12.2086
    12.3552  12.3552  12.5289  12.9265  13.4120  13.4853  13.7837  13.9228
    13.9228  14.2866  14.2866  14.4766  14.5536  16.2977  16.2977  19.6193
    22.3408  25.3717  26.9575  26.9575  28.0115  28.0116  31.1308  31.7451
    31.7451  31.8192  33.6725  36.8905  41.4806  41.8799  41.8800  43.1293
    43.3114  43.8332  43.8333  47.3324  47.3803  48.5416  48.5416  51.7560
    52.0873  52.1526  53.4301  55.2739

          k = 0.0000 0.0952-0.1428 (  1264 PWs)   bands (ev):

     9.4374   9.4384  11.2282  11.2292  11.8545  11.8546  11.9693  11.9709
    12.0843  12.0859  12.6074  12.6087  13.5783  13.5783  13.6520  13.6522
    13.7777  13.7791  14.3287  14.3296  15.1791  15.1793  17.6879  17.6891
    24.4506  24.4526  26.3921  26.3939  28.8287  28.8295  29.6427  29.6430
    33.0366  33.0372  36.8329  36.8378  40.3807  40.3815  43.0127  43.0136
    43.2536  43.2540  46.6949  46.6997  48.0270  48.0300  50.3940  50.3967
    51.9046  51.9088  53.4975  53.4985

          k = 0.0000-0.1428-0.1428 (  1260 PWs)   bands (ev):

    10.4484  10.4493  10.4493  10.4501  12.0629  12.0644  12.0644  12.0660
    12.3045  12.3050  12.3050  12.3055  13.4352  13.4354  13.4354  13.4356
    13.9599  13.9612  13.9612  13.9625  16.1253  16.1258  16.1258  16.1263
    26.4152  26.4165  26.4166  26.4178  27.7156  27.7167  27.7168  27.7179
    37.9838  37.9851  37.9851  37.9865  38.4809  38.4824  38.4824  38.4839
    47.0764  47.0764  47.0765  47.0766  49.1974  49.2002  49.2002  49.2029
    51.9432  51.9435  51.9436  51.9439

          k = 0.0476 0.0476 0.0476 (  1274 PWs)   bands (ev):

     6.4557  10.5576  10.5576  10.5576  11.2177  11.2177  11.2177  12.5644
    13.0171  13.0171  13.4067  13.4067  13.4067  13.8758  13.8758  14.1679
    14.1679  14.1679  14.8294  14.8294  14.8294  17.3816  17.3816  17.3816
    25.4703  25.4703  25.4703  26.7794  26.7794  26.7794  31.2078  31.2078
    31.2078  33.5644  36.2784  36.2785  36.2785  39.1118  41.2090  41.2090
    42.9150  42.9151  42.9151  46.5233  47.6247  47.6247  51.8350  51.8350
    55.2025  55.2026  55.2026  55.4721

          k = 0.0476 0.0476 0.0952 (  1265 PWs)   bands (ev):

     7.4532  10.1716  11.0174  11.0174  11.4594  11.4594  11.5152  12.3170
    12.6856  12.6856  12.8511  13.0487  13.1388  13.7806  13.8150  13.8776
    13.8777  14.1515  14.7173  14.7470  14.7470  15.4382  18.7103  18.7103
    22.9296  22.9296  26.7773  27.4063  27.4063  30.4480  30.4480  30.8742
    31.0499  32.7127  36.7370  37.6973  37.9453  38.8381  38.8381  42.3865
    43.6035  44.5062  47.0854  47.0854  47.9458  49.0483  50.2099  50.2099
    50.7241  52.9668  53.0587  55.7987

          k = 0.0476 0.0476-0.1428 (  1250 PWs)   bands (ev):

     8.8949   8.8960  11.4453  11.4453  11.5129  11.5129  11.9250  11.9266
    12.3030  12.3030  12.8302  12.8321  13.4022  13.4027  13.6866  13.6867
    14.3028  14.3041  14.4666  14.4667  14.6994  14.6994  19.7896  19.7897
    21.4620  21.4621  28.3360  28.3360  28.6022  28.6028  29.0569  29.0570
    35.0233  35.0250  35.4019  35.4056  38.1882  38.1918  42.2032  42.2032
    44.8624  44.8646  45.3779  45.3779  49.4192  49.4219  50.8733  50.8742
    52.2409  52.2410  53.8863  53.8864

          k = 0.0476 0.0952 0.0952 (  1245 PWs)   bands (ev):

     8.3392  10.6196  10.6196  11.1315  11.6255  11.7665  11.7665  12.2931
    12.4992  12.4992  12.6242  12.9381  13.0876  13.5415  13.5415  13.5436
    13.9049  14.4659  14.6147  14.6147  14.6315  16.3765  16.3765  18.9098
    21.1597  24.1337  24.1337  28.1199  28.1950  31.2126  31.2126  32.2290
    32.2290  34.0878  35.2828  36.9507  39.3567  39.3567  40.0941  43.1711
    43.7463  44.7483  46.4766  46.4767  49.2687  49.2687  50.3693  50.5999
    50.9218  51.7137  52.3897  52.8738

          k = 0.0476 0.0952-0.1428 (  1254 PWs)   bands (ev):

     9.5598   9.5606  10.9830  10.9833  11.8863  11.8865  12.1258  12.1273
    12.4794  12.4800  12.6665  12.6678  13.2167  13.2171  13.3981  13.3983
    14.2238  14.2245  14.5223  14.5228  15.0722  15.0725  17.6117  17.6127
    22.1317  22.1323  25.8777  25.8781  29.5504  29.5510  33.1117  33.1117
    33.3378  33.3384  36.9323  36.9363  40.1384  40.1392  40.4860  40.4868
    45.1993  45.1995  45.6950  45.6971  47.7041  47.7053  50.6324  50.6340
    51.7501  51.7510  54.0031  54.0065

          k = 0.0476-0.1428-0.1428 (  1256 PWs)   bands (ev):

    10.3366  10.3370  10.3370  10.3375  12.2932  12.2939  12.2939  12.2946
    12.5131  12.5139  12.5139  12.5148  13.1610  13.1614  13.1614  13.1617
    14.2526  14.2535  14.2535  14.2544  15.9998  16.0003  16.0003  16.0008
    23.7233  23.7238  23.7238  23.7242  31.0705  31.0709  31.0709  31.0712
    38.2626  38.2637  38.2637  38.2649  38.3092  38.3106  38.3106  38.3118
    46.6061  46.6061  46.6062  46.6063  46.8028  46.8043  46.8044  46.8059
    54.8972  54.8985  54.8986  55.1105

          k = 0.0952 0.0952 0.0952 (  1253 PWs)   bands (ev):

     9.0043  10.5715  10.5715  10.5715  12.0822  12.0822  12.0823  12.5604
    12.7782  12.7782  12.7782  12.9052  12.9052  13.1787  13.1787  13.1787
    14.3456  14.3456  14.7574  14.7574  14.7574  16.6278  16.6279  16.6279
    21.7620  21.7620  21.7620  25.3897  32.5616  32.5616  32.5616  35.3224
    35.3224  35.3224  37.3033  37.3034  37.3034  37.6347  40.0567  40.0567
    44.4744  44.4744  47.8097  48.0344  48.0344  48.0344  48.1623  48.1624
    48.1624  52.5031  52.5031  52.5031

          k = 0.0952 0.0952-0.1428 (  1266 PWs)   bands (ev):

     9.8294   9.8297  10.5313  10.5313  12.2748  12.2748  12.5881  12.5891
    12.8355  12.8367  12.9390  12.9391  12.9817  12.9817  13.0461  13.0461
    14.6590  14.6591  14.6865  14.6865  14.8848  14.8850  16.8170  16.8170
    20.8315  20.8315  23.2708  23.2712  33.4383  33.4384  34.7305  34.7305
    36.2352  36.2371  37.3362  37.3370  39.0923  39.0951  39.4312  39.4313
    44.6992  44.6993  44.8995  44.9010  46.0456  46.0461  48.5313  48.5313
    49.6818  49.6823  53.1120  53.1120

          k = 0.0952-0.1428-0.1428 (  1268 PWs)   bands (ev):

    10.1434  10.1435  10.1435  10.1436  12.6222  12.6224  12.6224  12.6226
    12.8549  12.8552  12.8552  12.8555  13.2687  13.2693  13.2693  13.2700
    14.5958  14.5963  14.5963  14.5967  15.5085  15.5091  15.5091  15.5096
    21.5003  21.5007  21.5007  21.5011  35.1441  35.1445  35.1446  35.1449
    38.2043  38.2050  38.2050  38.2057  39.0271  39.0277  39.0278  39.0284
    44.1459  44.1466  44.1466  44.1474  45.1699  45.1701  45.1702  45.1704
    50.5341  50.5344  50.5344  50.5347

          k =-0.1428-0.1428-0.1428 (  1328 PWs)   bands (ev):

    10.0581  10.0581  10.0581  10.0581  12.7407  12.7407  12.7407  12.7407
    12.7407  12.7407  12.7407  12.7407  14.2017  14.2018  14.2018  14.2018
    14.7291  14.7291  14.7291  14.7291  14.7291  14.7291  14.7291  14.7291
    20.7091  20.7091  20.7091  20.7092  36.7798  36.7800  36.7800  36.7801
    39.6651  39.6651  39.6651  39.6652  39.6652  39.6652  39.6652  39.6652
    42.8534  42.8534  42.8534  42.8534  42.8535  42.8535  42.8535  42.8535
    48.9117  48.9117  48.9117  48.9117

          k =-0.0476-0.0000 0.0476 (  1269 PWs)   bands (ev):

     6.1069  10.3697  10.3697  10.5594  11.1160  11.1265  11.1265  12.6193
    12.9920  12.9965  13.7068  13.7481  13.7482  13.7603  13.9634  14.3610
    14.4872  14.4872  14.7582  14.7583  14.8290  16.7276  16.7276  18.9765
    24.1721  25.2424  26.4493  26.4493  28.3908  28.3909  28.9921  28.9921
    30.6813  36.1259  36.1562  37.1146  37.1146  37.3666  40.2534  40.2535
    41.2064  42.7110  43.5179  45.1937  46.4455  49.9700  50.4003  53.2913
    53.6567  55.3332  55.3332  56.2644

          k =-0.0476-0.0000 0.0952 (  1263 PWs)   bands (ev):

     7.1369   9.9728  10.8862  11.0044  11.3997  11.4323  11.4738  12.3066
    12.6842  12.8534  13.0473  13.0875  13.2678  13.5890  14.0113  14.0969
    14.1669  14.2532  14.2825  14.7554  14.7645  15.1550  18.3668  20.7985
    22.2916  24.8506  25.6689  26.6813  27.5414  29.7302  29.9783  30.0405
    31.1283  33.8174  34.5252  37.7381  38.6872  40.3580  40.5329  40.8875
    41.1358  44.1422  45.2591  47.1459  47.7265  48.5910  49.8979  51.2801
    52.9165  53.1900  55.0642  56.4829

          k =-0.0952-0.0000 0.0952 (  1276 PWs)   bands (ev):

     8.0872  10.6112  10.6112  11.3683  11.4505  11.6884  11.6884  12.2086
    12.3552  12.3552  12.5289  12.9265  13.4119  13.4853  13.7837  13.9228
    13.9228  14.2866  14.2866  14.4766  14.5536  16.2977  16.2977  19.6193
    22.3408  25.3717  26.9575  26.9575  28.0115  28.0116  31.1309  31.7451
    31.7451  31.8192  33.6724  36.8904  41.4806  41.8800  41.8800  43.1292
    43.3113  43.8333  43.8334  47.3323  47.3803  48.5416  48.5417  51.7561
    52.0873  52.1526  53.4300  55.2740

          k = 0.0476-0.0476 0.0476 (  1274 PWs)   bands (ev):

     6.4557  10.5576  10.5576  10.5576  11.2177  11.2177  11.2177  12.5644
    13.0171  13.0171  13.4067  13.4067  13.4067  13.8758  13.8758  14.1679
    14.1679  14.1679  14.8294  14.8294  14.8294  17.3816  17.3816  17.3816
    25.4703  25.4703  25.4703  26.7794  26.7794  26.7794  31.2077  31.2078
    31.2078  33.5644  36.2784  36.2784  36.2784  39.1118  41.2089  41.2090
    42.9150  42.9151  42.9152  46.5233  47.6247  47.6247  51.8350  51.8350
    55.2025  55.2026  55.2026  55.4720

          k = 0.0476-0.0476 0.0952 (  1265 PWs)   bands (ev):

     7.4532  10.1716  11.0174  11.0174  11.4594  11.4594  11.5152  12.3170
    12.6856  12.6856  12.8511  13.0487  13.1388  13.7806  13.8149  13.8776
    13.8776  14.1515  14.7173  14.7470  14.7470  15.4382  18.7103  18.7103
    22.9296  22.9296  26.7773  27.4063  27.4063  30.4480  30.4480  30.8743
    31.0500  32.7126  36.7370  37.6972  37.9452  38.8380  38.8381  42.3865
    43.6036  44.5062  47.0854  47.0855  47.9458  49.0483  50.2099  50.2099
    50.7241  52.9668  53.0587  55.7987

          k =-0.0952 0.0476 0.0476 (  1265 PWs)   bands (ev):

     7.4532  10.1716  11.0174  11.0175  11.4594  11.4594  11.5152  12.3170
    12.6856  12.6856  12.8511  13.0487  13.1388  13.7806  13.8149  13.8776
    13.8776  14.1515  14.7173  14.7470  14.7470  15.4382  18.7103  18.7103
    22.9296  22.9296  26.7773  27.4063  27.4063  30.4480  30.4480  30.8743
    31.0500  32.7127  36.7370  37.6973  37.9453  38.8381  38.8381  42.3865
    43.6035  44.5061  47.0855  47.0855  47.9458  49.0483  50.2099  50.2099
    50.7241  52.9669  53.0587  55.7987

          k = 0.0476-0.0476-0.1428 (  1250 PWs)   bands (ev):

     8.8950   8.8960  11.4453  11.4453  11.5129  11.5129  11.9250  11.9266
    12.3030  12.3030  12.8302  12.8321  13.4022  13.4027  13.6866  13.6867
    14.3028  14.3041  14.4666  14.4667  14.6994  14.6994  19.7896  19.7897
    21.4620  21.4621  28.3360  28.3361  28.6023  28.6028  29.0570  29.0570
    35.0233  35.0250  35.4019  35.4056  38.1881  38.1918  42.2032  42.2033
    44.8625  44.8646  45.3778  45.3779  49.4192  49.4219  50.8732  50.8742
    52.2409  52.2410  53.8863  53.8864

          k = 0.0952-0.0476 0.0952 (  1245 PWs)   bands (ev):

     8.3392  10.6196  10.6196  11.1315  11.6255  11.7665  11.7665  12.2931
    12.4992  12.4992  12.6242  12.9381  13.0876  13.5414  13.5415  13.5436
    13.9049  14.4659  14.6147  14.6147  14.6315  16.3765  16.3765  18.9098
    21.1597  24.1337  24.1337  28.1200  28.1950  31.2126  31.2126  32.2290
    32.2290  34.0878  35.2827  36.9507  39.3566  39.3566  40.0941  43.1711
    43.7463  44.7483  46.4767  46.4767  49.2688  49.2688  50.3694  50.5999
    50.9218  51.7137  52.3898  52.8738

          k =-0.0952 0.0476 0.0952 (  1245 PWs)   bands (ev):

     8.3392  10.6196  10.6196  11.1315  11.6255  11.7665  11.7665  12.2931
    12.4992  12.4992  12.6242  12.9381  13.0876  13.5415  13.5415  13.5436
    13.9049  14.4659  14.6147  14.6147  14.6315  16.3765  16.3765  18.9098
    21.1597  24.1336  24.1337  28.1200  28.1950  31.2126  31.2126  32.2290
    32.2290  34.0877  35.2828  36.9507  39.3566  39.3567  40.0941  43.1710
    43.7463  44.7483  46.4767  46.4767  49.2688  49.2688  50.3693  50.5998
    50.9218  51.7137  52.3898  52.8738

          k = 0.0952-0.0476-0.1428 (  1254 PWs)   bands (ev):

     9.5598   9.5606  10.9830  10.9833  11.8863  11.8865  12.1258  12.1273
    12.4794  12.4800  12.6665  12.6678  13.2167  13.2171  13.3980  13.3983
    14.2238  14.2245  14.5223  14.5228  15.0722  15.0725  17.6117  17.6127
    22.1316  22.1323  25.8777  25.8782  29.5504  29.5510  33.1116  33.1117
    33.3378  33.3384  36.9323  36.9363  40.1384  40.1392  40.4860  40.4867
    45.1993  45.1995  45.6950  45.6971  47.7041  47.7053  50.6324  50.6340
    51.7502  51.7511  54.0031  54.0065

          k = 0.0952-0.0952 0.0952 (  1253 PWs)   bands (ev):

     9.0043  10.5715  10.5715  10.5715  12.0822  12.0822  12.0823  12.5604
    12.7782  12.7782  12.7782  12.9052  12.9052  13.1787  13.1787  13.1787
    14.3456  14.3456  14.7574  14.7574  14.7574  16.6278  16.6279  16.6279
    21.7620  21.7620  21.7620  25.3898  32.5616  32.5617  32.5617  35.3223
    35.3224  35.3224  37.3033  37.3033  37.3034  37.6347  40.0566  40.0566
    44.4743  44.4744  47.8097  48.0344  48.0344  48.0345  48.1623  48.1624
    48.1624  52.5032  52.5032  52.5032

          k = 0.0952-0.0952-0.1428 (  1266 PWs)   bands (ev):

     9.8294   9.8297  10.5313  10.5313  12.2748  12.2748  12.5881  12.5891
    12.8355  12.8367  12.9390  12.9391  12.9817  12.9817  13.0461  13.0461
    14.6590  14.6591  14.6865  14.6866  14.8848  14.8850  16.8170  16.8170
    20.8314  20.8315  23.2708  23.2713  33.4384  33.4384  34.7305  34.7306
    36.2352  36.2370  37.3361  37.3369  39.0922  39.0951  39.4312  39.4313
    44.6992  44.6993  44.8995  44.9010  46.0456  46.0461  48.5314  48.5314
    49.6818  49.6823  53.1120  53.1121

     the Fermi energy is    14.5020 ev

!    total energy              =    -343.63016537 Ry
     Harris-Foulkes estimate   =    -343.63016536 Ry
     estimated scf accuracy    <          2.1E-11 Ry

     The total energy is the sum of the following terms:

     one-electron contribution =      -6.31360690 Ry
     hartree contribution      =      60.32730767 Ry
     xc contribution           =    -120.51543689 Ry
     ewald contribution        =    -277.07997579 Ry
     Dispersion Correction     =      -0.04787667 Ry
     smearing contrib. (-TS)   =      -0.00057678 Ry

     total magnetization       =     2.84 Bohr mag/cell
     absolute magnetization    =     3.25 Bohr mag/cell

     convergence has been achieved in  11 iterations

     Forces acting on atoms (Ry/au):

     atom    1 type  1   force =    -0.00012768   -0.00012768    0.00012748
     atom    2 type  1   force =     0.00012789    0.00012789    0.00012789
     atom    3 type  1   force =    -0.00012768    0.00012748   -0.00012768
     atom    4 type  1   force =     0.00012748   -0.00012768   -0.00012768

     Total force =     0.000442     Total SCF correction =     0.000010


     entering subroutine stress ...

          total   stress  (Ry/bohr**3)                   (kbar)     P=    0.63
   0.00000426  -0.00000006  -0.00000006          0.63     -0.01     -0.01
  -0.00000006   0.00000426  -0.00000006         -0.01      0.63     -0.01
  -0.00000006  -0.00000006   0.00000426         -0.01     -0.01      0.63


     number of scf cycles    =   4
     number of bfgs steps    =   3

     enthalpy old            =    -343.6300706171 Ry
     enthalpy new            =    -343.6301653658 Ry

     CASE: enthalpy_new < enthalpy_old

     new trust radius        =       0.0006533835 bohr
     new conv_thr            =            1.0E-10 Ry

     new unit-cell volume =    290.04477 a.u.^3 (    42.98020 Ang^3 )

CELL_PARAMETERS (alat=  1.88972590)
   3.502860683  -0.000003205  -0.000003205
  -0.000003205   3.502860683  -0.000003205
  -0.000003205  -0.000003205   3.502860683

ATOMIC_POSITIONS (alat)
Ni1      1.755321382   1.755321382   0.003880928
Ni1      0.003882365   0.003882365   0.003882365
Ni1      1.755321382   0.003880928   1.755321382
Ni1      0.003880928   1.755321382   1.755321382



     Writing output data file Ni-ferromag.save
     NEW-OLD atomic charge density approx. for the potential

     Check: negative/imaginary core charge=   -0.000005    0.000000
     extrapolated charge   40.01121, renormalised to   40.00000

     total cpu time spent up to now is     1221.4 secs

     Self-consistent Calculation

     iteration #  1     ecut=    40.00 Ry     beta=0.20
     Davidson diagonalization with overlap
     ethr =  1.00E-06,  avg # of iterations =  2.0

     total cpu time spent up to now is     1253.2 secs

     total energy              =    -343.63007932 Ry
     Harris-Foulkes estimate   =    -343.61832598 Ry
     estimated scf accuracy    <       0.00004063 Ry

     total magnetization       =     2.84 Bohr mag/cell
     absolute magnetization    =     3.26 Bohr mag/cell

     iteration #  2     ecut=    40.00 Ry     beta=0.20
     Davidson diagonalization with overlap
     ethr =  1.02E-07,  avg # of iterations =  1.4

     total cpu time spent up to now is     1274.4 secs

     total energy              =    -343.63010516 Ry
     Harris-Foulkes estimate   =    -343.63010825 Ry
     estimated scf accuracy    <       0.00001601 Ry

     total magnetization       =     2.83 Bohr mag/cell
     absolute magnetization    =     3.25 Bohr mag/cell

     iteration #  3     ecut=    40.00 Ry     beta=0.20
     Davidson diagonalization with overlap
     ethr =  4.00E-08,  avg # of iterations =  1.0

     total cpu time spent up to now is     1295.3 secs

     total energy              =    -343.63010190 Ry
     Harris-Foulkes estimate   =    -343.63010569 Ry
     estimated scf accuracy    <       0.00000551 Ry

     total magnetization       =     2.83 Bohr mag/cell
     absolute magnetization    =     3.25 Bohr mag/cell

     iteration #  4     ecut=    40.00 Ry     beta=0.20
     Davidson diagonalization with overlap
     ethr =  1.38E-08,  avg # of iterations =  1.5

     total cpu time spent up to now is     1316.7 secs

     total energy              =    -343.63010498 Ry
     Harris-Foulkes estimate   =    -343.63010561 Ry
     estimated scf accuracy    <       0.00000516 Ry

     total magnetization       =     2.84 Bohr mag/cell
     absolute magnetization    =     3.25 Bohr mag/cell

     iteration #  5     ecut=    40.00 Ry     beta=0.20
     Davidson diagonalization with overlap
     ethr =  1.29E-08,  avg # of iterations =  1.1

     total cpu time spent up to now is     1337.6 secs

     total energy              =    -343.63010468 Ry
     Harris-Foulkes estimate   =    -343.63010504 Ry
     estimated scf accuracy    <       0.00000286 Ry

     total magnetization       =     2.84 Bohr mag/cell
     absolute magnetization    =     3.25 Bohr mag/cell

     iteration #  6     ecut=    40.00 Ry     beta=0.20
     Davidson diagonalization with overlap
     ethr =  7.15E-09,  avg # of iterations =  1.0

     total cpu time spent up to now is     1358.5 secs

     total energy              =    -343.63010413 Ry
     Harris-Foulkes estimate   =    -343.63010472 Ry
     estimated scf accuracy    <       0.00000155 Ry

     total magnetization       =     2.84 Bohr mag/cell
     absolute magnetization    =     3.25 Bohr mag/cell

     iteration #  7     ecut=    40.00 Ry     beta=0.20
     Davidson diagonalization with overlap
     ethr =  3.87E-09,  avg # of iterations =  1.0

     total cpu time spent up to now is     1379.3 secs

     total energy              =    -343.63010435 Ry
     Harris-Foulkes estimate   =    -343.63010434 Ry
     estimated scf accuracy    <       0.00000002 Ry

     total magnetization       =     2.84 Bohr mag/cell
     absolute magnetization    =     3.25 Bohr mag/cell

     iteration #  8     ecut=    40.00 Ry     beta=0.20
     Davidson diagonalization with overlap
     ethr =  5.69E-11,  avg # of iterations =  1.4

     total cpu time spent up to now is     1400.5 secs

     total energy              =    -343.63010435 Ry
     Harris-Foulkes estimate   =    -343.63010436 Ry
     estimated scf accuracy    <       0.00000009 Ry

     total magnetization       =     2.84 Bohr mag/cell
     absolute magnetization    =     3.25 Bohr mag/cell

     iteration #  9     ecut=    40.00 Ry     beta=0.20
     Davidson diagonalization with overlap
     ethr =  5.69E-11,  avg # of iterations =  1.0

     total cpu time spent up to now is     1421.4 secs

     total energy              =    -343.63010436 Ry
     Harris-Foulkes estimate   =    -343.63010435 Ry
     estimated scf accuracy    <       0.00000006 Ry

     total magnetization       =     2.84 Bohr mag/cell
     absolute magnetization    =     3.25 Bohr mag/cell

     iteration # 10     ecut=    40.00 Ry     beta=0.20
     Davidson diagonalization with overlap
     ethr =  5.69E-11,  avg # of iterations =  1.0

     total cpu time spent up to now is     1442.3 secs

     total energy              =    -343.63010432 Ry
     Harris-Foulkes estimate   =    -343.63010436 Ry
     estimated scf accuracy    <       0.00000010 Ry

     total magnetization       =     2.84 Bohr mag/cell
     absolute magnetization    =     3.25 Bohr mag/cell

     iteration # 11     ecut=    40.00 Ry     beta=0.20
     Davidson diagonalization with overlap
     ethr =  5.69E-11,  avg # of iterations =  1.8

     Magnetic moment per site:
     atom:    1    charge:    3.0042    magn:    0.3348    constr:    0.0000
     atom:    2    charge:    3.0024    magn:    0.3346    constr:    0.0000
     atom:    3    charge:    3.0042    magn:    0.3348    constr:    0.0000
     atom:    4    charge:    3.0042    magn:    0.3348    constr:    0.0000

     total cpu time spent up to now is     1464.2 secs

     End of self-consistent calculation

 ------ SPIN UP ------------


          k = 0.0000 0.0000 0.0000 (  1237 PWs)   bands (ev):

     5.4331   9.7173   9.7173   9.7173  10.1706  10.1706  10.1706  11.9501
    11.9501  11.9501  13.1292  13.1292  13.8472  13.8472  13.8472  13.9373
    13.9373  13.9373  13.9373  13.9373  13.9373  17.0757  17.0757  17.0757
    23.8160  23.8161  23.8161  29.5737  29.5737  29.5737  29.5738  29.5738
    29.5738  34.6536  34.6536  34.6536  37.9993  37.9994  37.9994  38.5012
    42.4791  42.4791  42.4793  46.0804  46.0804  46.0806  48.1817  55.1785
    55.1785  55.1785  57.6258  59.0658

          k = 0.0000 0.0000 0.0476 (  1273 PWs)   bands (ev):

     5.7994   9.7394   9.9015   9.9015  10.2811  10.2970  10.2970  11.8213
    12.0525  12.0525  13.0113  13.1759  13.2830  13.2830  13.6938  13.6938
    13.7612  13.7612  13.7977  13.9375  13.9375  15.4748  18.0346  18.0346
    23.9119  23.9119  26.0654  27.8220  27.8220  28.4503  28.4504  30.1341
    30.1342  34.7696  36.8262  36.8262  37.8660  38.1312  39.9568  39.9568
    40.2578  40.2579  40.9236  47.5000  48.1361  48.1362  49.1586  51.5674
    56.2752  56.2752  56.6823  56.6824

          k = 0.0000 0.0000 0.0952 (  1246 PWs)   bands (ev):

     6.8488   9.5101  10.3386  10.3386  10.5889  10.6803  10.6803  11.4772
    12.2269  12.2269  12.3492  12.3492  12.7233  13.3046  13.3103  13.3152
    13.3152  13.3224  13.3224  13.6635  13.9381  13.9381  19.9975  19.9975
    24.2290  24.2290  25.0482  25.0482  26.6824  26.6824  30.3654  31.7137
    31.7138  35.1327  36.7340  37.0367  37.0368  38.3557  38.6832  40.8707
    40.8707  44.1214  44.1215  44.1545  50.9355  51.0559  51.0560  51.0591
    51.0591  55.0455  55.9553  55.9553

          k =-0.0000-0.0000-0.1427 (  1238 PWs)   bands (ev):

     8.3483   8.3484  10.6147  10.6147  11.0239  11.0239  11.3271  11.3271
    11.3271  11.3271  12.5461  12.5462  12.8014  12.8014  12.8015  12.8015
    13.0665  13.0665  13.4826  13.4826  13.9383  13.9383  22.3835  22.3835
    22.3835  22.3835  24.6019  24.6019  25.7372  25.7372  34.0921  34.0921
    34.0922  34.0922  34.9152  34.9154  35.7799  35.7799  40.2774  40.2775
    45.6721  45.6721  45.6722  45.6722  47.6273  47.6274  52.3028  52.3029
    54.1836  54.1837  54.1838  54.1838

          k = 0.0000 0.0476 0.0476 (  1269 PWs)   bands (ev):

     6.1570   9.9378   9.9378  10.0647  10.3985  10.3985  10.4124  11.7614
    12.0975  12.1146  12.9369  12.9867  12.9952  12.9952  13.1711  13.5650
    13.6896  13.6896  13.7599  13.7599  13.8214  16.4072  16.4072  18.8046
    23.9058  25.1048  26.2526  26.2526  28.2998  28.2998  28.9427  28.9427
    30.6619  36.0427  36.1255  37.0346  37.0346  37.3397  40.1244  40.1245
    41.2778  42.6124  43.5386  45.2397  46.3734  49.7979  50.4640  53.1058
    53.6789  55.3595  55.3595  56.3123

          k = 0.0000 0.0476 0.0952 (  1263 PWs)   bands (ev):

     7.1787   9.7462  10.4199  10.4685  10.6804  10.7336  10.7527  11.4802
    11.9882  12.1280  12.2434  12.3609  12.3863  12.8196  13.2411  13.3198
    13.3265  13.3502  13.5026  13.7566  13.7627  14.4403  18.0218  20.5877
    22.0860  24.6145  25.5096  26.5389  27.4075  29.6134  29.9085  29.9614
    31.0219  33.7305  34.4737  37.6868  38.6395  40.3970  40.5758  40.7564
    41.1264  44.0485  45.0417  47.0676  47.7935  48.5973  49.9025  51.3437
    52.9494  53.2694  54.8311  56.2182

          k =-0.0000 0.0476-0.1427 (  1256 PWs)   bands (ev):

     8.6298   8.6299  10.7673  10.7673  11.0757  11.0757  11.1947  11.1947
    11.3416  11.3416  12.1726  12.1726  12.8023  12.8023  13.0317  13.0317
    13.0515  13.0515  13.6662  13.6662  13.7542  13.7542  19.8906  19.8906
    22.8828  22.8828  25.4179  25.4180  28.3156  28.3156  31.5035  31.5035
    32.0269  32.0270  35.8357  35.8358  38.8356  38.8357  42.2215  42.2217
    43.1224  43.1225  45.9481  45.9483  50.0918  50.0920  50.3633  50.3634
    52.6217  52.6218  53.2154  53.2155

          k = 0.0000 0.0952 0.0952 (  1276 PWs)   bands (ev):

     8.1054  10.3339  10.3339  10.7000  10.9486  10.9486  10.9622  11.4103
    11.6575  11.6575  11.8122  12.1306  12.4917  12.7334  13.0251  13.1803
    13.1803  13.3204  13.3204  13.4905  13.7059  15.6865  15.6865  19.3051
    22.1145  25.1652  26.7827  26.7827  27.9022  27.9022  30.9913  31.6474
    31.6475  31.7430  33.6108  36.8453  41.5345  41.8882  41.8882  43.0839
    43.4192  43.7798  43.7799  47.1985  47.3396  48.4850  48.4850  51.6842
    52.1864  52.1994  53.2136  55.3597

          k =-0.0000 0.0952-0.1427 (  1264 PWs)   bands (ev):

     9.3725   9.3725  10.8049  10.8049  11.2029  11.2029  11.2104  11.2104
    11.3602  11.3602  11.8666  11.8667  12.8389  12.8389  12.8397  12.8398
    12.9058  12.9058  13.3554  13.3554  14.3675  14.3675  17.2180  17.2181
    24.2389  24.2390  26.2331  26.2331  28.6586  28.6586  29.5443  29.5443
    32.9561  32.9561  36.7982  36.7983  40.3723  40.3723  43.0575  43.0575
    43.2248  43.2248  46.7485  46.7486  47.9341  47.9342  50.4368  50.4368
    51.7728  51.7729  53.5719  53.5720

          k =-0.0000-0.1427-0.1427 (  1260 PWs)   bands (ev):

    10.2257  10.2257  10.2257  10.2257  11.3221  11.3222  11.3222  11.3222
    11.6314  11.6314  11.6314  11.6314  12.6928  12.6928  12.6928  12.6928
    13.0070  13.0070  13.0070  13.0070  15.4380  15.4380  15.4380  15.4380
    26.2136  26.2136  26.2136  26.2137  27.5849  27.5849  27.5849  27.5850
    37.9008  37.9008  37.9009  37.9009  38.5070  38.5070  38.5071  38.5071
    47.1862  47.1862  47.1863  47.1863  49.1996  49.1996  49.1997  49.1997
    51.8290  51.8291  51.8291  51.8292

          k = 0.0476 0.0476 0.0476 (  1274 PWs)   bands (ev):

     6.5028  10.0987  10.0988  10.0988  10.5131  10.5131  10.5131  11.7264
    12.1342  12.1342  12.6912  12.6912  12.6912  13.0844  13.0844  13.3316
    13.3316  13.3316  13.8756  13.8756  13.8756  17.0345  17.0345  17.0345
    25.3312  25.3312  25.3312  26.5978  26.5979  26.5979  31.1773  31.1773
    31.1773  33.4891  36.1739  36.1739  36.1739  39.2588  41.1459  41.1459
    42.8198  42.8198  42.8198  46.6002  47.6567  47.6567  51.6543  51.6543
    55.1229  55.2374  55.2375  55.2375

          k = 0.0476 0.0476 0.0952 (  1265 PWs)   bands (ev):

     7.4844   9.9050  10.4819  10.4820  10.7988  10.8269  10.8269  11.5169
    11.9786  11.9786  12.1740  12.2134  12.2737  12.9293  12.9999  13.0856
    13.0856  13.3240  13.7783  13.7783  13.8106  14.8022  18.3770  18.3770
    22.7120  22.7120  26.6252  27.2491  27.2491  30.3645  30.3645  30.7516
    30.9540  32.6572  36.6529  37.7829  37.8580  38.7980  38.7980  42.3686
    43.5119  44.4777  47.0297  47.0297  47.8919  49.0916  50.2096  50.2096
    50.7052  53.0261  53.0868  55.6693

          k = 0.0476 0.0476-0.1427 (  1250 PWs)   bands (ev):

     8.8569   8.8569  10.8694  10.8694  10.9272  10.9272  11.1706  11.1707
    11.5846  11.5846  12.0768  12.0768  12.5469  12.5469  12.9179  12.9179
    13.4935  13.4935  13.6001  13.6001  13.7222  13.7222  19.5258  19.5258
    21.1508  21.1508  28.2132  28.2133  28.4523  28.4524  28.9334  28.9335
    34.9453  34.9454  35.4220  35.4221  38.1026  38.1026  42.2118  42.2118
    44.7649  44.7650  45.3782  45.3782  49.4891  49.4892  50.9081  50.9081
    52.1948  52.1949  53.6943  53.6943

          k = 0.0476 0.0952 0.0952 (  1245 PWs)   bands (ev):

     8.3233  10.2228  10.2228  10.5090  11.1144  11.1604  11.1604  11.5620
    11.7746  11.7746  11.9079  12.1327  12.2586  12.7371  12.7371  12.7535
    13.0564  13.6115  13.6809  13.6961  13.6961  15.8172  15.8172  18.6287
    20.8085  23.9090  23.9090  27.9500  28.0591  31.1405  31.1405  32.1273
    32.1273  34.0238  35.2483  36.9161  39.3321  39.3321  40.1611  43.0459
    43.7441  44.7922  46.4717  46.4717  49.2021  49.2021  50.4265  50.6047
    50.9337  51.6283  52.3119  52.9353

          k = 0.0476 0.0952-0.1427 (  1254 PWs)   bands (ev):

     9.4066   9.4067  10.4441  10.4441  11.3279  11.3279  11.4761  11.4761
    11.7815  11.7815  11.9023  11.9023  12.4080  12.4080  12.6188  12.6188
    13.3537  13.3537  13.5814  13.5814  14.2738  14.2738  17.1949  17.1950
    21.8244  21.8244  25.6700  25.6700  29.4418  29.4418  33.0461  33.0462
    33.2600  33.2600  36.9119  36.9120  40.1448  40.1448  40.4536  40.4536
    45.2014  45.2015  45.6934  45.6935  47.7126  47.7127  50.5828  50.5829
    51.7997  51.7997  53.9144  53.9146

          k = 0.0476-0.1427-0.1427 (  1256 PWs)   bands (ev):

     9.9761   9.9761   9.9761   9.9761  11.7192  11.7192  11.7192  11.7192
    11.8062  11.8063  11.8063  11.8063  12.3794  12.3794  12.3794  12.3794
    13.3362  13.3363  13.3363  13.3363  15.3488  15.3488  15.3488  15.3488
    23.4584  23.4584  23.4584  23.4585  30.9796  30.9796  30.9796  30.9797
    38.1813  38.1813  38.1814  38.1814  38.3504  38.3505  38.3506  38.3506
    46.6639  46.6639  46.6639  46.6640  46.7673  46.7674  46.7674  46.7674
    54.8207  54.8208  54.8208  54.8210

          k = 0.0952 0.0952 0.0952 (  1253 PWs)   bands (ev):

     8.8672  10.0578  10.0578  10.0578  11.5190  11.5190  11.5190  12.0331
    12.0940  12.0940  12.0940  12.0995  12.0995  12.3828  12.3828  12.3828
    13.4593  13.4593  13.8243  13.8243  13.8243  16.1954  16.1954  16.1954
    21.4160  21.4160  21.4160  25.1565  32.5066  32.5067  32.5067  35.2514
    35.2514  35.2514  37.2811  37.2812  37.2812  37.7977  39.9599  39.9599
    44.4543  44.4543  47.7830  48.0750  48.0751  48.0751  48.1496  48.1496
    48.1496  52.4593  52.4594  52.4594

          k = 0.0952 0.0952-0.1427 (  1266 PWs)   bands (ev):

     9.4933   9.4933   9.9893   9.9893  11.6389  11.6389  11.9255  11.9255
    12.1422  12.1423  12.2626  12.2627  12.2772  12.2772  12.3772  12.3773
    13.7448  13.7448  13.7527  13.7527  14.1637  14.1637  16.4795  16.4796
    20.3870  20.3870  22.9739  22.9740  33.4222  33.4222  34.6349  34.6349
    36.3367  36.3368  37.2541  37.2542  39.0029  39.0030  39.4470  39.4470
    44.6618  44.6618  44.9124  44.9125  46.0264  46.0265  48.5604  48.5604
    49.6164  49.6164  52.9903  52.9903

          k = 0.0952-0.1427-0.1427 (  1268 PWs)   bands (ev):

     9.6690   9.6690   9.6690   9.6690  11.8849  11.8849  11.8850  11.8850
    12.0748  12.0748  12.0748  12.0748  12.8243  12.8243  12.8243  12.8243
    13.6728  13.6728  13.6728  13.6728  14.9719  14.9719  14.9719  14.9719
    21.1005  21.1005  21.1005  21.1006  35.1618  35.1619  35.1619  35.1620
    38.2264  38.2265  38.2265  38.2265  38.9482  38.9482  38.9483  38.9483
    44.1036  44.1037  44.1037  44.1038  45.1667  45.1667  45.1667  45.1668
    50.4314  50.4315  50.4315  50.4315

          k =-0.1427-0.1427-0.1427 (  1328 PWs)   bands (ev):

     9.5529   9.5529   9.5529   9.5529  11.9632  11.9632  11.9632  11.9632
    11.9632  11.9632  11.9632  11.9632  13.8003  13.8003  13.8003  13.8003
    13.8003  13.8003  13.8003  13.8003  14.2961  14.2962  14.2962  14.2962
    20.2194  20.2194  20.2194  20.2195  36.9562  36.9564  36.9564  36.9564
    39.5845  39.5845  39.5845  39.5845  39.5845  39.5846  39.5846  39.5846
    42.8125  42.8125  42.8125  42.8125  42.8125  42.8126  42.8126  42.8126
    48.7852  48.7852  48.7852  48.7852

          k =-0.0476-0.0000 0.0476 (  1269 PWs)   bands (ev):

     6.1570   9.9378   9.9378  10.0647  10.3985  10.3985  10.4124  11.7614
    12.0975  12.1146  12.9369  12.9867  12.9952  12.9952  13.1711  13.5650
    13.6896  13.6896  13.7599  13.7599  13.8214  16.4072  16.4072  18.8046
    23.9058  25.1047  26.2526  26.2526  28.2998  28.2998  28.9427  28.9427
    30.6620  36.0427  36.1255  37.0346  37.0346  37.3396  40.1244  40.1244
    41.2778  42.6123  43.5387  45.2397  46.3734  49.7980  50.4639  53.1058
    53.6788  55.3594  55.3594  56.3124

          k =-0.0476 0.0000 0.0952 (  1263 PWs)   bands (ev):

     7.1787   9.7462  10.4199  10.4685  10.6804  10.7336  10.7527  11.4802
    11.9882  12.1280  12.2434  12.3609  12.3863  12.8196  13.2411  13.3198
    13.3265  13.3502  13.5026  13.7566  13.7627  14.4403  18.0218  20.5877
    22.0860  24.6145  25.5096  26.5389  27.4074  29.6134  29.9085  29.9614
    31.0219  33.7305  34.4737  37.6868  38.6396  40.3970  40.5759  40.7564
    41.1264  44.0485  45.0418  47.0675  47.7936  48.5974  49.9024  51.3437
    52.9493  53.2694  54.8312  56.2182

          k =-0.0952-0.0000 0.0952 (  1276 PWs)   bands (ev):

     8.1053  10.3339  10.3339  10.6999  10.9486  10.9486  10.9622  11.4103
    11.6575  11.6575  11.8122  12.1306  12.4918  12.7334  13.0251  13.1803
    13.1803  13.3204  13.3204  13.4905  13.7059  15.6865  15.6865  19.3050
    22.1145  25.1652  26.7827  26.7827  27.9022  27.9022  30.9913  31.6474
    31.6474  31.7430  33.6108  36.8454  41.5345  41.8882  41.8882  43.0839
    43.4193  43.7798  43.7798  47.1985  47.3397  48.4849  48.4849  51.6840
    52.1864  52.1994  53.2136  55.3596

          k = 0.0476-0.0476 0.0476 (  1274 PWs)   bands (ev):

     6.5028  10.0987  10.0988  10.0988  10.5131  10.5131  10.5131  11.7264
    12.1342  12.1342  12.6912  12.6912  12.6912  13.0844  13.0844  13.3316
    13.3316  13.3316  13.8756  13.8756  13.8756  17.0345  17.0345  17.0345
    25.3312  25.3312  25.3312  26.5978  26.5978  26.5979  31.1773  31.1774
    31.1774  33.4890  36.1739  36.1740  36.1740  39.2588  41.1460  41.1461
    42.8197  42.8197  42.8198  46.6002  47.6567  47.6568  51.6543  51.6544
    55.1229  55.2374  55.2374  55.2375

          k = 0.0476-0.0476 0.0952 (  1265 PWs)   bands (ev):

     7.4844   9.9050  10.4819  10.4820  10.7988  10.8269  10.8269  11.5169
    11.9786  11.9786  12.1740  12.2134  12.2737  12.9293  12.9999  13.0856
    13.0856  13.3240  13.7783  13.7783  13.8106  14.8022  18.3770  18.3770
    22.7120  22.7121  26.6251  27.2491  27.2491  30.3645  30.3645  30.7515
    30.9540  32.6573  36.6529  37.7830  37.8581  38.7980  38.7981  42.3686
    43.5118  44.4777  47.0296  47.0297  47.8919  49.0917  50.2095  50.2096
    50.7053  53.0261  53.0869  55.6694

          k =-0.0952 0.0476 0.0476 (  1265 PWs)   bands (ev):

     7.4844   9.9050  10.4819  10.4819  10.7988  10.8269  10.8269  11.5169
    11.9786  11.9786  12.1740  12.2134  12.2737  12.9293  13.0000  13.0856
    13.0856  13.3240  13.7783  13.7783  13.8106  14.8022  18.3770  18.3770
    22.7120  22.7120  26.6252  27.2491  27.2491  30.3645  30.3645  30.7515
    30.9540  32.6572  36.6529  37.7829  37.8581  38.7981  38.7981  42.3687
    43.5119  44.4779  47.0296  47.0296  47.8920  49.0916  50.2095  50.2095
    50.7053  53.0260  53.0868  55.6693

          k = 0.0476-0.0476-0.1427 (  1250 PWs)   bands (ev):

     8.8569   8.8569  10.8694  10.8694  10.9272  10.9272  11.1706  11.1707
    11.5846  11.5846  12.0768  12.0768  12.5469  12.5470  12.9179  12.9179
    13.4935  13.4935  13.6001  13.6001  13.7222  13.7222  19.5258  19.5258
    21.1508  21.1509  28.2132  28.2133  28.4523  28.4523  28.9334  28.9335
    34.9454  34.9454  35.4220  35.4221  38.1026  38.1027  42.2117  42.2119
    44.7648  44.7649  45.3781  45.3782  49.4891  49.4892  50.9081  50.9082
    52.1948  52.1949  53.6942  53.6943

          k = 0.0952-0.0476 0.0952 (  1245 PWs)   bands (ev):

     8.3233  10.2228  10.2228  10.5090  11.1144  11.1604  11.1604  11.5620
    11.7746  11.7746  11.9079  12.1327  12.2586  12.7371  12.7371  12.7535
    13.0564  13.6115  13.6809  13.6961  13.6961  15.8172  15.8172  18.6288
    20.8086  23.9090  23.9090  27.9499  28.0590  31.1405  31.1406  32.1272
    32.1273  34.0238  35.2484  36.9161  39.3321  39.3322  40.1611  43.0460
    43.7442  44.7922  46.4716  46.4717  49.2020  49.2020  50.4264  50.6046
    50.9338  51.6282  52.3119  52.9353

          k =-0.0952 0.0476 0.0952 (  1245 PWs)   bands (ev):

     8.3233  10.2228  10.2228  10.5090  11.1144  11.1604  11.1604  11.5620
    11.7746  11.7746  11.9079  12.1326  12.2586  12.7371  12.7371  12.7535
    13.0564  13.6115  13.6809  13.6961  13.6961  15.8172  15.8172  18.6287
    20.8085  23.9090  23.9091  27.9499  28.0590  31.1405  31.1406  32.1272
    32.1273  34.0239  35.2483  36.9162  39.3320  39.3321  40.1611  43.0460
    43.7442  44.7923  46.4716  46.4716  49.2020  49.2020  50.4265  50.6047
    50.9337  51.6283  52.3118  52.9352

          k = 0.0952-0.0476-0.1427 (  1254 PWs)   bands (ev):

     9.4066   9.4067  10.4441  10.4441  11.3279  11.3279  11.4761  11.4761
    11.7815  11.7815  11.9023  11.9023  12.4080  12.4080  12.6188  12.6188
    13.3537  13.3537  13.5814  13.5814  14.2738  14.2738  17.1949  17.1950
    21.8244  21.8244  25.6699  25.6700  29.4417  29.4418  33.0462  33.0463
    33.2599  33.2600  36.9119  36.9120  40.1447  40.1449  40.4536  40.4537
    45.2015  45.2015  45.6934  45.6935  47.7126  47.7126  50.5828  50.5828
    51.7996  51.7996  53.9144  53.9146

          k = 0.0952-0.0952 0.0952 (  1253 PWs)   bands (ev):

     8.8672  10.0578  10.0578  10.0578  11.5190  11.5190  11.5190  12.0331
    12.0940  12.0940  12.0940  12.0995  12.0995  12.3828  12.3828  12.3828
    13.4593  13.4594  13.8243  13.8243  13.8243  16.1954  16.1954  16.1954
    21.4160  21.4160  21.4160  25.1565  32.5066  32.5066  32.5067  35.2514
    35.2515  35.2515  37.2811  37.2812  37.2812  37.7977  39.9599  39.9600
    44.4544  44.4544  47.7831  48.0750  48.0750  48.0751  48.1495  48.1496
    48.1496  52.4592  52.4592  52.4593

          k = 0.0952-0.0952-0.1427 (  1266 PWs)   bands (ev):

     9.4933   9.4933   9.9893   9.9893  11.6388  11.6389  11.9255  11.9255
    12.1423  12.1423  12.2627  12.2627  12.2772  12.2772  12.3772  12.3773
    13.7448  13.7448  13.7527  13.7527  14.1637  14.1637  16.4795  16.4796
    20.3870  20.3871  22.9739  22.9739  33.4221  33.4222  34.6348  34.6349
    36.3367  36.3368  37.2542  37.2542  39.0029  39.0030  39.4470  39.4471
    44.6618  44.6619  44.9124  44.9124  46.0265  46.0265  48.5603  48.5604
    49.6164  49.6164  52.9903  52.9903

 ------ SPIN DOWN ----------


          k = 0.0000 0.0000 0.0000 (  1237 PWs)   bands (ev):

     5.3785  10.1794  10.1794  10.1794  10.8888  10.8888  10.8888  12.8305
    12.8305  12.8306  13.9094  13.9094  14.6615  14.6615  14.6615  14.9468
    14.9468  14.9468  14.9468  14.9468  14.9468  16.9969  16.9969  16.9969
    24.1217  24.1218  24.1218  29.5599  29.5600  29.5600  29.5601  29.5601
    29.5601  34.8177  34.8177  34.8177  38.1428  38.1430  38.1430  38.2955
    42.4498  42.4498  42.4499  46.1528  46.1528  46.1529  48.0222  55.3676
    55.3676  55.3677  58.1493  59.5892

          k = 0.0000 0.0000 0.0476 (  1273 PWs)   bands (ev):

     5.7447  10.1550  10.3736  10.3736  11.0082  11.0127  11.0127  12.6885
    12.9370  12.9370  13.7819  13.9583  14.1031  14.1031  14.4944  14.4944
    14.6095  14.7541  14.7541  14.9471  14.9471  15.5449  18.1415  18.1415
    24.2025  24.2025  26.2673  27.8906  27.8906  28.4776  28.4777  30.1367
    30.1368  34.9211  36.9071  36.9071  37.7272  38.2724  40.0774  40.0775
    40.2996  40.2997  40.8536  47.5204  48.1099  48.1099  49.2303  51.5584
    56.4865  56.4866  56.6089  56.6089

          k = 0.0000 0.0000 0.0952 (  1246 PWs)   bands (ev):

     6.7985   9.7183  10.8351  10.8352  11.3414  11.3906  11.3906  12.3101
    12.9562  12.9562  13.2469  13.2469  13.4610  13.6808  14.0823  14.0824
    14.0928  14.2789  14.2789  14.4688  14.9477  14.9477  20.1827  20.1827
    24.4752  24.4752  25.1889  25.1889  26.7805  26.7806  30.4610  31.7506
    31.7507  35.2465  36.6992  37.1081  37.1082  38.2653  38.8293  40.8760
    40.8760  44.2209  44.2210  44.3729  50.8911  50.9609  50.9610  50.9856
    50.9856  54.9410  56.1972  56.1973

          k =-0.0000-0.0000-0.1427 (  1238 PWs)   bands (ev):

     8.3418   8.3418  11.1269  11.1270  11.8144  11.8145  12.0363  12.0363
    12.0364  12.0364  13.1941  13.1942  13.7232  13.7233  13.7233  13.7233
    13.8126  13.8126  14.2793  14.2793  14.9480  14.9480  22.5651  22.5651
    22.5652  22.5652  24.7986  24.7986  25.8946  25.8946  34.1572  34.1572
    34.1572  34.1573  34.8953  34.8955  35.8312  35.8312  40.4696  40.4697
    45.6276  45.6276  45.6277  45.6277  47.7014  47.7015  52.4926  52.4926
    54.0733  54.0733  54.0734  54.0735

          k = 0.0000 0.0476 0.0476 (  1269 PWs)   bands (ev):

     6.1033  10.3659  10.3660  10.5557  11.1121  11.1226  11.1226  12.6149
    12.9874  12.9919  13.7019  13.7433  13.7433  13.7553  13.9584  14.3558
    14.4820  14.4820  14.7529  14.7529  14.8236  16.7217  16.7218  18.9703
    24.1645  25.2345  26.4413  26.4413  28.3827  28.3828  28.9838  28.9838
    30.6729  36.1171  36.1467  37.1052  37.1052  37.3571  40.2423  40.2424
    41.1970  42.6999  43.5076  45.1833  46.4339  49.9567  50.3893  53.2778
    53.6453  55.3215  55.3215  56.2526

          k = 0.0000 0.0476 0.0952 (  1263 PWs)   bands (ev):

     7.1331   9.9688  10.8823  11.0006  11.3956  11.4283  11.4697  12.3023
    12.6796  12.8488  13.0426  13.0828  13.2631  13.5841  14.0062  14.0918
    14.1618  14.2481  14.2773  14.7500  14.7592  15.1495  18.3604  20.7918
    22.2845  24.8425  25.6613  26.6737  27.5327  29.7219  29.9702  30.0320
    31.1194  33.8086  34.5162  37.7287  38.6774  40.3485  40.5234  40.8763
    41.1259  44.1308  45.2464  47.1341  47.7159  48.5797  49.8866  51.2689
    52.9049  53.1788  55.0513  56.4718

          k =-0.0000 0.0476-0.1427 (  1256 PWs)   bands (ev):

     8.6354   8.6354  11.2706  11.2706  11.8589  11.8590  11.8714  11.8715
    12.0535  12.0536  12.9136  12.9137  13.7267  13.7267  13.8014  13.8014
    13.8017  13.8017  14.5048  14.5048  14.7485  14.7485  20.1721  20.1721
    23.0759  23.0760  25.5894  25.5895  28.4326  28.4327  31.6175  31.6175
    32.0848  32.0848  35.8609  35.8611  38.8369  38.8369  42.3744  42.3745
    43.1154  43.1155  45.9001  45.9002  50.1573  50.1575  50.2956  50.2957
    52.5381  52.5382  53.3839  53.3840

          k = 0.0000 0.0952 0.0952 (  1276 PWs)   bands (ev):

     8.0832  10.6071  10.6071  11.3642  11.4465  11.6843  11.6843  12.2043
    12.3508  12.3508  12.5245  12.9219  13.4072  13.4805  13.7788  13.9178
    13.9178  14.2815  14.2815  14.4714  14.5483  16.2918  16.2918  19.6127
    22.3338  25.3636  26.9495  26.9496  28.0033  28.0034  31.1223  31.7363
    31.7363  31.8105  33.6633  36.8810  41.4710  41.8700  41.8701  43.1185
    43.3018  43.8223  43.8224  47.3198  47.3688  48.5299  48.5299  51.7438
    52.0762  52.1411  53.4175  55.2624

          k =-0.0000 0.0952-0.1427 (  1264 PWs)   bands (ev):

     9.4338   9.4338  11.2245  11.2245  11.8504  11.8505  11.9659  11.9659
    12.0808  12.0809  12.6036  12.6036  13.5734  13.5734  13.6472  13.6472
    13.7735  13.7735  14.3240  14.3240  15.1737  15.1737  17.6822  17.6823
    24.4441  24.4442  26.3849  26.3849  28.8208  28.8209  29.6344  29.6344
    33.0279  33.0279  36.8259  36.8260  40.3711  40.3712  43.0032  43.0033
    43.2431  43.2432  46.6867  46.6868  48.0164  48.0165  50.3840  50.3841
    51.8938  51.8939  53.4865  53.4866

          k =-0.0000-0.1427-0.1427 (  1260 PWs)   bands (ev):

    10.4451  10.4451  10.4451  10.4451  12.0602  12.0602  12.0602  12.0602
    12.3007  12.3007  12.3007  12.3007  13.4306  13.4306  13.4306  13.4306
    13.9562  13.9562  13.9562  13.9562  16.1199  16.1199  16.1200  16.1200
    26.4087  26.4087  26.4087  26.4087  27.7084  27.7085  27.7085  27.7086
    37.9750  37.9750  37.9751  37.9751  38.4730  38.4731  38.4732  38.4732
    47.0662  47.0662  47.0663  47.0663  49.1887  49.1888  49.1889  49.1889
    51.9302  51.9303  51.9303  51.9303

          k = 0.0476 0.0476 0.0476 (  1274 PWs)   bands (ev):

     6.4520  10.5539  10.5539  10.5539  11.2138  11.2138  11.2138  12.5599
    13.0125  13.0125  13.4019  13.4019  13.4019  13.8708  13.8708  14.1628
    14.1628  14.1628  14.8240  14.8241  14.8241  17.3755  17.3755  17.3755
    25.4628  25.4628  25.4628  26.7712  26.7712  26.7712  31.1992  31.1993
    31.1993  33.5557  36.2688  36.2689  36.2689  39.1033  41.1985  41.1985
    42.9039  42.9040  42.9040  46.5128  47.6139  47.6139  51.8211  51.8211
    55.1907  55.1907  55.1907  55.4615

          k = 0.0476 0.0476 0.0952 (  1265 PWs)   bands (ev):

     7.4493  10.1676  11.0135  11.0136  11.4554  11.4554  11.5112  12.3126
    12.6810  12.6810  12.8465  13.0440  13.1341  13.7756  13.8100  13.8726
    13.8727  14.1464  14.7120  14.7417  14.7417  15.4326  18.7039  18.7039
    22.9223  22.9223  26.7694  27.3982  27.3982  30.4393  30.4394  30.8658
    31.0414  32.7037  36.7274  37.6887  37.9352  38.8283  38.8283  42.3761
    43.5923  44.4952  47.0739  47.0740  47.9340  49.0373  50.1985  50.1985
    50.7123  52.9555  53.0470  55.7843

          k = 0.0476 0.0476-0.1427 (  1250 PWs)   bands (ev):

     8.8914   8.8915  11.4413  11.4413  11.5088  11.5088  11.9216  11.9216
    12.2986  12.2986  12.8266  12.8266  13.3977  13.3977  13.6817  13.6818
    14.2983  14.2983  14.4614  14.4614  14.6940  14.6940  19.7832  19.7832
    21.4548  21.4548  28.3281  28.3282  28.5942  28.5943  29.0482  29.0482
    35.0147  35.0147  35.3952  35.3953  38.1798  38.1799  42.1931  42.1931
    44.8519  44.8520  45.3671  45.3671  49.4096  49.4097  50.8623  50.8624
    52.2283  52.2284  53.8746  53.8746

          k = 0.0476 0.0952 0.0952 (  1245 PWs)   bands (ev):

     8.3353  10.6156  10.6156  11.1275  11.6214  11.7623  11.7623  12.2887
    12.4947  12.4947  12.6197  12.9335  13.0829  13.5366  13.5366  13.5388
    13.8999  14.4606  14.6094  14.6094  14.6262  16.3706  16.3706  18.9035
    21.1524  24.1260  24.1261  28.1119  28.1868  31.2043  31.2043  32.2199
    32.2199  34.0785  35.2738  36.9413  39.3468  39.3468  40.0848  43.1596
    43.7358  44.7380  46.4657  46.4657  49.2569  49.2569  50.3581  50.5883
    50.9100  51.7009  52.3777  52.8623

          k = 0.0476 0.0952-0.1427 (  1254 PWs)   bands (ev):

     9.5561   9.5561  10.9791  10.9791  11.8822  11.8822  12.1222  12.1223
    12.4753  12.4753  12.6627  12.6627  13.2122  13.2122  13.3934  13.3934
    14.2190  14.2191  14.5173  14.5173  15.0669  15.0669  17.6060  17.6061
    22.1246  22.1246  25.8700  25.8701  29.5423  29.5424  33.1028  33.1029
    33.3290  33.3291  36.9249  36.9250  40.1290  40.1291  40.4762  40.4762
    45.1886  45.1887  45.6852  45.6852  47.6935  47.6936  50.6211  50.6212
    51.7391  51.7391  53.9916  53.9951

          k = 0.0476-0.1427-0.1427 (  1256 PWs)   bands (ev):

    10.3330  10.3330  10.3330  10.3330  12.2895  12.2895  12.2895  12.2896
    12.5094  12.5095  12.5095  12.5095  13.1567  13.1567  13.1567  13.1567
    14.2483  14.2484  14.2484  14.2484  15.9945  15.9945  15.9945  15.9945
    23.7161  23.7161  23.7161  23.7162  31.0623  31.0623  31.0623  31.0624
    38.2536  38.2536  38.2537  38.2537  38.3012  38.3014  38.3014  38.3015
    46.5956  46.5956  46.5956  46.5957  46.7929  46.7930  46.7931  46.7931
    54.8851  54.8852  54.8852  55.0975

          k = 0.0952 0.0952 0.0952 (  1253 PWs)   bands (ev):

     9.0003  10.5676  10.5676  10.5676  12.0780  12.0780  12.0780  12.5559
    12.7736  12.7736  12.7736  12.9006  12.9006  13.1740  13.1740  13.1740
    14.3404  14.3404  14.7521  14.7521  14.7521  16.6220  16.6220  16.6220
    21.7546  21.7546  21.7546  25.3819  32.5530  32.5531  32.5531  35.3128
    35.3129  35.3129  37.2938  37.2939  37.2939  37.6267  40.0460  40.0460
    44.4636  44.4636  47.7982  48.0235  48.0235  48.0235  48.1510  48.1510
    48.1510  52.4906  52.4906  52.4906

          k = 0.0952 0.0952-0.1427 (  1266 PWs)   bands (ev):

     9.8256   9.8256  10.5274  10.5274  12.2705  12.2705  12.5841  12.5842
    12.8315  12.8315  12.9344  12.9344  12.9771  12.9771  13.0414  13.0415
    14.6538  14.6538  14.6812  14.6812  14.8795  14.8795  16.8112  16.8112
    20.8241  20.8241  23.2634  23.2635  33.4300  33.4300  34.7209  34.7210
    36.2279  36.2281  37.3266  37.3266  39.0832  39.0833  39.4216  39.4217
    44.6882  44.6883  44.8896  44.8897  46.0347  46.0348  48.5202  48.5202
    49.6699  49.6700  53.0995  53.0995

          k = 0.0952-0.1427-0.1427 (  1268 PWs)   bands (ev):

    10.1397  10.1397  10.1397  10.1397  12.6179  12.6179  12.6179  12.6180
    12.8506  12.8506  12.8506  12.8507  13.2645  13.2646  13.2646  13.2646
    14.5910  14.5910  14.5910  14.5910  15.5035  15.5035  15.5036  15.5036
    21.4933  21.4933  21.4933  21.4934  35.1358  35.1359  35.1360  35.1360
    38.1955  38.1956  38.1957  38.1957  39.0174  39.0175  39.0175  39.0175
    44.1356  44.1357  44.1357  44.1358  45.1593  45.1594  45.1594  45.1594
    50.5220  50.5221  50.5221  50.5221

          k =-0.1427-0.1427-0.1427 (  1328 PWs)   bands (ev):

    10.0543  10.0543  10.0543  10.0543  12.7362  12.7362  12.7362  12.7362
    12.7362  12.7362  12.7362  12.7362  14.1968  14.1969  14.1969  14.1969
    14.7237  14.7238  14.7238  14.7238  14.7238  14.7238  14.7238  14.7238
    20.7017  20.7017  20.7017  20.7018  36.7720  36.7723  36.7723  36.7723
    39.6546  39.6546  39.6547  39.6547  39.6547  39.6548  39.6548  39.6548
    42.8428  42.8428  42.8428  42.8428  42.8428  42.8429  42.8429  42.8429
    48.8993  48.8993  48.8993  48.8993

          k =-0.0476-0.0000 0.0476 (  1269 PWs)   bands (ev):

     6.1033  10.3659  10.3660  10.5557  11.1121  11.1226  11.1226  12.6149
    12.9874  12.9919  13.7019  13.7433  13.7433  13.7553  13.9584  14.3559
    14.4820  14.4820  14.7529  14.7529  14.8236  16.7218  16.7218  18.9703
    24.1645  25.2344  26.4413  26.4413  28.3828  28.3828  28.9838  28.9838
    30.6730  36.1171  36.1467  37.1052  37.1052  37.3571  40.2423  40.2424
    41.1970  42.6998  43.5077  45.1833  46.4340  49.9568  50.3893  53.2777
    53.6453  55.3214  55.3214  56.2527

          k =-0.0476 0.0000 0.0952 (  1263 PWs)   bands (ev):

     7.1331   9.9688  10.8823  11.0006  11.3956  11.4283  11.4697  12.3023
    12.6796  12.8488  13.0426  13.0828  13.2631  13.5841  14.0062  14.0918
    14.1618  14.2481  14.2773  14.7500  14.7592  15.1495  18.3605  20.7918
    22.2845  24.8425  25.6613  26.6737  27.5327  29.7219  29.9703  30.0320
    31.1194  33.8085  34.5161  37.7287  38.6775  40.3486  40.5234  40.8763
    41.1259  44.1307  45.2464  47.1340  47.7160  48.5798  49.8865  51.2689
    52.9049  53.1787  55.0514  56.4718

          k =-0.0952-0.0000 0.0952 (  1276 PWs)   bands (ev):

     8.0832  10.6071  10.6071  11.3642  11.4465  11.6843  11.6843  12.2043
    12.3508  12.3508  12.5245  12.9219  13.4072  13.4805  13.7788  13.9178
    13.9178  14.2815  14.2815  14.4714  14.5483  16.2918  16.2918  19.6127
    22.3338  25.3636  26.9496  26.9496  28.0034  28.0034  31.1223  31.7362
    31.7362  31.8105  33.6634  36.8811  41.4710  41.8700  41.8700  43.1186
    43.3018  43.8222  43.8223  47.3199  47.3689  48.5299  48.5299  51.7437
    52.0762  52.1412  53.4175  55.2623

          k = 0.0476-0.0476 0.0476 (  1274 PWs)   bands (ev):

     6.4520  10.5539  10.5539  10.5539  11.2138  11.2138  11.2138  12.5599
    13.0124  13.0125  13.4019  13.4019  13.4019  13.8708  13.8708  14.1628
    14.1628  14.1628  14.8241  14.8241  14.8241  17.3755  17.3755  17.3756
    25.4627  25.4627  25.4628  26.7711  26.7712  26.7712  31.1992  31.1993
    31.1993  33.5555  36.2688  36.2689  36.2689  39.1033  41.1985  41.1986
    42.9038  42.9039  42.9040  46.5129  47.6138  47.6139  51.8211  51.8212
    55.1906  55.1907  55.1907  55.4615

          k = 0.0476-0.0476 0.0952 (  1265 PWs)   bands (ev):

     7.4493  10.1676  11.0135  11.0135  11.4554  11.4554  11.5112  12.3126
    12.6810  12.6810  12.8465  13.0440  13.1341  13.7756  13.8100  13.8726
    13.8727  14.1464  14.7120  14.7417  14.7417  15.4326  18.7039  18.7039
    22.9223  22.9223  26.7693  27.3981  27.3981  30.4393  30.4394  30.8656
    31.0414  32.7038  36.7274  37.6887  37.9353  38.8283  38.8284  42.3762
    43.5922  44.4952  47.0738  47.0739  47.9340  49.0374  50.1984  50.1985
    50.7123  52.9555  53.0470  55.7844

          k =-0.0952 0.0476 0.0476 (  1265 PWs)   bands (ev):

     7.4493  10.1676  11.0135  11.0135  11.4554  11.4554  11.5112  12.3126
    12.6810  12.6810  12.8465  13.0440  13.1341  13.7756  13.8100  13.8726
    13.8727  14.1464  14.7120  14.7417  14.7417  15.4326  18.7039  18.7039
    22.9222  22.9223  26.7694  27.3981  27.3981  30.4394  30.4394  30.8657
    31.0414  32.7037  36.7273  37.6887  37.9352  38.8283  38.8284  42.3762
    43.5922  44.4954  47.0738  47.0738  47.9340  49.0373  50.1984  50.1984
    50.7123  52.9554  53.0469  55.7843

          k = 0.0476-0.0476-0.1427 (  1250 PWs)   bands (ev):

     8.8914   8.8915  11.4413  11.4413  11.5087  11.5088  11.9216  11.9216
    12.2986  12.2986  12.8266  12.8266  13.3977  13.3977  13.6817  13.6818
    14.2983  14.2983  14.4614  14.4614  14.6940  14.6940  19.7832  19.7832
    21.4548  21.4548  28.3281  28.3282  28.5942  28.5942  29.0481  29.0482
    35.0148  35.0148  35.3952  35.3953  38.1798  38.1799  42.1931  42.1932
    44.8518  44.8519  45.3671  45.3672  49.4096  49.4097  50.8624  50.8624
    52.2282  52.2284  53.8745  53.8746

          k = 0.0952-0.0476 0.0952 (  1245 PWs)   bands (ev):

     8.3353  10.6156  10.6156  11.1275  11.6214  11.7623  11.7623  12.2887
    12.4947  12.4947  12.6198  12.9335  13.0829  13.5366  13.5366  13.5388
    13.8999  14.4606  14.6094  14.6094  14.6262  16.3706  16.3706  18.9035
    21.1525  24.1260  24.1260  28.1118  28.1867  31.2043  31.2043  32.2198
    32.2199  34.0785  35.2739  36.9413  39.3469  39.3469  40.0848  43.1596
    43.7358  44.7380  46.4656  46.4657  49.2568  49.2568  50.3580  50.5882
    50.9101  51.7008  52.3777  52.8622

          k =-0.0952 0.0476 0.0952 (  1245 PWs)   bands (ev):

     8.3353  10.6156  10.6156  11.1275  11.6214  11.7623  11.7623  12.2887
    12.4947  12.4948  12.6197  12.9335  13.0829  13.5366  13.5366  13.5388
    13.8999  14.4606  14.6094  14.6094  14.6262  16.3706  16.3706  18.9035
    21.1524  24.1260  24.1261  28.1118  28.1867  31.2042  31.2043  32.2198
    32.2199  34.0786  35.2738  36.9414  39.3468  39.3469  40.0848  43.1597
    43.7359  44.7380  46.4656  46.4656  49.2568  49.2568  50.3580  50.5883
    50.9100  51.7009  52.3776  52.8622

          k = 0.0952-0.0476-0.1427 (  1254 PWs)   bands (ev):

     9.5561   9.5561  10.9791  10.9791  11.8822  11.8822  12.1222  12.1223
    12.4753  12.4753  12.6627  12.6627  13.2122  13.2122  13.3934  13.3934
    14.2190  14.2190  14.5173  14.5173  15.0669  15.0669  17.6060  17.6061
    22.1246  22.1247  25.8700  25.8700  29.5423  29.5424  33.1029  33.1030
    33.3290  33.3290  36.9249  36.9250  40.1290  40.1291  40.4762  40.4763
    45.1886  45.1887  45.6852  45.6853  47.6935  47.6935  50.6211  50.6211
    51.7390  51.7391  53.9916  53.9950

          k = 0.0952-0.0952 0.0952 (  1253 PWs)   bands (ev):

     9.0003  10.5676  10.5676  10.5676  12.0780  12.0780  12.0780  12.5559
    12.7736  12.7736  12.7736  12.9006  12.9006  13.1740  13.1740  13.1740
    14.3404  14.3404  14.7521  14.7521  14.7521  16.6220  16.6220  16.6220
    21.7546  21.7546  21.7547  25.3819  32.5530  32.5530  32.5531  35.3128
    35.3129  35.3130  37.2938  37.2939  37.2940  37.6267  40.0461  40.0462
    44.4636  44.4636  47.7983  48.0234  48.0235  48.0235  48.1509  48.1510
    48.1510  52.4904  52.4904  52.4905

          k = 0.0952-0.0952-0.1427 (  1266 PWs)   bands (ev):

     9.8256   9.8256  10.5274  10.5274  12.2705  12.2705  12.5841  12.5842
    12.8315  12.8315  12.9344  12.9344  12.9771  12.9771  13.0414  13.0415
    14.6538  14.6538  14.6812  14.6812  14.8795  14.8795  16.8112  16.8112
    20.8241  20.8241  23.2634  23.2634  33.4299  33.4300  34.7209  34.7209
    36.2280  36.2281  37.3267  37.3267  39.0832  39.0833  39.4216  39.4217
    44.6882  44.6883  44.8896  44.8897  46.0348  46.0348  48.5201  48.5202
    49.6699  49.6699  53.0994  53.0995

     the Fermi energy is    14.4967 ev

!    total energy              =    -343.63010434 Ry
     Harris-Foulkes estimate   =    -343.63010433 Ry
     estimated scf accuracy    <          2.1E-12 Ry

     The total energy is the sum of the following terms:

     one-electron contribution =      -6.35212014 Ry
     hartree contribution      =      60.33929033 Ry
     xc contribution           =    -120.51473806 Ry
     ewald contribution        =    -277.05410321 Ry
     Dispersion Correction     =      -0.04785812 Ry
     smearing contrib. (-TS)   =      -0.00057513 Ry

     total magnetization       =     2.84 Bohr mag/cell
     absolute magnetization    =     3.25 Bohr mag/cell

     convergence has been achieved in  11 iterations

     Forces acting on atoms (Ry/au):

     atom    1 type  1   force =     0.00000468    0.00000468   -0.00000494
     atom    2 type  1   force =    -0.00000442   -0.00000442   -0.00000442
     atom    3 type  1   force =     0.00000468   -0.00000494    0.00000468
     atom    4 type  1   force =    -0.00000494    0.00000468    0.00000468

     Total force =     0.000016     Total SCF correction =     0.000003
     SCF correction compared to forces is large: reduce conv_thr to get better values


     entering subroutine stress ...

          total   stress  (Ry/bohr**3)                   (kbar)     P=    0.06
   0.00000041   0.00000002   0.00000002          0.06      0.00      0.00
   0.00000002   0.00000041   0.00000002          0.00      0.06      0.00
   0.00000002   0.00000002   0.00000041          0.00      0.00      0.06


     bfgs converged in   5 scf cycles and   4 bfgs steps
     (criteria: energy <  1.0E-04, force <  1.0E-03, cell <  5.0E-01)

     End of BFGS Geometry Optimization

     Final enthalpy =    -343.6301043351 Ry
Begin final coordinates
     new unit-cell volume =    290.04477 a.u.^3 (    42.98020 Ang^3 )

CELL_PARAMETERS (alat=  1.88972590)
   3.502860683  -0.000003205  -0.000003205
  -0.000003205   3.502860683  -0.000003205
  -0.000003205  -0.000003205   3.502860683

ATOMIC_POSITIONS (alat)
Ni1      1.755321382   1.755321382   0.003880928
Ni1      0.003882365   0.003882365   0.003882365
Ni1      1.755321382   0.003880928   1.755321382
Ni1      0.003880928   1.755321382   1.755321382
End final coordinates



     A final scf calculation at the relaxed structure.
     The G-vectors are recalculated for the final unit cell
     Results may differ from those at the preceding step.

     G-vector sticks info
     --------------------
     sticks:   dense  smooth     PW     G-vecs:    dense   smooth      PW
     Sum        1389     553    177                39127     9843    1791

     Generating pointlists ...

     Title: 
     Ni-ferro-mag                                                               


     bravais-lattice index     =            0
     lattice parameter (alat)  =       1.8897  a.u.
     unit-cell volume          =     290.0448 (a.u.)^3
     number of atoms/cell      =            4
     number of atomic types    =            1
     number of electrons       =        40.00
     number of Kohn-Sham states=           52
     kinetic-energy cutoff     =      40.0000  Ry
     charge density cutoff     =     400.0000  Ry
     convergence threshold     =      1.0E-10
     mixing beta               =       0.2000
     number of iterations used =            8  plain     mixing
     Exchange-correlation      =  SLA  PW   PBE  PBE ( 1  4  3  4 0 0)

     celldm(1)=   1.889726  celldm(2)=   0.000000  celldm(3)=   0.000000
     celldm(4)=   0.000000  celldm(5)=   0.000000  celldm(6)=   0.000000

     crystal axes: (cart. coord. in units of alat)
               a(1) = (   3.502861  -0.000003  -0.000003 )  
               a(2) = (  -0.000003   3.502861  -0.000003 )  
               a(3) = (  -0.000003  -0.000003   3.502861 )  

     reciprocal axes: (cart. coord. in units 2 pi/alat)
               b(1) = (  0.285481  0.000000  0.000000 )  
               b(2) = (  0.000000  0.285481  0.000000 )  
               b(3) = (  0.000000  0.000000  0.285481 )  


     PseudoPot. # 1 for Ni read from file:
     /home/eliot/pseudo/Ni.pbe-nd-rrkjus.UPF
     MD5 check sum: 8081f0a005c9a5470caab1a58e82ecb2
     Pseudo is Ultrasoft + core correction, Zval = 10.0
     Generated by new atomic code, or converted to UPF format
     Using radial grid of 1203 points,  6 beta functions with: 
                l(1) =   0
                l(2) =   0
                l(3) =   1
                l(4) =   1
                l(5) =   2
                l(6) =   2
     Q(r) pseudized with 0 coefficients 


     atomic species   valence    mass     pseudopotential
        Ni1           10.00    58.69340     Ni( 1.00)

     Starting magnetic structure 
     atomic species   magnetization
        Ni1          0.500

      6 Sym. Ops. (no inversion) found



   Cartesian axes

     site n.     atom                  positions (alat units)
         1           Ni1 tau(   1) = (   1.7553214   1.7553214   0.0038809  )
         2           Ni1 tau(   2) = (   0.0038824   0.0038824   0.0038824  )
         3           Ni1 tau(   3) = (   1.7553214   0.0038809   1.7553214  )
         4           Ni1 tau(   4) = (   0.0038809   1.7553214   1.7553214  )

     number of k points=    32  Methfessel-Paxton smearing, width (Ry)=  0.0500
                       cart. coord. in units 2pi/alat
        k(    1) = (   0.0000000   0.0000000   0.0000000), wk =   0.0046296
        k(    2) = (   0.0000000   0.0000000   0.0475802), wk =   0.0277778
        k(    3) = (   0.0000001   0.0000001   0.0951603), wk =   0.0277778
        k(    4) = (  -0.0000001  -0.0000001  -0.1427405), wk =   0.0138889
        k(    5) = (   0.0000001   0.0475802   0.0475802), wk =   0.0277778
        k(    6) = (   0.0000001   0.0475802   0.0951604), wk =   0.0555556
        k(    7) = (  -0.0000001   0.0475800  -0.1427404), wk =   0.0555556
        k(    8) = (   0.0000002   0.0951604   0.0951604), wk =   0.0277778
        k(    9) = (  -0.0000000   0.0951602  -0.1427404), wk =   0.0555556
        k(   10) = (  -0.0000003  -0.1427406  -0.1427406), wk =   0.0138889
        k(   11) = (   0.0475802   0.0475802   0.0475802), wk =   0.0092593
        k(   12) = (   0.0475803   0.0475803   0.0951604), wk =   0.0277778
        k(   13) = (   0.0475801   0.0475801  -0.1427404), wk =   0.0277778
        k(   14) = (   0.0475803   0.0951604   0.0951604), wk =   0.0277778
        k(   15) = (   0.0475801   0.0951602  -0.1427403), wk =   0.0555556
        k(   16) = (   0.0475799  -0.1427406  -0.1427406), wk =   0.0277778
        k(   17) = (   0.0951605   0.0951605   0.0951605), wk =   0.0092593
        k(   18) = (   0.0951603   0.0951603  -0.1427403), wk =   0.0277778
        k(   19) = (   0.0951601  -0.1427405  -0.1427405), wk =   0.0277778
        k(   20) = (  -0.1427407  -0.1427407  -0.1427407), wk =   0.0046296
        k(   21) = (  -0.0475801  -0.0000000   0.0475801), wk =   0.0277778
        k(   22) = (  -0.0475801   0.0000000   0.0951603), wk =   0.0555556
        k(   23) = (  -0.0951602  -0.0000000   0.0951602), wk =   0.0277778
        k(   24) = (   0.0475802  -0.0475801   0.0475802), wk =   0.0277778
        k(   25) = (   0.0475802  -0.0475800   0.0951603), wk =   0.0555556
        k(   26) = (  -0.0951602   0.0475801   0.0475801), wk =   0.0277778
        k(   27) = (   0.0475800  -0.0475802  -0.1427405), wk =   0.0277778
        k(   28) = (   0.0951604  -0.0475800   0.0951604), wk =   0.0277778
        k(   29) = (  -0.0951602   0.0475802   0.0951603), wk =   0.0555556
        k(   30) = (   0.0951601  -0.0475802  -0.1427404), wk =   0.0555556
        k(   31) = (   0.0951603  -0.0951601   0.0951603), wk =   0.0277778
        k(   32) = (   0.0951601  -0.0951604  -0.1427405), wk =   0.0277778

     Dense  grid:    39127 G-vectors     FFT dimensions: (  45,  45,  45)

     Smooth grid:     9843 G-vectors     FFT dimensions: (  27,  27,  27)

     Largest allocated arrays     est. size (Mb)     dimensions
        Kohn-Sham Wavefunctions         1.00 Mb     (    1261,   52)
        NL pseudopotentials             1.39 Mb     (    1261,   72)
        Each V/rho on FFT grid          2.78 Mb     (   91125,   2)
        Each G-vector array             0.30 Mb     (   39127)
        G-vector shells                 0.02 Mb     (    2639)
     Largest temporary arrays     est. size (Mb)     dimensions
        Auxiliary wavefunctions         4.00 Mb     (    1261,  208)
        Each subspace H/S matrix        0.66 Mb     (     208,  208)
        Each <psi_i|beta_j> matrix      0.06 Mb     (      72,   52)
        Arrays for rho mixing          11.12 Mb     (   91125,    8)

     Check: negative/imaginary core charge=   -0.000005    0.000000

     Initial potential from superposition of free atoms

     starting charge   39.99816, renormalised to   40.00000
     Starting wfc are   24 randomized atomic wfcs +   28 random wfc

     Writing output data file Ni-ferromag.save

     total cpu time spent up to now is     1494.4 secs

     Self-consistent Calculation

     iteration #  1     ecut=    40.00 Ry     beta=0.20
     Davidson diagonalization with overlap
     c_bands:  1 eigenvalues not converged
     ethr =  1.00E-06,  avg # of iterations = 12.5

     total cpu time spent up to now is     1592.7 secs

     total energy              =    -342.90480723 Ry
     Harris-Foulkes estimate   =    -343.17806814 Ry
     estimated scf accuracy    <       2.41783170 Ry

     total magnetization       =     6.87 Bohr mag/cell
     absolute magnetization    =     6.88 Bohr mag/cell

     iteration #  2     ecut=    40.00 Ry     beta=0.20
     Davidson diagonalization with overlap
     ethr =  6.04E-03,  avg # of iterations =  1.0

     total cpu time spent up to now is     1612.8 secs

     total energy              =    -343.20649027 Ry
     Harris-Foulkes estimate   =    -343.03963607 Ry
     estimated scf accuracy    <       0.78025338 Ry

     total magnetization       =     5.74 Bohr mag/cell
     absolute magnetization    =     5.83 Bohr mag/cell

     iteration #  3     ecut=    40.00 Ry     beta=0.20
     Davidson diagonalization with overlap
     ethr =  1.95E-03,  avg # of iterations =  1.3

     total cpu time spent up to now is     1633.2 secs

     total energy              =    -343.53792790 Ry
     Harris-Foulkes estimate   =    -343.28041116 Ry
     estimated scf accuracy    <       0.35884676 Ry

     total magnetization       =     4.50 Bohr mag/cell
     absolute magnetization    =     4.82 Bohr mag/cell

     iteration #  4     ecut=    40.00 Ry     beta=0.20
     Davidson diagonalization with overlap
     ethr =  8.97E-04,  avg # of iterations =  1.3

     total cpu time spent up to now is     1653.6 secs

     total energy              =    -343.62305761 Ry
     Harris-Foulkes estimate   =    -343.65146511 Ry
     estimated scf accuracy    <       0.11886941 Ry

     total magnetization       =     2.59 Bohr mag/cell
     absolute magnetization    =     3.20 Bohr mag/cell

     iteration #  5     ecut=    40.00 Ry     beta=0.20
     Davidson diagonalization with overlap
     ethr =  2.97E-04,  avg # of iterations =  1.0

     total cpu time spent up to now is     1673.8 secs

     total energy              =    -343.62329219 Ry
     Harris-Foulkes estimate   =    -343.62992267 Ry
     estimated scf accuracy    <       0.02366398 Ry

     total magnetization       =     2.63 Bohr mag/cell
     absolute magnetization    =     3.23 Bohr mag/cell

     iteration #  6     ecut=    40.00 Ry     beta=0.20
     Davidson diagonalization with overlap
     ethr =  5.92E-05,  avg # of iterations =  2.2

     total cpu time spent up to now is     1695.1 secs

     total energy              =    -343.62622130 Ry
     Harris-Foulkes estimate   =    -343.62674809 Ry
     estimated scf accuracy    <       0.00100346 Ry

     total magnetization       =     2.69 Bohr mag/cell
     absolute magnetization    =     3.28 Bohr mag/cell

     iteration #  7     ecut=    40.00 Ry     beta=0.20
     Davidson diagonalization with overlap
     ethr =  2.51E-06,  avg # of iterations =  3.8

     total cpu time spent up to now is     1719.0 secs

     total energy              =    -343.62944569 Ry
     Harris-Foulkes estimate   =    -343.62817731 Ry
     estimated scf accuracy    <       0.00184778 Ry

     total magnetization       =     3.01 Bohr mag/cell
     absolute magnetization    =     3.48 Bohr mag/cell

     iteration #  8     ecut=    40.00 Ry     beta=0.20
     Davidson diagonalization with overlap
     ethr =  2.51E-06,  avg # of iterations =  1.0

     total cpu time spent up to now is     1739.1 secs

     total energy              =    -343.62985228 Ry
     Harris-Foulkes estimate   =    -343.62974768 Ry
     estimated scf accuracy    <       0.00014073 Ry

     total magnetization       =     2.90 Bohr mag/cell
     absolute magnetization    =     3.35 Bohr mag/cell

     iteration #  9     ecut=    40.00 Ry     beta=0.20
     Davidson diagonalization with overlap
     ethr =  3.52E-07,  avg # of iterations =  1.0

     total cpu time spent up to now is     1759.2 secs

     total energy              =    -343.62990706 Ry
     Harris-Foulkes estimate   =    -343.62985406 Ry
     estimated scf accuracy    <       0.00009898 Ry

     total magnetization       =     2.89 Bohr mag/cell
     absolute magnetization    =     3.34 Bohr mag/cell

     iteration # 10     ecut=    40.00 Ry     beta=0.20
     Davidson diagonalization with overlap
     ethr =  2.47E-07,  avg # of iterations =  1.0

     total cpu time spent up to now is     1779.4 secs

     total energy              =    -343.63002343 Ry
     Harris-Foulkes estimate   =    -343.62998517 Ry
     estimated scf accuracy    <       0.00000118 Ry

     total magnetization       =     2.84 Bohr mag/cell
     absolute magnetization    =     3.26 Bohr mag/cell

     iteration # 11     ecut=    40.00 Ry     beta=0.20
     Davidson diagonalization with overlap
     ethr =  2.96E-09,  avg # of iterations =  2.1

     total cpu time spent up to now is     1800.9 secs

     total energy              =    -343.63004713 Ry
     Harris-Foulkes estimate   =    -343.63002364 Ry
     estimated scf accuracy    <       0.00000046 Ry

     total magnetization       =     2.84 Bohr mag/cell
     absolute magnetization    =     3.26 Bohr mag/cell

     iteration # 12     ecut=    40.00 Ry     beta=0.20
     Davidson diagonalization with overlap
     ethr =  1.14E-09,  avg # of iterations =  1.0

     total cpu time spent up to now is     1821.0 secs

     total energy              =    -343.63006115 Ry
     Harris-Foulkes estimate   =    -343.63004726 Ry
     estimated scf accuracy    <       0.00000072 Ry

     total magnetization       =     2.84 Bohr mag/cell
     absolute magnetization    =     3.26 Bohr mag/cell

     iteration # 13     ecut=    40.00 Ry     beta=0.20
     Davidson diagonalization with overlap
     ethr =  1.14E-09,  avg # of iterations =  2.0

     total cpu time spent up to now is     1842.9 secs

     total energy              =    -343.63007158 Ry
     Harris-Foulkes estimate   =    -343.63006222 Ry
     estimated scf accuracy    <          9.3E-09 Ry

     total magnetization       =     2.84 Bohr mag/cell
     absolute magnetization    =     3.25 Bohr mag/cell

     iteration # 14     ecut=    40.00 Ry     beta=0.20
     Davidson diagonalization with overlap
     ethr =  2.33E-11,  avg # of iterations =  2.2

     total cpu time spent up to now is     1867.4 secs

     total energy              =    -343.63007815 Ry
     Harris-Foulkes estimate   =    -343.63007164 Ry
     estimated scf accuracy    <       0.00000009 Ry

     total magnetization       =     2.83 Bohr mag/cell
     absolute magnetization    =     3.25 Bohr mag/cell

     iteration # 15     ecut=    40.00 Ry     beta=0.20
     Davidson diagonalization with overlap
     ethr =  2.33E-11,  avg # of iterations =  2.0

     total cpu time spent up to now is     1892.0 secs

     total energy              =    -343.63008225 Ry
     Harris-Foulkes estimate   =    -343.63007827 Ry
     estimated scf accuracy    <          8.1E-10 Ry

     total magnetization       =     2.84 Bohr mag/cell
     absolute magnetization    =     3.25 Bohr mag/cell

     iteration # 16     ecut=    40.00 Ry     beta=0.20
     Davidson diagonalization with overlap
     ethr =  2.02E-12,  avg # of iterations =  1.6

     total cpu time spent up to now is     1912.6 secs

     total energy              =    -343.63008477 Ry
     Harris-Foulkes estimate   =    -343.63008225 Ry
     estimated scf accuracy    <          1.4E-09 Ry

     total magnetization       =     2.84 Bohr mag/cell
     absolute magnetization    =     3.25 Bohr mag/cell

     iteration # 17     ecut=    40.00 Ry     beta=0.20
     Davidson diagonalization with overlap
     ethr =  2.02E-12,  avg # of iterations =  2.0

     Magnetic moment per site:
     atom:    1    charge:    3.0535    magn:    0.3402    constr:    0.0000
     atom:    2    charge:    3.0514    magn:    0.3399    constr:    0.0000
     atom:    3    charge:    3.0535    magn:    0.3402    constr:    0.0000
     atom:    4    charge:    3.0535    magn:    0.3402    constr:    0.0000

     total cpu time spent up to now is     1934.2 secs

     End of self-consistent calculation

 ------ SPIN UP ------------


          k = 0.0000 0.0000 0.0000 (  1237 PWs)   bands (ev):

     5.4331   9.7173   9.7173   9.7173  10.1706  10.1706  10.1706  11.9501
    11.9501  11.9501  13.1292  13.1292  13.8472  13.8472  13.8472  13.9373
    13.9373  13.9373  13.9373  13.9373  13.9373  17.0757  17.0757  17.0757
    23.8160  23.8161  23.8161  29.5737  29.5737  29.5737  29.5738  29.5738
    29.5738  34.6536  34.6536  34.6536  37.9993  37.9994  37.9994  38.5012
    42.4791  42.4791  42.4793  46.0805  46.0805  46.0806  48.1817  55.1785
    55.1785  55.1785  57.6259  59.0658

          k = 0.0000 0.0000 0.0476 (  1261 PWs)   bands (ev):

     5.7994   9.7394   9.9015   9.9015  10.2811  10.2970  10.2970  11.8213
    12.0525  12.0525  13.0113  13.1759  13.2830  13.2830  13.6938  13.6938
    13.7612  13.7612  13.7977  13.9375  13.9375  15.4748  18.0346  18.0346
    23.9119  23.9119  26.0654  27.8220  27.8220  28.4503  28.4504  30.1341
    30.1342  34.7696  36.8262  36.8262  37.8660  38.1312  39.9568  39.9568
    40.2578  40.2579  40.9236  47.5001  48.1362  48.1363  49.1586  51.5676
    56.2752  56.2752  56.6824  56.6824

          k = 0.0000 0.0000 0.0952 (  1233 PWs)   bands (ev):

     6.8489   9.5101  10.3386  10.3386  10.5889  10.6803  10.6803  11.4772
    12.2269  12.2269  12.3492  12.3492  12.7233  13.3046  13.3104  13.3152
    13.3152  13.3224  13.3224  13.6635  13.9381  13.9381  19.9975  19.9975
    24.2290  24.2290  25.0482  25.0482  26.6824  26.6824  30.3654  31.7137
    31.7138  35.1327  36.7340  37.0367  37.0368  38.3557  38.6832  40.8707
    40.8707  44.1214  44.1215  44.1545  50.9356  51.0559  51.0560  51.0591
    51.0591  55.0455  55.9553  55.9553

          k =-0.0000-0.0000-0.1427 (  1238 PWs)   bands (ev):

     8.3483   8.3484  10.6147  10.6147  11.0239  11.0239  11.3271  11.3271
    11.3271  11.3271  12.5461  12.5462  12.8014  12.8014  12.8015  12.8015
    13.0665  13.0665  13.4826  13.4826  13.9383  13.9383  22.3835  22.3835
    22.3835  22.3835  24.6019  24.6019  25.7372  25.7372  34.0921  34.0921
    34.0922  34.0922  34.9152  34.9154  35.7799  35.7800  40.2774  40.2775
    45.6721  45.6721  45.6722  45.6722  47.6273  47.6273  52.3028  52.3029
    54.1836  54.1837  54.1838  54.1838

          k = 0.0000 0.0476 0.0476 (  1261 PWs)   bands (ev):

     6.1570   9.9378   9.9378  10.0647  10.3985  10.3985  10.4124  11.7614
    12.0975  12.1146  12.9369  12.9867  12.9952  12.9952  13.1711  13.5650
    13.6896  13.6896  13.7599  13.7599  13.8214  16.4072  16.4072  18.8046
    23.9059  25.1048  26.2526  26.2526  28.2998  28.2998  28.9427  28.9427
    30.6619  36.0427  36.1255  37.0347  37.0347  37.3397  40.1244  40.1244
    41.2778  42.6124  43.5386  45.2397  46.3734  49.7979  50.4640  53.1058
    53.6789  55.3596  55.3596  56.3124

          k = 0.0000 0.0476 0.0952 (  1231 PWs)   bands (ev):

     7.1787   9.7463  10.4200  10.4685  10.6804  10.7336  10.7528  11.4802
    11.9882  12.1280  12.2434  12.3609  12.3863  12.8196  13.2411  13.3198
    13.3265  13.3502  13.5026  13.7566  13.7627  14.4403  18.0218  20.5877
    22.0860  24.6145  25.5096  26.5389  27.4075  29.6134  29.9085  29.9614
    31.0220  33.7306  34.4737  37.6869  38.6396  40.3970  40.5759  40.7564
    41.1264  44.0485  45.0417  47.0677  47.7935  48.5973  49.9026  51.3438
    52.9495  53.2695  54.8315  57.1074

          k =-0.0000 0.0476-0.1427 (  1240 PWs)   bands (ev):

     8.6298   8.6299  10.7673  10.7673  11.0757  11.0757  11.1947  11.1947
    11.3416  11.3416  12.1726  12.1726  12.8023  12.8023  13.0317  13.0317
    13.0515  13.0515  13.6662  13.6662  13.7542  13.7542  19.8906  19.8906
    22.8828  22.8829  25.4179  25.4180  28.3156  28.3156  31.5035  31.5035
    32.0269  32.0270  35.8358  35.8359  38.8357  38.8357  42.2216  42.2217
    43.1224  43.1225  45.9482  45.9483  50.0919  50.0920  50.3633  50.3634
    52.6218  52.6219  53.2155  53.2156

          k = 0.0000 0.0952 0.0952 (  1242 PWs)   bands (ev):

     8.1054  10.3339  10.3339  10.7000  10.9486  10.9486  10.9623  11.4103
    11.6575  11.6575  11.8122  12.1306  12.4918  12.7334  13.0251  13.1803
    13.1803  13.3204  13.3204  13.4905  13.7059  15.6865  15.6865  19.3051
    22.1145  25.1652  26.7827  26.7827  27.9022  27.9022  30.9914  31.6475
    31.6475  31.7430  33.6108  36.8454  41.5345  41.8883  41.8883  43.0839
    43.4192  43.7798  43.7799  47.1985  47.3398  48.4851  48.4851  51.6843
    52.1864  52.1994  53.2142  55.3597

          k =-0.0000 0.0952-0.1427 (  1242 PWs)   bands (ev):

     9.3725   9.3725  10.8049  10.8049  11.2029  11.2029  11.2104  11.2104
    11.3602  11.3602  11.8666  11.8667  12.8389  12.8389  12.8397  12.8398
    12.9058  12.9058  13.3554  13.3554  14.3675  14.3675  17.2180  17.2181
    24.2390  24.2390  26.2331  26.2331  28.6586  28.6586  29.5443  29.5443
    32.9561  32.9562  36.7982  36.7983  40.3723  40.3724  43.0575  43.0575
    43.2248  43.2248  46.7486  46.7487  47.9341  47.9342  50.4368  50.4369
    51.7731  51.7732  53.5719  53.5720

          k =-0.0000-0.1427-0.1427 (  1228 PWs)   bands (ev):

    10.2257  10.2257  10.2257  10.2258  11.3222  11.3222  11.3222  11.3222
    11.6314  11.6314  11.6314  11.6314  12.6928  12.6928  12.6928  12.6928
    13.0070  13.0070  13.0070  13.0070  15.4380  15.4380  15.4380  15.4380
    26.2136  26.2136  26.2136  26.2137  27.5849  27.5849  27.5849  27.5850
    37.9008  37.9008  37.9009  37.9009  38.5070  38.5070  38.5071  38.5071
    47.1862  47.1862  47.1863  47.1863  49.1996  49.1997  49.1997  49.1998
    51.8290  51.8291  51.8291  51.8292

          k = 0.0476 0.0476 0.0476 (  1244 PWs)   bands (ev):

     6.5028  10.0988  10.0988  10.0988  10.5131  10.5131  10.5131  11.7264
    12.1342  12.1342  12.6912  12.6912  12.6912  13.0844  13.0844  13.3316
    13.3316  13.3316  13.8756  13.8756  13.8756  17.0345  17.0345  17.0345
    25.3312  25.3312  25.3312  26.5979  26.5979  26.5979  31.1773  31.1773
    31.1773  33.4891  36.1739  36.1740  36.1740  39.2588  41.1460  41.1460
    42.8198  42.8199  42.8199  46.6002  47.6568  47.6568  51.6544  51.6544
    55.1247  55.2375  55.2375  55.2375

          k = 0.0476 0.0476 0.0952 (  1235 PWs)   bands (ev):

     7.4844   9.9050  10.4820  10.4820  10.7988  10.8269  10.8269  11.5169
    11.9786  11.9786  12.1740  12.2135  12.2737  12.9293  12.9999  13.0857
    13.0857  13.3240  13.7783  13.7783  13.8106  14.8022  18.3770  18.3770
    22.7120  22.7120  26.6252  27.2491  27.2491  30.3645  30.3645  30.7516
    30.9540  32.6572  36.6529  37.7829  37.8581  38.7980  38.7981  42.3686
    43.5120  44.4778  47.0297  47.0298  47.8920  49.0916  50.2097  50.2098
    50.7053  53.0262  53.0869  55.6693

          k = 0.0476 0.0476-0.1427 (  1250 PWs)   bands (ev):

     8.8569   8.8569  10.8694  10.8694  10.9272  10.9272  11.1706  11.1707
    11.5846  11.5846  12.0768  12.0768  12.5469  12.5469  12.9179  12.9179
    13.4935  13.4935  13.6001  13.6001  13.7222  13.7222  19.5258  19.5258
    21.1508  21.1508  28.2132  28.2133  28.4523  28.4524  28.9335  28.9335
    34.9453  34.9454  35.4220  35.4221  38.1026  38.1026  42.2118  42.2118
    44.7649  44.7650  45.3782  45.3782  49.4891  49.4892  50.9081  50.9081
    52.1948  52.1949  54.0273  54.0274

          k = 0.0476 0.0952 0.0952 (  1237 PWs)   bands (ev):

     8.3233  10.2228  10.2228  10.5090  11.1144  11.1604  11.1604  11.5620
    11.7746  11.7746  11.9079  12.1327  12.2586  12.7371  12.7371  12.7535
    13.0564  13.6115  13.6809  13.6961  13.6961  15.8172  15.8172  18.6287
    20.8085  23.9090  23.9090  27.9500  28.0591  31.1405  31.1406  32.1273
    32.1273  34.0238  35.2483  36.9161  39.3321  39.3321  40.1611  43.0459
    43.7442  44.7922  46.4717  46.4717  49.2021  49.2021  50.4265  50.6047
    50.9337  51.6283  52.3119  52.9353

          k = 0.0476 0.0952-0.1427 (  1242 PWs)   bands (ev):

     9.4067   9.4067  10.4441  10.4442  11.3279  11.3279  11.4761  11.4762
    11.7815  11.7815  11.9023  11.9023  12.4080  12.4080  12.6188  12.6188
    13.3537  13.3537  13.5814  13.5814  14.2738  14.2738  17.1949  17.1950
    21.8244  21.8244  25.6700  25.6700  29.4418  29.4418  33.0461  33.0462
    33.2600  33.2600  36.9119  36.9120  40.1448  40.1448  40.4536  40.4536
    45.2015  45.2015  45.6935  45.6935  47.7126  47.7127  50.5829  50.5830
    51.7997  51.7998  53.9148  53.9149

          k = 0.0476-0.1427-0.1427 (  1232 PWs)   bands (ev):

     9.9761   9.9761   9.9761   9.9761  11.7192  11.7192  11.7192  11.7192
    11.8062  11.8063  11.8063  11.8063  12.3794  12.3794  12.3794  12.3795
    13.3362  13.3363  13.3363  13.3363  15.3488  15.3488  15.3488  15.3488
    23.4584  23.4584  23.4584  23.4585  30.9796  30.9796  30.9797  30.9797
    38.1813  38.1813  38.1814  38.1814  38.3505  38.3505  38.3506  38.3506
    46.6640  46.6640  46.6640  46.6641  46.7674  46.7675  46.7675  46.7675
    54.8207  54.8208  54.8208  54.8209

          k = 0.0952 0.0952 0.0952 (  1229 PWs)   bands (ev):

     8.8672  10.0579  10.0579  10.0579  11.5190  11.5190  11.5190  12.0331
    12.0940  12.0940  12.0940  12.0995  12.0995  12.3828  12.3828  12.3828
    13.4593  13.4593  13.8243  13.8243  13.8243  16.1954  16.1954  16.1954
    21.4160  21.4160  21.4160  25.1565  32.5067  32.5067  32.5067  35.2514
    35.2514  35.2514  37.2812  37.2812  37.2812  37.7977  39.9599  39.9599
    44.4543  44.4543  47.7830  48.0752  48.0752  48.0752  48.1497  48.1497
    48.1497  52.4594  52.4594  52.4594

          k = 0.0952 0.0952-0.1427 (  1232 PWs)   bands (ev):

     9.4933   9.4934   9.9893   9.9893  11.6389  11.6389  11.9255  11.9255
    12.1423  12.1423  12.2627  12.2627  12.2772  12.2772  12.3773  12.3773
    13.7448  13.7448  13.7527  13.7527  14.1637  14.1637  16.4795  16.4796
    20.3870  20.3870  22.9740  22.9740  33.4222  33.4222  34.6349  34.6349
    36.3367  36.3368  37.2541  37.2542  39.0029  39.0030  39.4470  39.4470
    44.6619  44.6619  44.9125  44.9126  46.0264  46.0265  48.5605  48.5605
    49.6165  49.6166  52.9906  52.9906

          k = 0.0952-0.1427-0.1427 (  1244 PWs)   bands (ev):

     9.6690   9.6690   9.6690   9.6690  11.8850  11.8850  11.8850  11.8850
    12.0748  12.0748  12.0748  12.0748  12.8243  12.8243  12.8243  12.8243
    13.6728  13.6728  13.6728  13.6728  14.9719  14.9719  14.9719  14.9719
    21.1005  21.1005  21.1006  21.1006  35.1619  35.1620  35.1620  35.1620
    38.2264  38.2265  38.2265  38.2265  38.9482  38.9482  38.9483  38.9483
    44.1037  44.1037  44.1038  44.1038  45.1667  45.1668  45.1668  45.1668
    50.4316  50.4317  50.4317  50.4317

          k =-0.1427-0.1427-0.1427 (  1208 PWs)   bands (ev):

     9.5530   9.5530   9.5530   9.5530  11.9632  11.9632  11.9632  11.9632
    11.9632  11.9632  11.9632  11.9632  13.8003  13.8003  13.8003  13.8003
    13.8003  13.8003  13.8003  13.8003  14.2962  14.2962  14.2962  14.2962
    20.2194  20.2194  20.2194  20.2195  36.9562  36.9564  36.9564  36.9564
    39.5845  39.5845  39.5845  39.5845  39.5845  39.5846  39.5846  39.5846
    42.8127  42.8127  42.8128  42.8128  42.8128  42.8128  42.8128  42.8128
    48.7858  48.7858  48.7858  48.7858

          k =-0.0476-0.0000 0.0476 (  1261 PWs)   bands (ev):

     6.1570   9.9378   9.9378  10.0647  10.3985  10.3985  10.4124  11.7614
    12.0975  12.1145  12.9369  12.9867  12.9952  12.9952  13.1711  13.5650
    13.6896  13.6896  13.7599  13.7599  13.8214  16.4072  16.4072  18.8046
    23.9058  25.1047  26.2526  26.2526  28.2998  28.2999  28.9427  28.9427
    30.6620  36.0427  36.1255  37.0346  37.0346  37.3396  40.1244  40.1244
    41.2778  42.6123  43.5387  45.2398  46.3735  49.7980  50.4639  53.1058
    53.6788  55.3595  55.3595  56.3124

          k =-0.0476 0.0000 0.0952 (  1231 PWs)   bands (ev):

     7.1787   9.7463  10.4200  10.4685  10.6804  10.7336  10.7528  11.4802
    11.9882  12.1280  12.2434  12.3609  12.3863  12.8196  13.2411  13.3198
    13.3265  13.3502  13.5026  13.7566  13.7627  14.4403  18.0218  20.5877
    22.0860  24.6145  25.5096  26.5389  27.4075  29.6134  29.9086  29.9615
    31.0220  33.7305  34.4737  37.6868  38.6396  40.3971  40.5759  40.7564
    41.1264  44.0485  45.0418  47.0676  47.7936  48.5974  49.9025  51.3438
    52.9494  53.2694  54.8315  57.1073

          k =-0.0952-0.0000 0.0952 (  1242 PWs)   bands (ev):

     8.1054  10.3339  10.3339  10.7000  10.9486  10.9486  10.9622  11.4103
    11.6575  11.6575  11.8122  12.1306  12.4918  12.7334  13.0251  13.1803
    13.1803  13.3204  13.3204  13.4905  13.7059  15.6865  15.6865  19.3050
    22.1145  25.1652  26.7827  26.7827  27.9022  27.9022  30.9913  31.6474
    31.6475  31.7430  33.6109  36.8454  41.5345  41.8882  41.8882  43.0840
    43.4193  43.7798  43.7798  47.1986  47.3398  48.4850  48.4850  51.6842
    52.1865  52.1994  53.2143  55.3596

          k = 0.0476-0.0476 0.0476 (  1244 PWs)   bands (ev):

     6.5028  10.0988  10.0988  10.0988  10.5131  10.5131  10.5131  11.7264
    12.1342  12.1342  12.6912  12.6912  12.6912  13.0844  13.0844  13.3316
    13.3316  13.3316  13.8756  13.8756  13.8756  17.0345  17.0345  17.0345
    25.3312  25.3312  25.3313  26.5978  26.5979  26.5979  31.1773  31.1774
    31.1774  33.4890  36.1739  36.1740  36.1740  39.2588  41.1460  41.1461
    42.8197  42.8198  42.8198  46.6003  47.6568  47.6569  51.6544  51.6545
    55.1247  55.2374  55.2375  55.2375

          k = 0.0476-0.0476 0.0952 (  1235 PWs)   bands (ev):

     7.4844   9.9050  10.4820  10.4820  10.7988  10.8269  10.8269  11.5169
    11.9786  11.9786  12.1740  12.2134  12.2737  12.9293  13.0000  13.0856
    13.0857  13.3240  13.7783  13.7783  13.8106  14.8022  18.3770  18.3770
    22.7120  22.7121  26.6251  27.2491  27.2491  30.3645  30.3645  30.7515
    30.9540  32.6573  36.6529  37.7830  37.8582  38.7980  38.7981  42.3687
    43.5119  44.4778  47.0296  47.0297  47.8920  49.0917  50.2097  50.2098
    50.7053  53.0261  53.0869  55.6694

          k =-0.0952 0.0476 0.0476 (  1235 PWs)   bands (ev):

     7.4844   9.9050  10.4820  10.4820  10.7988  10.8269  10.8269  11.5169
    11.9786  11.9786  12.1740  12.2135  12.2737  12.9293  13.0000  13.0857
    13.0857  13.3240  13.7783  13.7783  13.8106  14.8022  18.3770  18.3770
    22.7120  22.7120  26.6252  27.2491  27.2491  30.3646  30.3646  30.7516
    30.9540  32.6572  36.6529  37.7829  37.8581  38.7981  38.7981  42.3687
    43.5119  44.4779  47.0296  47.0296  47.8920  49.0917  50.2097  50.2097
    50.7053  53.0261  53.0869  55.6693

          k = 0.0476-0.0476-0.1427 (  1250 PWs)   bands (ev):

     8.8569   8.8569  10.8694  10.8694  10.9272  10.9272  11.1706  11.1707
    11.5846  11.5846  12.0768  12.0768  12.5469  12.5470  12.9179  12.9179
    13.4935  13.4935  13.6001  13.6001  13.7222  13.7222  19.5258  19.5258
    21.1508  21.1509  28.2132  28.2133  28.4523  28.4523  28.9334  28.9335
    34.9454  34.9455  35.4220  35.4221  38.1026  38.1027  42.2117  42.2119
    44.7648  44.7649  45.3782  45.3782  49.4891  49.4892  50.9081  50.9082
    52.1948  52.1949  54.0273  54.0273

          k = 0.0952-0.0476 0.0952 (  1237 PWs)   bands (ev):

     8.3233  10.2228  10.2228  10.5090  11.1144  11.1604  11.1604  11.5620
    11.7746  11.7746  11.9079  12.1327  12.2586  12.7371  12.7371  12.7535
    13.0564  13.6115  13.6809  13.6961  13.6961  15.8172  15.8172  18.6288
    20.8086  23.9090  23.9090  27.9499  28.0590  31.1405  31.1406  32.1273
    32.1273  34.0238  35.2484  36.9161  39.3322  39.3322  40.1611  43.0460
    43.7442  44.7922  46.4717  46.4717  49.2020  49.2020  50.4264  50.6046
    50.9338  51.6282  52.3119  52.9353

          k =-0.0952 0.0476 0.0952 (  1237 PWs)   bands (ev):

     8.3233  10.2228  10.2228  10.5090  11.1144  11.1604  11.1604  11.5620
    11.7746  11.7746  11.9079  12.1326  12.2586  12.7371  12.7371  12.7535
    13.0564  13.6115  13.6809  13.6961  13.6961  15.8172  15.8172  18.6287
    20.8085  23.9090  23.9091  27.9499  28.0590  31.1405  31.1406  32.1272
    32.1273  34.0239  35.2483  36.9162  39.3321  39.3321  40.1611  43.0460
    43.7442  44.7923  46.4716  46.4716  49.2020  49.2020  50.4265  50.6047
    50.9337  51.6283  52.3118  52.9352

          k = 0.0952-0.0476-0.1427 (  1242 PWs)   bands (ev):

     9.4066   9.4067  10.4441  10.4441  11.3279  11.3279  11.4761  11.4761
    11.7815  11.7815  11.9023  11.9023  12.4080  12.4080  12.6188  12.6188
    13.3537  13.3537  13.5814  13.5814  14.2738  14.2738  17.1949  17.1950
    21.8244  21.8244  25.6699  25.6700  29.4418  29.4418  33.0462  33.0463
    33.2599  33.2600  36.9119  36.9120  40.1448  40.1449  40.4536  40.4537
    45.2015  45.2015  45.6934  45.6936  47.7126  47.7126  50.5828  50.5829
    51.7996  51.7997  53.9148  53.9149

          k = 0.0952-0.0952 0.0952 (  1229 PWs)   bands (ev):

     8.8672  10.0579  10.0579  10.0579  11.5190  11.5190  11.5190  12.0331
    12.0940  12.0940  12.0940  12.0995  12.0995  12.3828  12.3828  12.3828
    13.4593  13.4594  13.8243  13.8243  13.8243  16.1954  16.1954  16.1954
    21.4160  21.4160  21.4160  25.1565  32.5066  32.5067  32.5067  35.2514
    35.2515  35.2515  37.2812  37.2813  37.2813  37.7977  39.9599  39.9600
    44.4544  44.4544  47.7831  48.0751  48.0751  48.0752  48.1496  48.1497
    48.1497  52.4592  52.4592  52.4593

          k = 0.0952-0.0952-0.1427 (  1232 PWs)   bands (ev):

     9.4933   9.4934   9.9893   9.9893  11.6389  11.6389  11.9255  11.9255
    12.1423  12.1423  12.2627  12.2627  12.2772  12.2772  12.3773  12.3773
    13.7448  13.7448  13.7527  13.7527  14.1637  14.1637  16.4795  16.4796
    20.3870  20.3871  22.9739  22.9740  33.4222  33.4222  34.6348  34.6349
    36.3368  36.3369  37.2542  37.2543  39.0029  39.0030  39.4470  39.4471
    44.6618  44.6619  44.9125  44.9125  46.0265  46.0265  48.5604  48.5604
    49.6165  49.6166  52.9905  52.9905

 ------ SPIN DOWN ----------


          k = 0.0000 0.0000 0.0000 (  1237 PWs)   bands (ev):

     5.3785  10.1794  10.1794  10.1794  10.8889  10.8889  10.8889  12.8306
    12.8306  12.8306  13.9094  13.9094  14.6615  14.6615  14.6615  14.9468
    14.9468  14.9468  14.9468  14.9468  14.9468  16.9969  16.9969  16.9969
    24.1218  24.1218  24.1218  29.5599  29.5600  29.5600  29.5601  29.5601
    29.5601  34.8176  34.8176  34.8176  38.1429  38.1431  38.1431  38.2955
    42.4498  42.4498  42.4499  46.1528  46.1528  46.1529  48.0222  55.3677
    55.3677  55.3677  58.1492  59.6040

          k = 0.0000 0.0000 0.0476 (  1261 PWs)   bands (ev):

     5.7447  10.1550  10.3736  10.3737  11.0082  11.0127  11.0127  12.6886
    12.9371  12.9371  13.7819  13.9583  14.1031  14.1031  14.4944  14.4945
    14.6095  14.7541  14.7541  14.9471  14.9471  15.5449  18.1414  18.1414
    24.2025  24.2025  26.2673  27.8906  27.8906  28.4776  28.4777  30.1367
    30.1368  34.9211  36.9071  36.9071  37.7271  38.2724  40.0774  40.0775
    40.2996  40.2997  40.8536  47.5205  48.1099  48.1100  49.2303  51.5586
    56.4867  56.4867  56.6089  56.6089

          k = 0.0000 0.0000 0.0952 (  1233 PWs)   bands (ev):

     6.7985   9.7183  10.8352  10.8352  11.3414  11.3906  11.3906  12.3101
    12.9563  12.9563  13.2469  13.2470  13.4611  13.6809  14.0824  14.0824
    14.0929  14.2790  14.2790  14.4688  14.9477  14.9477  20.1827  20.1827
    24.4752  24.4752  25.1889  25.1889  26.7805  26.7806  30.4610  31.7507
    31.7508  35.2464  36.6991  37.1081  37.1082  38.2653  38.8294  40.8760
    40.8760  44.2209  44.2210  44.3730  50.8910  50.9609  50.9609  50.9855
    50.9855  54.9410  56.1972  56.1973

          k =-0.0000-0.0000-0.1427 (  1238 PWs)   bands (ev):

     8.3418   8.3418  11.1270  11.1270  11.8145  11.8145  12.0364  12.0364
    12.0364  12.0364  13.1941  13.1942  13.7233  13.7233  13.7233  13.7233
    13.8126  13.8127  14.2793  14.2793  14.9480  14.9480  22.5651  22.5651
    22.5652  22.5652  24.7986  24.7986  25.8946  25.8947  34.1572  34.1572
    34.1572  34.1573  34.8953  34.8955  35.8312  35.8312  40.4696  40.4698
    45.6275  45.6275  45.6277  45.6277  47.7014  47.7015  52.4926  52.4926
    54.0732  54.0733  54.0734  54.0734

          k = 0.0000 0.0476 0.0476 (  1261 PWs)   bands (ev):

     6.1033  10.3660  10.3660  10.5557  11.1121  11.1226  11.1226  12.6149
    12.9874  12.9919  13.7019  13.7433  13.7433  13.7553  13.9584  14.3559
    14.4820  14.4820  14.7530  14.7530  14.8236  16.7218  16.7218  18.9703
    24.1646  25.2345  26.4413  26.4413  28.3827  28.3828  28.9838  28.9838
    30.6729  36.1171  36.1467  37.1051  37.1052  37.3571  40.2423  40.2424
    41.1969  42.6999  43.5076  45.1833  46.4339  49.9568  50.3893  53.2778
    53.6453  55.3215  55.3215  56.2526

          k = 0.0000 0.0476 0.0952 (  1231 PWs)   bands (ev):

     7.1331   9.9689  10.8823  11.0006  11.3957  11.4283  11.4698  12.3023
    12.6796  12.8489  13.0426  13.0828  13.2631  13.5842  14.0063  14.0918
    14.1618  14.2481  14.2774  14.7501  14.7592  15.1496  18.3604  20.7918
    22.2845  24.8426  25.6612  26.6737  27.5327  29.7219  29.9702  30.0320
    31.1194  33.8086  34.5162  37.7287  38.6775  40.3485  40.5234  40.8764
    41.1259  44.1309  45.2464  47.1342  47.7159  48.5797  49.8866  51.2689
    52.9050  53.1788  55.0517  56.9993

          k =-0.0000 0.0476-0.1427 (  1240 PWs)   bands (ev):

     8.6354   8.6354  11.2706  11.2706  11.8590  11.8590  11.8715  11.8715
    12.0536  12.0536  12.9137  12.9137  13.7268  13.7268  13.8014  13.8015
    13.8017  13.8018  14.5049  14.5049  14.7485  14.7485  20.1721  20.1721
    23.0759  23.0760  25.5895  25.5895  28.4326  28.4327  31.6175  31.6175
    32.0848  32.0849  35.8610  35.8611  38.8368  38.8369  42.3744  42.3746
    43.1154  43.1155  45.9001  45.9002  50.1574  50.1575  50.2956  50.2957
    52.5381  52.5382  53.3840  53.3841

          k = 0.0000 0.0952 0.0952 (  1242 PWs)   bands (ev):

     8.0832  10.6071  10.6071  11.3643  11.4465  11.6844  11.6844  12.2043
    12.3508  12.3508  12.5245  12.9220  13.4072  13.4805  13.7788  13.9178
    13.9178  14.2815  14.2815  14.4714  14.5484  16.2918  16.2918  19.6127
    22.3338  25.3637  26.9495  26.9496  28.0033  28.0034  31.1223  31.7363
    31.7363  31.8105  33.6633  36.8810  41.4710  41.8700  41.8701  43.1185
    43.3018  43.8223  43.8224  47.3199  47.3689  48.5300  48.5300  51.7440
    52.0761  52.1411  53.4181  55.2623

          k =-0.0000 0.0952-0.1427 (  1242 PWs)   bands (ev):

     9.4338   9.4338  11.2245  11.2246  11.8505  11.8505  11.9659  11.9659
    12.0809  12.0809  12.6036  12.6037  13.5735  13.5735  13.6473  13.6473
    13.7735  13.7735  14.3240  14.3241  15.1737  15.1737  17.6822  17.6823
    24.4441  24.4442  26.3849  26.3850  28.8208  28.8209  29.6344  29.6344
    33.0279  33.0280  36.8258  36.8260  40.3711  40.3712  43.0032  43.0032
    43.2431  43.2432  46.6867  46.6868  48.0164  48.0165  50.3840  50.3841
    51.8941  51.8942  53.4865  53.4866

          k =-0.0000-0.1427-0.1427 (  1228 PWs)   bands (ev):

    10.4451  10.4451  10.4451  10.4451  12.0602  12.0602  12.0602  12.0603
    12.3007  12.3007  12.3007  12.3007  13.4306  13.4307  13.4307  13.4307
    13.9562  13.9562  13.9562  13.9563  16.1199  16.1200  16.1200  16.1200
    26.4086  26.4087  26.4087  26.4087  27.7084  27.7085  27.7085  27.7086
    37.9750  37.9750  37.9751  37.9751  38.4730  38.4731  38.4732  38.4732
    47.0662  47.0662  47.0662  47.0663  49.1888  49.1888  49.1889  49.1889
    51.9303  51.9303  51.9303  51.9304

          k = 0.0476 0.0476 0.0476 (  1244 PWs)   bands (ev):

     6.4520  10.5539  10.5539  10.5539  11.2138  11.2138  11.2138  12.5600
    13.0125  13.0125  13.4019  13.4019  13.4019  13.8708  13.8708  14.1628
    14.1628  14.1628  14.8241  14.8241  14.8241  17.3755  17.3756  17.3756
    25.4628  25.4628  25.4628  26.7712  26.7712  26.7712  31.1992  31.1993
    31.1993  33.5556  36.2688  36.2688  36.2688  39.1033  41.1985  41.1985
    42.9040  42.9041  42.9041  46.5129  47.6139  47.6139  51.8212  51.8212
    55.1907  55.1907  55.1907  55.4633

          k = 0.0476 0.0476 0.0952 (  1235 PWs)   bands (ev):

     7.4493  10.1676  11.0136  11.0136  11.4554  11.4554  11.5113  12.3127
    12.6811  12.6811  12.8465  13.0441  13.1342  13.7757  13.8100  13.8727
    13.8727  14.1464  14.7120  14.7417  14.7417  15.4326  18.7039  18.7039
    22.9223  22.9223  26.7694  27.3982  27.3982  30.4394  30.4394  30.8657
    31.0414  32.7037  36.7273  37.6886  37.9352  38.8283  38.8283  42.3761
    43.5924  44.4952  47.0740  47.0740  47.9340  49.0373  50.1986  50.1986
    50.7123  52.9556  53.0470  55.7844

          k = 0.0476 0.0476-0.1427 (  1250 PWs)   bands (ev):

     8.8914   8.8915  11.4413  11.4414  11.5088  11.5088  11.9216  11.9217
    12.2986  12.2986  12.8266  12.8267  13.3977  13.3977  13.6818  13.6818
    14.2983  14.2984  14.4615  14.4615  14.6941  14.6941  19.7832  19.7832
    21.4548  21.4548  28.3281  28.3281  28.5942  28.5943  29.0482  29.0482
    35.0147  35.0147  35.3951  35.3953  38.1798  38.1799  42.1931  42.1931
    44.8519  44.8520  45.3671  45.3671  49.4095  49.4097  50.8623  50.8623
    52.2283  52.2284  54.0727  54.0727

          k = 0.0476 0.0952 0.0952 (  1237 PWs)   bands (ev):

     8.3353  10.6157  10.6157  11.1275  11.6215  11.7624  11.7624  12.2888
    12.4948  12.4948  12.6198  12.9335  13.0830  13.5367  13.5367  13.5388
    13.8999  14.4607  14.6094  14.6095  14.6262  16.3706  16.3706  18.9035
    21.1524  24.1260  24.1261  28.1119  28.1868  31.2042  31.2043  32.2199
    32.2199  34.0785  35.2737  36.9413  39.3468  39.3468  40.0848  43.1596
    43.7357  44.7379  46.4657  46.4657  49.2569  49.2569  50.3581  50.5883
    50.9100  51.7009  52.3777  52.8623

          k = 0.0476 0.0952-0.1427 (  1242 PWs)   bands (ev):

     9.5561   9.5561  10.9791  10.9792  11.8823  11.8823  12.1223  12.1223
    12.4753  12.4753  12.6627  12.6627  13.2122  13.2122  13.3934  13.3934
    14.2191  14.2191  14.5174  14.5174  15.0669  15.0669  17.6060  17.6061
    22.1246  22.1246  25.8700  25.8701  29.5423  29.5424  33.1028  33.1029
    33.3290  33.3291  36.9249  36.9250  40.1290  40.1291  40.4762  40.4762
    45.1886  45.1887  45.6851  45.6852  47.6935  47.6936  50.6211  50.6212
    51.7391  51.7391  54.0114  54.0116

          k = 0.0476-0.1427-0.1427 (  1232 PWs)   bands (ev):

    10.3330  10.3330  10.3330  10.3330  12.2895  12.2896  12.2896  12.2896
    12.5095  12.5095  12.5095  12.5095  13.1567  13.1567  13.1567  13.1568
    14.2484  14.2484  14.2484  14.2484  15.9945  15.9946  15.9946  15.9946
    23.7161  23.7161  23.7162  23.7162  31.0623  31.0623  31.0623  31.0624
    38.2536  38.2536  38.2537  38.2537  38.3012  38.3013  38.3014  38.3015
    46.5956  46.5957  46.5957  46.5957  46.7930  46.7931  46.7931  46.7931
    54.8851  54.8852  54.8853  54.8853

          k = 0.0952 0.0952 0.0952 (  1229 PWs)   bands (ev):

     9.0003  10.5676  10.5676  10.5677  12.0780  12.0780  12.0780  12.5559
    12.7736  12.7737  12.7737  12.9006  12.9006  13.1740  13.1740  13.1740
    14.3404  14.3404  14.7521  14.7521  14.7521  16.6220  16.6220  16.6220
    21.7546  21.7546  21.7546  25.3819  32.5530  32.5531  32.5531  35.3129
    35.3129  35.3129  37.2939  37.2939  37.2939  37.6266  40.0460  40.0460
    44.4635  44.4635  47.7982  48.0235  48.0236  48.0236  48.1510  48.1510
    48.1510  52.4906  52.4906  52.4906

          k = 0.0952 0.0952-0.1427 (  1232 PWs)   bands (ev):

     9.8257   9.8257  10.5274  10.5274  12.2705  12.2706  12.5842  12.5842
    12.8315  12.8316  12.9345  12.9345  12.9771  12.9771  13.0415  13.0415
    14.6538  14.6538  14.6813  14.6813  14.8795  14.8796  16.8112  16.8112
    20.8241  20.8241  23.2634  23.2635  33.4300  33.4300  34.7209  34.7210
    36.2279  36.2281  37.3266  37.3266  39.0833  39.0834  39.4217  39.4217
    44.6883  44.6883  44.8896  44.8897  46.0347  46.0348  48.5202  48.5202
    49.6701  49.6701  53.0998  53.0998

          k = 0.0952-0.1427-0.1427 (  1244 PWs)   bands (ev):

    10.1397  10.1397  10.1397  10.1397  12.6180  12.6180  12.6180  12.6180
    12.8507  12.8507  12.8507  12.8507  13.2645  13.2646  13.2646  13.2646
    14.5910  14.5910  14.5910  14.5911  15.5035  15.5036  15.5036  15.5036
    21.4933  21.4933  21.4933  21.4934  35.1358  35.1360  35.1360  35.1360
    38.1955  38.1956  38.1957  38.1957  39.0174  39.0175  39.0175  39.0175
    44.1356  44.1357  44.1357  44.1358  45.1593  45.1594  45.1594  45.1594
    50.5222  50.5223  50.5223  50.5223

          k =-0.1427-0.1427-0.1427 (  1208 PWs)   bands (ev):

    10.0544  10.0544  10.0544  10.0544  12.7362  12.7363  12.7363  12.7363
    12.7363  12.7363  12.7363  12.7363  14.1968  14.1969  14.1969  14.1969
    14.7238  14.7238  14.7238  14.7238  14.7238  14.7238  14.7238  14.7238
    20.7017  20.7017  20.7018  20.7018  36.7720  36.7722  36.7723  36.7723
    39.6547  39.6547  39.6547  39.6548  39.6548  39.6548  39.6548  39.6548
    42.8429  42.8429  42.8430  42.8430  42.8430  42.8430  42.8431  42.8431
    48.9000  48.9001  48.9001  48.9001

          k =-0.0476-0.0000 0.0476 (  1261 PWs)   bands (ev):

     6.1033  10.3660  10.3660  10.5557  11.1121  11.1226  11.1226  12.6149
    12.9875  12.9919  13.7020  13.7433  13.7433  13.7553  13.9584  14.3559
    14.4820  14.4820  14.7530  14.7530  14.8236  16.7218  16.7218  18.9702
    24.1646  25.2345  26.4413  26.4413  28.3827  28.3828  28.9838  28.9838
    30.6730  36.1170  36.1467  37.1051  37.1052  37.3571  40.2423  40.2424
    41.1970  42.6998  43.5077  45.1833  46.4339  49.9568  50.3892  53.2778
    53.6453  55.3214  55.3214  56.2526

          k =-0.0476 0.0000 0.0952 (  1231 PWs)   bands (ev):

     7.1331   9.9689  10.8823  11.0006  11.3957  11.4283  11.4698  12.3023
    12.6797  12.8489  13.0426  13.0828  13.2631  13.5842  14.0063  14.0918
    14.1618  14.2481  14.2774  14.7501  14.7592  15.1496  18.3605  20.7918
    22.2845  24.8426  25.6613  26.6737  27.5327  29.7219  29.9703  30.0320
    31.1194  33.8085  34.5161  37.7287  38.6775  40.3485  40.5234  40.8764
    41.1259  44.1308  45.2465  47.1341  47.7159  48.5797  49.8865  51.2689
    52.9049  53.1787  55.0517  56.9992

          k =-0.0952-0.0000 0.0952 (  1242 PWs)   bands (ev):

     8.0832  10.6072  10.6072  11.3643  11.4465  11.6844  11.6844  12.2043
    12.3508  12.3508  12.5245  12.9220  13.4072  13.4805  13.7788  13.9178
    13.9178  14.2815  14.2815  14.4714  14.5484  16.2918  16.2919  19.6127
    22.3338  25.3636  26.9496  26.9496  28.0034  28.0034  31.1222  31.7363
    31.7363  31.8105  33.6634  36.8811  41.4710  41.8700  41.8700  43.1185
    43.3018  43.8223  43.8224  47.3200  47.3690  48.5299  48.5299  51.7438
    52.0762  52.1412  53.4182  55.2623

          k = 0.0476-0.0476 0.0476 (  1244 PWs)   bands (ev):

     6.4520  10.5539  10.5539  10.5539  11.2138  11.2138  11.2138  12.5600
    13.0125  13.0125  13.4019  13.4019  13.4019  13.8708  13.8708  14.1628
    14.1628  14.1628  14.8241  14.8241  14.8241  17.3756  17.3756  17.3756
    25.4627  25.4627  25.4628  26.7712  26.7712  26.7712  31.1992  31.1993
    31.1993  33.5555  36.2688  36.2689  36.2689  39.1033  41.1985  41.1986
    42.9039  42.9040  42.9040  46.5129  47.6139  47.6140  51.8212  51.8213
    55.1906  55.1907  55.1907  55.4633

          k = 0.0476-0.0476 0.0952 (  1235 PWs)   bands (ev):

     7.4493  10.1676  11.0136  11.0136  11.4554  11.4554  11.5113  12.3126
    12.6811  12.6811  12.8465  13.0441  13.1342  13.7757  13.8100  13.8727
    13.8727  14.1464  14.7120  14.7417  14.7417  15.4326  18.7039  18.7039
    22.9223  22.9223  26.7693  27.3981  27.3982  30.4394  30.4394  30.8656
    31.0414  32.7038  36.7274  37.6887  37.9353  38.8283  38.8284  42.3762
    43.5923  44.4953  47.0739  47.0740  47.9340  49.0373  50.1985  50.1986
    50.7123  52.9555  53.0470  55.7844

          k =-0.0952 0.0476 0.0476 (  1235 PWs)   bands (ev):

     7.4493  10.1676  11.0136  11.0136  11.4554  11.4554  11.5113  12.3126
    12.6811  12.6811  12.8465  13.0441  13.1342  13.7757  13.8101  13.8727
    13.8727  14.1464  14.7120  14.7417  14.7417  15.4326  18.7039  18.7039
    22.9223  22.9223  26.7694  27.3981  27.3981  30.4394  30.4395  30.8657
    31.0414  32.7037  36.7273  37.6887  37.9352  38.8284  38.8284  42.3762
    43.5924  44.4954  47.0738  47.0739  47.9341  49.0373  50.1985  50.1985
    50.7123  52.9554  53.0469  55.7843

          k = 0.0476-0.0476-0.1427 (  1250 PWs)   bands (ev):

     8.8914   8.8915  11.4413  11.4414  11.5088  11.5088  11.9216  11.9217
    12.2986  12.2986  12.8266  12.8267  13.3977  13.3977  13.6818  13.6818
    14.2983  14.2984  14.4615  14.4615  14.6941  14.6941  19.7832  19.7832
    21.4548  21.4548  28.3281  28.3281  28.5942  28.5942  29.0481  29.0482
    35.0148  35.0148  35.3952  35.3953  38.1798  38.1799  42.1930  42.1932
    44.8518  44.8519  45.3671  45.3671  49.4095  49.4096  50.8623  50.8624
    52.2283  52.2284  54.0727  54.0727

          k = 0.0952-0.0476 0.0952 (  1237 PWs)   bands (ev):

     8.3353  10.6156  10.6157  11.1275  11.6215  11.7624  11.7624  12.2887
    12.4948  12.4948  12.6198  12.9335  13.0830  13.5367  13.5367  13.5388
    13.8999  14.4607  14.6095  14.6095  14.6262  16.3706  16.3706  18.9035
    21.1525  24.1260  24.1260  28.1118  28.1867  31.2043  31.2043  32.2199
    32.2199  34.0785  35.2739  36.9413  39.3469  39.3469  40.0848  43.1597
    43.7358  44.7379  46.4656  46.4657  49.2568  49.2568  50.3580  50.5882
    50.9101  51.7008  52.3777  52.8622

          k =-0.0952 0.0476 0.0952 (  1237 PWs)   bands (ev):

     8.3352  10.6157  10.6157  11.1275  11.6215  11.7624  11.7624  12.2887
    12.4948  12.4948  12.6198  12.9335  13.0830  13.5367  13.5367  13.5388
    13.8999  14.4607  14.6094  14.6095  14.6262  16.3706  16.3706  18.9035
    21.1524  24.1260  24.1261  28.1118  28.1867  31.2042  31.2043  32.2198
    32.2199  34.0786  35.2738  36.9414  39.3468  39.3469  40.0848  43.1597
    43.7358  44.7380  46.4656  46.4656  49.2568  49.2568  50.3580  50.5883
    50.9100  51.7009  52.3776  52.8622

          k = 0.0952-0.0476-0.1427 (  1242 PWs)   bands (ev):

     9.5561   9.5561  10.9791  10.9792  11.8822  11.8823  12.1223  12.1223
    12.4753  12.4753  12.6627  12.6627  13.2122  13.2123  13.3934  13.3934
    14.2191  14.2191  14.5174  14.5174  15.0669  15.0669  17.6060  17.6061
    22.1246  22.1247  25.8700  25.8700  29.5423  29.5424  33.1029  33.1030
    33.3290  33.3290  36.9249  36.9250  40.1290  40.1291  40.4762  40.4763
    45.1886  45.1887  45.6851  45.6852  47.6935  47.6935  50.6211  50.6212
    51.7390  51.7390  54.0114  54.0115

          k = 0.0952-0.0952 0.0952 (  1229 PWs)   bands (ev):

     9.0003  10.5676  10.5676  10.5677  12.0780  12.0780  12.0780  12.5559
    12.7736  12.7737  12.7737  12.9006  12.9007  13.1740  13.1740  13.1741
    14.3404  14.3404  14.7521  14.7521  14.7521  16.6220  16.6220  16.6220
    21.7546  21.7546  21.7547  25.3819  32.5530  32.5530  32.5531  35.3129
    35.3130  35.3130  37.2939  37.2940  37.2940  37.6267  40.0461  40.0462
    44.4636  44.4636  47.7983  48.0234  48.0235  48.0235  48.1510  48.1510
    48.1511  52.4905  52.4905  52.4905

          k = 0.0952-0.0952-0.1427 (  1232 PWs)   bands (ev):

     9.8257   9.8257  10.5274  10.5274  12.2705  12.2706  12.5842  12.5842
    12.8315  12.8316  12.9345  12.9345  12.9771  12.9771  13.0415  13.0415
    14.6538  14.6538  14.6813  14.6813  14.8795  14.8796  16.8112  16.8112
    20.8241  20.8242  23.2634  23.2634  33.4299  33.4300  34.7209  34.7209
    36.2279  36.2281  37.3267  37.3267  39.0833  39.0834  39.4216  39.4218
    44.6882  44.6883  44.8896  44.8897  46.0348  46.0348  48.5201  48.5202
    49.6701  49.6701  53.0997  53.0997

     the Fermi energy is    14.4968 ev

!    total energy              =    -343.63008931 Ry
     Harris-Foulkes estimate   =    -343.63008478 Ry
     estimated scf accuracy    <          1.8E-11 Ry

     The total energy is the sum of the following terms:

     one-electron contribution =      -6.35211400 Ry
     hartree contribution      =      60.33931806 Ry
     xc contribution           =    -120.51475687 Ry
     ewald contribution        =    -277.05410321 Ry
     Dispersion Correction     =      -0.04785812 Ry
     smearing contrib. (-TS)   =      -0.00057516 Ry

     total magnetization       =     2.84 Bohr mag/cell
     absolute magnetization    =     3.25 Bohr mag/cell

     convergence has been achieved in  17 iterations

     Forces acting on atoms (Ry/au):

     atom    1 type  1   force =     0.00000872    0.00000872   -0.00000826
     atom    2 type  1   force =    -0.00000918   -0.00000918   -0.00000918
     atom    3 type  1   force =     0.00000872   -0.00000826    0.00000872
     atom    4 type  1   force =    -0.00000826    0.00000872    0.00000872

     Total force =     0.000030     Total SCF correction =     0.000001


     entering subroutine stress ...

          total   stress  (Ry/bohr**3)                   (kbar)     P=    0.00
   0.00000002   0.00000001   0.00000001          0.00      0.00      0.00
   0.00000001   0.00000002   0.00000001          0.00      0.00      0.00
   0.00000001   0.00000001   0.00000002          0.00      0.00      0.00


     Writing output data file Ni-ferromag.save

     init_run     :     19.97s CPU     20.55s WALL (       2 calls)
     electrons    :   1728.34s CPU   1784.23s WALL (       6 calls)
     update_pot   :     22.51s CPU     22.59s WALL (       4 calls)
     forces       :     38.43s CPU     38.73s WALL (       6 calls)
     stress       :     75.54s CPU     76.56s WALL (       6 calls)

     Called by init_run:
     wfcinit      :     13.71s CPU     14.19s WALL (       2 calls)
     potinit      :      1.79s CPU      1.83s WALL (       2 calls)

     Called by electrons:
     c_bands      :   1463.13s CPU   1507.28s WALL (      75 calls)
     sum_band     :    222.86s CPU    231.65s WALL (      75 calls)
     v_of_rho     :     22.58s CPU     23.50s WALL (      80 calls)
     newd         :     21.01s CPU     22.89s WALL (      80 calls)
     mix_rho      :      1.22s CPU      1.46s WALL (      75 calls)

     Called by c_bands:
     init_us_2    :     10.27s CPU     11.21s WALL (   10496 calls)
     cegterg      :   1427.15s CPU   1470.73s WALL (    4800 calls)

     Called by sum_band:
     sum_band:bec :      0.83s CPU      0.80s WALL (    4800 calls)
     addusdens    :     30.31s CPU     32.19s WALL (      75 calls)

     Called by *egterg:
     h_psi        :    740.89s CPU    768.14s WALL (   14035 calls)
     s_psi        :    102.67s CPU    102.64s WALL (   14035 calls)
     g_psi        :      4.46s CPU      4.45s WALL (    9107 calls)
     cdiaghg      :    140.34s CPU    140.38s WALL (   13587 calls)

     Called by h_psi:
     add_vuspsi   :    102.55s CPU    102.76s WALL (   14035 calls)

     General routines
     calbec       :    184.80s CPU    185.00s WALL (   20755 calls)
     fft          :      7.76s CPU      8.54s WALL (    2692 calls)
     ffts         :      0.22s CPU      0.22s WALL (     310 calls)
     fftw         :    550.85s CPU    579.87s WALL ( 1366666 calls)
     interpolate  :      1.20s CPU      1.46s WALL (     310 calls)

     Parallel routines
     fft_scatter  :     31.43s CPU     40.63s WALL ( 1369668 calls)

     PWSCF        : 31m27.15s CPU    32m25.27s WALL


   This run was terminated on:   1:59:40  27May2016            

=------------------------------------------------------------------------------=
   JOB DONE.
=------------------------------------------------------------------------------=
