
     Program PWSCF v.5.3.0 (svn rev. 11974) starts on 27May2016 at  1:59:40 

     This program is part of the open-source Quantum ESPRESSO suite
     for quantum simulation of materials; please cite
         "P. Giannozzi et al., J. Phys.:Condens. Matter 21 395502 (2009);
          URL http://www.quantum-espresso.org", 
     in publications or presentations arising from this work. More details at
     http://www.quantum-espresso.org/quote

     Parallel version (MPI), running on     1 processors
     Waiting for input...
     Reading input from standard input
     Message from routine read_cards :
     DEPRECATED: no units specified in CELL_PARAMETERS card

     Current dimensions of program PWSCF are:
     Max number of different atomic species (ntypx) = 10
     Max number of k-points (npk) =  40000
     Max angular momentum in pseudopotentials (lmaxx) =  3
               file Ni.pbe-nd-rrkjus.UPF: wavefunction(s)  4S renormalized

     -------------------------------------
     Parameters for Dispersion Correction:
     -------------------------------------
       atom      VdW radius       C_6     

        Ni1        3.014        159.927

     Subspace diagonalization in iterative solution of the eigenvalue problem:
     a serial algorithm will be used


     G-vector sticks info
     --------------------
     sticks:   dense  smooth     PW     G-vecs:    dense   smooth      PW
     Sum        1413     641    193                39847    12053    2103

     Generating pointlists ...
     new r_m :   0.4125 (alat units)  0.7795 (a.u.) for type    1

     Title: 
     Ni-ferro-mag                                                               


     bravais-lattice index     =            0
     lattice parameter (alat)  =       1.8897  a.u.
     unit-cell volume          =     295.0010 (a.u.)^3
     number of atoms/cell      =            4
     number of atomic types    =            1
     number of electrons       =        40.00
     number of Kohn-Sham states=           52
     kinetic-energy cutoff     =      45.0000  Ry
     charge density cutoff     =     400.0000  Ry
     convergence threshold     =      1.0E-08
     mixing beta               =       0.2000
     number of iterations used =            8  plain     mixing
     Exchange-correlation      =  SLA  PW   PBE  PBE ( 1  4  3  4 0 0)
     nstep                     =           50


     celldm(1)=   1.889726  celldm(2)=   0.000000  celldm(3)=   0.000000
     celldm(4)=   0.000000  celldm(5)=   0.000000  celldm(6)=   0.000000

     crystal axes: (cart. coord. in units of alat)
               a(1) = (   3.522700   0.000000   0.000000 )  
               a(2) = (   0.000000   3.522700   0.000000 )  
               a(3) = (   0.000000   0.000000   3.522700 )  

     reciprocal axes: (cart. coord. in units 2 pi/alat)
               b(1) = (  0.283873  0.000000  0.000000 )  
               b(2) = (  0.000000  0.283873  0.000000 )  
               b(3) = (  0.000000  0.000000  0.283873 )  


     PseudoPot. # 1 for Ni read from file:
     /home/eliot/pseudo/Ni.pbe-nd-rrkjus.UPF
     MD5 check sum: 8081f0a005c9a5470caab1a58e82ecb2
     Pseudo is Ultrasoft + core correction, Zval = 10.0
     Generated by new atomic code, or converted to UPF format
     Using radial grid of 1203 points,  6 beta functions with: 
                l(1) =   0
                l(2) =   0
                l(3) =   1
                l(4) =   1
                l(5) =   2
                l(6) =   2
     Q(r) pseudized with 0 coefficients 


     atomic species   valence    mass     pseudopotential
        Ni1           10.00    58.69340     Ni( 1.00)

     Starting magnetic structure 
     atomic species   magnetization
        Ni1          0.500

      6 Sym. Ops. (no inversion) found



   Cartesian axes

     site n.     atom                  positions (alat units)
         1           Ni1 tau(   1) = (   1.7691699   1.7691699   0.0000000  )
         2           Ni1 tau(   2) = (   0.0000000   0.0000000   0.0000000  )
         3           Ni1 tau(   3) = (   1.7691699   0.0000000   1.7691699  )
         4           Ni1 tau(   4) = (   0.0000000   1.7691699   1.7691699  )

     number of k points=    32  Methfessel-Paxton smearing, width (Ry)=  0.0500
                       cart. coord. in units 2pi/alat
        k(    1) = (   0.0000000   0.0000000   0.0000000), wk =   0.0046296
        k(    2) = (   0.0000000   0.0000000   0.0473122), wk =   0.0277778
        k(    3) = (   0.0000000   0.0000000   0.0946244), wk =   0.0277778
        k(    4) = (   0.0000000   0.0000000  -0.1419366), wk =   0.0138889
        k(    5) = (   0.0000000   0.0473122   0.0473122), wk =   0.0277778
        k(    6) = (   0.0000000   0.0473122   0.0946244), wk =   0.0555556
        k(    7) = (   0.0000000   0.0473122  -0.1419366), wk =   0.0555556
        k(    8) = (   0.0000000   0.0946244   0.0946244), wk =   0.0277778
        k(    9) = (   0.0000000   0.0946244  -0.1419366), wk =   0.0555556
        k(   10) = (   0.0000000  -0.1419366  -0.1419366), wk =   0.0138889
        k(   11) = (   0.0473122   0.0473122   0.0473122), wk =   0.0092593
        k(   12) = (   0.0473122   0.0473122   0.0946244), wk =   0.0277778
        k(   13) = (   0.0473122   0.0473122  -0.1419366), wk =   0.0277778
        k(   14) = (   0.0473122   0.0946244   0.0946244), wk =   0.0277778
        k(   15) = (   0.0473122   0.0946244  -0.1419366), wk =   0.0555556
        k(   16) = (   0.0473122  -0.1419366  -0.1419366), wk =   0.0277778
        k(   17) = (   0.0946244   0.0946244   0.0946244), wk =   0.0092593
        k(   18) = (   0.0946244   0.0946244  -0.1419366), wk =   0.0277778
        k(   19) = (   0.0946244  -0.1419366  -0.1419366), wk =   0.0277778
        k(   20) = (  -0.1419366  -0.1419366  -0.1419366), wk =   0.0046296
        k(   21) = (  -0.0473122   0.0000000   0.0473122), wk =   0.0277778
        k(   22) = (  -0.0473122   0.0000000   0.0946244), wk =   0.0555556
        k(   23) = (  -0.0946244   0.0000000   0.0946244), wk =   0.0277778
        k(   24) = (   0.0473122  -0.0473122   0.0473122), wk =   0.0277778
        k(   25) = (   0.0473122  -0.0473122   0.0946244), wk =   0.0555556
        k(   26) = (  -0.0946244   0.0473122   0.0473122), wk =   0.0277778
        k(   27) = (   0.0473122  -0.0473122  -0.1419366), wk =   0.0277778
        k(   28) = (   0.0946244  -0.0473122   0.0946244), wk =   0.0277778
        k(   29) = (  -0.0946244   0.0473122   0.0946244), wk =   0.0555556
        k(   30) = (   0.0946244  -0.0473122  -0.1419366), wk =   0.0555556
        k(   31) = (   0.0946244  -0.0946244   0.0946244), wk =   0.0277778
        k(   32) = (   0.0946244  -0.0946244  -0.1419366), wk =   0.0277778

     Dense  grid:    39847 G-vectors     FFT dimensions: (  45,  45,  45)

     Smooth grid:    12053 G-vectors     FFT dimensions: (  30,  30,  30)

     Largest allocated arrays     est. size (Mb)     dimensions
        Kohn-Sham Wavefunctions         1.20 Mb     (    1518,   52)
        NL pseudopotentials             1.67 Mb     (    1518,   72)
        Each V/rho on FFT grid          2.78 Mb     (   91125,   2)
        Each G-vector array             0.30 Mb     (   39847)
        G-vector shells                 0.30 Mb     (   39847)
     Largest temporary arrays     est. size (Mb)     dimensions
        Auxiliary wavefunctions         4.82 Mb     (    1518,  208)
        Each subspace H/S matrix        0.66 Mb     (     208,  208)
        Each <psi_i|beta_j> matrix      0.06 Mb     (      72,   52)
        Arrays for rho mixing          11.12 Mb     (   91125,    8)

     Check: negative/imaginary core charge=   -0.000005    0.000000

     Initial potential from superposition of free atoms

     starting charge   39.99816, renormalised to   40.00000
     Starting wfc are   24 randomized atomic wfcs +   28 random wfc

     total cpu time spent up to now is       13.4 secs

     Self-consistent Calculation

     iteration #  1     ecut=    45.00 Ry     beta=0.20
     Davidson diagonalization with overlap
     ethr =  1.00E-02,  avg # of iterations =  6.0

     total cpu time spent up to now is       74.1 secs

     total energy              =    -342.90142286 Ry
     Harris-Foulkes estimate   =    -343.18543944 Ry
     estimated scf accuracy    <       2.43737729 Ry

     total magnetization       =     6.91 Bohr mag/cell
     absolute magnetization    =     6.92 Bohr mag/cell

     iteration #  2     ecut=    45.00 Ry     beta=0.20
     Davidson diagonalization with overlap
     ethr =  6.09E-03,  avg # of iterations =  1.0

     total cpu time spent up to now is       98.0 secs

     total energy              =    -343.20631374 Ry
     Harris-Foulkes estimate   =    -343.04077964 Ry
     estimated scf accuracy    <       0.77204286 Ry

     total magnetization       =     5.77 Bohr mag/cell
     absolute magnetization    =     5.87 Bohr mag/cell

     iteration #  3     ecut=    45.00 Ry     beta=0.20
     Davidson diagonalization with overlap
     ethr =  1.93E-03,  avg # of iterations =  1.7

     total cpu time spent up to now is      122.6 secs

     total energy              =    -343.53558789 Ry
     Harris-Foulkes estimate   =    -343.27841558 Ry
     estimated scf accuracy    <       0.36093423 Ry

     total magnetization       =     4.53 Bohr mag/cell
     absolute magnetization    =     4.85 Bohr mag/cell

     iteration #  4     ecut=    45.00 Ry     beta=0.20
     Davidson diagonalization with overlap
     ethr =  9.02E-04,  avg # of iterations =  1.7

     total cpu time spent up to now is      147.3 secs

     total energy              =    -343.61835555 Ry
     Harris-Foulkes estimate   =    -343.65280101 Ry
     estimated scf accuracy    <       0.12780704 Ry

     total magnetization       =     2.54 Bohr mag/cell
     absolute magnetization    =     3.17 Bohr mag/cell

     iteration #  5     ecut=    45.00 Ry     beta=0.20
     Davidson diagonalization with overlap
     ethr =  3.20E-04,  avg # of iterations =  1.2

     total cpu time spent up to now is      171.4 secs

     total energy              =    -343.62258582 Ry
     Harris-Foulkes estimate   =    -343.62802841 Ry
     estimated scf accuracy    <       0.01758064 Ry

     total magnetization       =     2.62 Bohr mag/cell
     absolute magnetization    =     3.23 Bohr mag/cell

     iteration #  6     ecut=    45.00 Ry     beta=0.20
     Davidson diagonalization with overlap
     ethr =  4.40E-05,  avg # of iterations =  3.4

     total cpu time spent up to now is      198.2 secs

     total energy              =    -343.62615996 Ry
     Harris-Foulkes estimate   =    -343.62711555 Ry
     estimated scf accuracy    <       0.00195444 Ry

     total magnetization       =     2.71 Bohr mag/cell
     absolute magnetization    =     3.30 Bohr mag/cell

     iteration #  7     ecut=    45.00 Ry     beta=0.20
     Davidson diagonalization with overlap
     ethr =  4.89E-06,  avg # of iterations =  4.0

     total cpu time spent up to now is      225.9 secs

     total energy              =    -343.62909216 Ry
     Harris-Foulkes estimate   =    -343.62800885 Ry
     estimated scf accuracy    <       0.00168924 Ry

     total magnetization       =     3.03 Bohr mag/cell
     absolute magnetization    =     3.52 Bohr mag/cell

     iteration #  8     ecut=    45.00 Ry     beta=0.20
     Davidson diagonalization with overlap
     ethr =  4.22E-06,  avg # of iterations =  1.0

     total cpu time spent up to now is      249.9 secs

     total energy              =    -343.62947982 Ry
     Harris-Foulkes estimate   =    -343.62943652 Ry
     estimated scf accuracy    <       0.00007237 Ry

     total magnetization       =     2.91 Bohr mag/cell
     absolute magnetization    =     3.37 Bohr mag/cell

     iteration #  9     ecut=    45.00 Ry     beta=0.20
     Davidson diagonalization with overlap
     ethr =  1.81E-07,  avg # of iterations =  1.5

     total cpu time spent up to now is      274.2 secs

     total energy              =    -343.62950273 Ry
     Harris-Foulkes estimate   =    -343.62951082 Ry
     estimated scf accuracy    <       0.00003868 Ry

     total magnetization       =     2.87 Bohr mag/cell
     absolute magnetization    =     3.32 Bohr mag/cell

     iteration # 10     ecut=    45.00 Ry     beta=0.20
     Davidson diagonalization with overlap
     ethr =  9.67E-08,  avg # of iterations =  1.1

     total cpu time spent up to now is      298.3 secs

     total energy              =    -343.62953165 Ry
     Harris-Foulkes estimate   =    -343.62951602 Ry
     estimated scf accuracy    <       0.00001701 Ry

     total magnetization       =     2.89 Bohr mag/cell
     absolute magnetization    =     3.33 Bohr mag/cell

     iteration # 11     ecut=    45.00 Ry     beta=0.20
     Davidson diagonalization with overlap
     ethr =  4.25E-08,  avg # of iterations =  1.0

     total cpu time spent up to now is      322.2 secs

     total energy              =    -343.62954362 Ry
     Harris-Foulkes estimate   =    -343.62953857 Ry
     estimated scf accuracy    <       0.00000222 Ry

     total magnetization       =     2.88 Bohr mag/cell
     absolute magnetization    =     3.31 Bohr mag/cell

     iteration # 12     ecut=    45.00 Ry     beta=0.20
     Davidson diagonalization with overlap
     ethr =  5.56E-09,  avg # of iterations =  1.0

     total cpu time spent up to now is      346.1 secs

     total energy              =    -343.62954745 Ry
     Harris-Foulkes estimate   =    -343.62954474 Ry
     estimated scf accuracy    <       0.00000033 Ry

     total magnetization       =     2.87 Bohr mag/cell
     absolute magnetization    =     3.30 Bohr mag/cell

     iteration # 13     ecut=    45.00 Ry     beta=0.20
     Davidson diagonalization with overlap
     ethr =  8.23E-10,  avg # of iterations =  1.7

     Magnetic moment per site:
     atom:    1    charge:    3.0544    magn:    0.3440    constr:    0.0000
     atom:    2    charge:    3.0527    magn:    0.3438    constr:    0.0000
     atom:    3    charge:    3.0544    magn:    0.3440    constr:    0.0000
     atom:    4    charge:    3.0544    magn:    0.3440    constr:    0.0000

     total cpu time spent up to now is      370.7 secs

     End of self-consistent calculation

 ------ SPIN UP ------------


          k = 0.0000 0.0000 0.0000 (  1503 PWs)   bands (ev):

     5.2289   9.4937   9.4937   9.4937   9.9341   9.9347   9.9347  11.6678
    11.6678  11.6678  12.8175  12.8175  13.5174  13.5174  13.5174  13.6030
    13.6030  13.6030  13.6032  13.6032  13.6032  16.7428  16.7430  16.7430
    23.3392  23.3392  23.3392  29.0912  29.0912  29.0912  29.0915  29.0915
    29.0915  34.1030  34.1030  34.1033  37.3463  37.3464  37.3464  38.0318
    41.8749  41.8749  41.8749  45.3859  45.3859  45.3859  47.5698  54.3402
    54.3402  54.3402  57.2612  58.5619

          k = 0.0000 0.0000 0.0473 (  1478 PWs)   bands (ev):

     5.5906   9.5131   9.6741   9.6741  10.0423  10.0574  10.0579  11.5428
    11.7676  11.7676  12.7023  12.8625  12.9702  12.9704  13.3676  13.3676
    13.4326  13.4326  13.4692  13.6035  13.6035  15.1468  17.6790  17.6792
    23.4382  23.4382  25.5830  27.3494  27.3497  27.9635  27.9635  29.6428
    29.6428  34.2215  36.2646  36.2649  37.3772  37.4769  39.2929  39.2930
    39.6490  39.6490  40.3561  46.8142  47.4743  47.4743  48.4058  50.8797
    55.3999  55.3999  55.9782  55.9787

          k = 0.0000 0.0000 0.0946 (  1510 PWs)   bands (ev):

     6.6279   9.2771  10.1019  10.1020  10.3423  10.4307  10.4314  11.2084
    11.9399  11.9407  12.0567  12.0567  12.4233  12.9885  12.9903  12.9903
    13.0032  13.0151  13.0151  13.3386  13.6040  13.6040  19.6089  19.6091
    23.7665  23.7665  24.5998  24.5998  26.1891  26.1891  29.8639  31.1978
    31.1978  34.5913  36.2208  36.4518  36.4518  37.8324  38.0186  40.2808
    40.2812  43.3968  43.4278  43.4279  50.2435  50.3927  50.3928  50.4112
    50.4112  54.3356  55.2837  55.2837

          k = 0.0000 0.0000-0.1419 (  1510 PWs)   bands (ev):

     8.1033   8.1260  10.3723  10.3723  10.7499  10.7817  11.0467  11.0469
    11.0783  11.0785  12.2293  12.2738  12.4849  12.4849  12.5087  12.5087
    12.7598  12.7598  13.1534  13.1710  13.6043  13.6043  21.9356  21.9358
    21.9918  21.9920  24.1633  24.1634  25.2228  25.2228  33.5227  33.5227
    33.5628  33.5628  34.3681  34.4504  35.2407  35.2593  39.5038  39.6344
    44.9901  44.9903  45.1033  45.1036  46.9030  46.9031  51.5773  51.5773
    53.4702  53.4702  53.5754  53.5754

          k = 0.0000 0.0473 0.0473 (  1490 PWs)   bands (ev):

     5.9439   9.7075   9.7076   9.8336  10.1564  10.1569  10.1702  11.4847
    11.8115  11.8281  12.6327  12.6669  12.6892  12.7015  12.8590  13.2433
    13.3641  13.3642  13.4309  13.4312  13.4910  16.0553  16.0553  18.4343
    23.4484  24.6343  25.7739  25.7742  27.8191  27.8191  28.4465  28.4471
    30.1618  35.4713  35.5996  36.4732  36.4737  36.7724  39.4619  39.4624
    40.7142  41.9452  42.9236  44.6231  45.6823  49.0072  49.8079  52.2853
    53.0115  54.6587  54.6599  55.6132

          k = 0.0000 0.0473 0.0946 (  1511 PWs)   bands (ev):

     6.9542   9.5095  10.1801  10.2279  10.4313  10.4837  10.5017  11.2116
    11.7069  11.8431  11.9547  12.0680  12.0955  12.5173  12.9284  12.9943
    13.0176  13.0348  13.1835  13.4267  13.4346  14.1032  17.6424  20.1896
    21.6672  24.1312  25.0543  26.0849  26.8878  29.1160  29.4126  29.4657
    30.4856  33.2009  33.9306  37.1254  38.0552  39.8314  40.0109  40.0864
    40.5357  43.3648  44.2797  46.3635  47.1628  47.9224  49.2236  50.6752
    52.2589  52.6006  54.0662  55.5575

          k = 0.0000 0.0473-0.1419 (  1500 PWs)   bands (ev):

     8.3824   8.4037  10.5202  10.5217  10.8000  10.8307  10.9205  10.9464
    11.0614  11.0922  11.8705  11.9033  12.4854  12.5097  12.7170  12.7276
    12.7450  12.7465  13.3411  13.3414  13.4230  13.4278  19.4747  19.5034
    22.4303  22.4809  24.9251  24.9622  27.8059  27.8176  30.9773  30.9951
    31.5016  31.5144  35.2394  35.3349  38.2681  38.2760  41.4786  41.5583
    42.4885  42.5171  45.2676  45.3747  49.3011  49.3986  49.6803  49.7256
    51.9271  51.9620  52.4880  52.5179

          k = 0.0000 0.0946 0.0946 (  1506 PWs)   bands (ev):

     7.8714  10.0872  10.0874  10.4491  10.6916  10.6930  10.7104  11.1443
    11.3845  11.3847  11.5357  11.8464  12.1951  12.4334  12.7184  12.8681
    12.8686  13.0038  13.0042  13.1693  13.3798  15.3279  15.3279  18.9093
    21.6947  24.6822  26.3096  26.3097  27.4158  27.4164  30.4799  31.1097
    31.1160  31.2278  33.0658  36.2837  40.9618  41.2945  41.2948  42.4393
    42.8504  43.1211  43.1212  46.4566  46.6565  47.7849  47.7857  50.9488
    51.5041  51.5323  52.4710  54.6629

          k = 0.0000 0.0946-0.1419 (  1514 PWs)   bands (ev):

     9.1196   9.1371  10.5389  10.5589  10.9222  10.9415  10.9570  10.9641
    11.0810  11.1097  11.5791  11.6006  12.5195  12.5355  12.5370  12.5433
    12.6037  12.6069  13.0303  13.0449  14.0251  14.0289  16.8297  16.8522
    23.7740  23.8127  25.7335  25.7635  28.1579  28.1769  29.0388  29.0418
    32.4127  32.4199  36.1867  36.2793  39.7707  39.7899  42.4554  42.4737
    42.5828  42.5915  46.0745  46.1618  47.1864  47.2389  49.7389  49.7873
    50.9662  51.0467  52.8762  52.8977

          k = 0.0000-0.1419-0.1419 (  1516 PWs)   bands (ev):

     9.9596   9.9747   9.9747   9.9892  11.0299  11.0572  11.0573  11.0843
    11.3545  11.3624  11.3624  11.3700  12.3910  12.3934  12.3934  12.3964
    12.6761  12.6986  12.6987  12.7209  15.0693  15.0799  15.0799  15.0907
    25.7171  25.7444  25.7444  25.7711  27.0761  27.0937  27.0937  27.1122
    37.2715  37.2973  37.2973  37.3243  37.9214  37.9545  37.9546  37.9832
    46.5751  46.5752  46.5765  46.5769  48.4734  48.5221  48.5221  48.5705
    51.0315  51.0349  51.0350  51.0376

          k = 0.0473 0.0473 0.0473 (  1490 PWs)   bands (ev):

     6.2857   9.8648   9.8650   9.8650  10.2681  10.2689  10.2689  11.4510
    11.8472  11.8472  12.3930  12.3930  12.3932  12.7742  12.7742  13.0153
    13.0158  13.0158  13.5438  13.5438  13.5440  16.6710  16.6711  16.6711
    24.8803  24.8805  24.8805  26.1048  26.1048  26.1051  30.6689  30.6693
    30.6693  32.9603  35.6032  35.6032  35.6036  38.7560  40.5188  40.5188
    42.1517  42.1517  42.1517  45.9792  47.0127  47.0127  50.8242  50.8242
    54.4902  54.5261  54.5269  54.5272

          k = 0.0473 0.0473 0.0946 (  1514 PWs)   bands (ev):

     7.2570   9.6658  10.2383  10.2386  10.5469  10.5761  10.5763  11.2475
    11.6974  11.6975  11.8833  11.9302  11.9841  12.6227  12.6906  12.7762
    12.7782  13.0082  13.4489  13.4490  13.4811  14.4606  17.9949  17.9950
    22.2750  22.2751  26.1514  26.7614  26.7616  29.8504  29.8507  30.2393
    30.4438  32.1273  36.0793  37.2599  37.2729  38.2145  38.2145  41.7460
    42.8380  43.8283  46.3360  46.3361  47.1858  48.4376  49.5263  49.5264
    50.0034  52.3487  52.3822  54.8126

          k = 0.0473 0.0473-0.1419 (  1518 PWs)   bands (ev):

     8.6092   8.6281  10.6122  10.6135  10.6769  10.6772  10.8957  10.9244
    11.3140  11.3141  11.7776  11.8097  12.2446  12.2556  12.6129  12.6133
    13.1631  13.1857  13.2740  13.2789  13.3945  13.3946  19.1396  19.1397
    20.7160  20.7161  27.7375  27.7419  27.9501  27.9662  28.4074  28.4142
    34.3667  34.4004  34.8815  34.9465  37.4632  37.5312  41.6082  41.6082
    44.0547  44.0898  44.7352  44.7355  48.8125  48.8629  50.2190  50.2367
    51.4402  51.4404  52.9825  52.9931

          k = 0.0473 0.0946 0.0946 (  1501 PWs)   bands (ev):

     8.0890   9.9781   9.9785  10.2611  10.8589  10.9016  10.9021  11.2918
    11.4981  11.4984  11.6290  11.8481  11.9696  12.4357  12.4361  12.4528
    12.7479  13.2879  13.3526  13.3697  13.3716  15.4603  15.4604  18.2543
    20.3729  23.4552  23.4552  27.4485  27.5770  30.6441  30.6443  31.5792
    31.5796  33.4736  34.7094  36.3570  38.7464  38.7467  39.6113  42.3607
    43.1198  44.1748  45.8101  45.8102  48.4889  48.4894  49.7497  49.9118
    50.2283  50.8633  51.5918  52.2453

          k = 0.0473 0.0946-0.1419 (  1510 PWs)   bands (ev):

     9.1598   9.1717  10.1938  10.1974  11.0662  11.0673  11.1970  11.2203
    11.5013  11.5109  11.6138  11.6350  12.1113  12.1193  12.3189  12.3240
    13.0325  13.0415  13.2532  13.2625  13.9350  13.9384  16.8166  16.8350
    21.3770  21.3917  25.1925  25.2032  28.9395  28.9472  32.5183  32.5232
    32.7136  32.7204  36.3143  36.3907  39.5534  39.5707  39.8414  39.8543
    44.5562  44.5628  45.0265  45.0620  47.0326  47.0510  49.8454  49.8756
    51.1009  51.1191  53.1385  53.1671

          k = 0.0473-0.1419-0.1419 (  1492 PWs)   bands (ev):

     9.7274   9.7328   9.7328   9.7374  11.4377  11.4455  11.4456  11.4526
    11.5176  11.5330  11.5330  11.5488  12.0802  12.0879  12.0879  12.0958
    13.0052  13.0193  13.0193  13.0336  14.9846  14.9962  14.9963  15.0080
    22.9926  23.0041  23.0041  23.0156  30.4665  30.4687  30.4687  30.4715
    37.5521  37.5728  37.5728  37.5987  37.7772  37.8083  37.8083  37.8314
    46.0267  46.0267  46.0308  46.0345  46.0631  46.0943  46.0943  46.1142
    54.0030  54.0209  54.0214  54.0461

          k = 0.0946 0.0946 0.0946 (  1502 PWs)   bands (ev):

     8.6327   9.8165   9.8171   9.8171  11.2525  11.2531  11.2531  11.7523
    11.8038  11.8038  11.8137  11.8227  11.8227  12.0910  12.0910  12.0915
    13.1394  13.1394  13.4940  13.4940  13.4942  15.8439  15.8441  15.8441
    20.9744  20.9744  20.9745  24.6864  31.9921  31.9921  31.9925  34.6850
    34.6854  34.6854  36.7188  36.7188  36.7193  37.3227  39.3293  39.3293
    43.8092  43.8092  47.0939  47.4197  47.4197  47.4214  47.4672  47.4674
    47.4674  51.6989  51.6996  51.6996

          k = 0.0946 0.0946-0.1419 (  1510 PWs)   bands (ev):

     9.2559   9.2592   9.7497   9.7501  11.3683  11.3687  11.6376  11.6553
    11.8553  11.8578  11.9696  11.9744  11.9870  12.0045  12.0911  12.0917
    13.4154  13.4172  13.4242  13.4257  13.8341  13.8355  16.1347  16.1348
    19.9444  19.9445  22.5147  22.5258  32.9200  32.9201  34.0589  34.0594
    35.8361  35.8675  36.6522  36.6704  38.3531  38.4070  38.8755  38.8756
    44.0044  44.0047  44.2660  44.2924  45.3602  45.3662  47.8937  47.8937
    48.8848  48.8964  52.2412  52.2430

          k = 0.0946-0.1419-0.1419 (  1496 PWs)   bands (ev):

     9.4336   9.4344   9.4344   9.4344  11.6019  11.6067  11.6067  11.6110
    11.7861  11.7909  11.7909  11.7961  12.5210  12.5310  12.5310  12.5411
    13.3390  13.3467  13.3467  13.3545  14.6263  14.6395  14.6396  14.6528
    20.6466  20.6558  20.6559  20.6652  34.6426  34.6458  34.6458  34.6493
    37.6578  37.6718  37.6719  37.6868  38.3186  38.3344  38.3344  38.3475
    43.4402  43.4518  43.4519  43.4629  44.5179  44.5205  44.5205  44.5228
    49.6880  49.6930  49.6930  49.6992

          k =-0.1419-0.1419-0.1419 (  1472 PWs)   bands (ev):

     9.3209   9.3216   9.3216   9.3216  11.6819  11.6819  11.6819  11.6821
    11.6821  11.6826  11.6826  11.6826  13.4698  13.4698  13.4698  13.4707
    13.4707  13.4708  13.4708  13.4709  14.0047  14.0055  14.0055  14.0055
    19.7740  19.7740  19.7740  19.7742  36.4960  36.4961  36.4961  36.4961
    38.9594  38.9594  38.9596  38.9596  38.9596  38.9605  38.9605  38.9605
    42.1773  42.1773  42.1776  42.1776  42.1776  42.1780  42.1780  42.1780
    48.0463  48.0463  48.0463  48.0466

          k =-0.0473 0.0000 0.0473 (  1490 PWs)   bands (ev):

     5.9439   9.7075   9.7076   9.8336  10.1564  10.1569  10.1702  11.4847
    11.8115  11.8281  12.6327  12.6669  12.6892  12.7015  12.8590  13.2433
    13.3641  13.3642  13.4309  13.4312  13.4910  16.0553  16.0554  18.4343
    23.4484  24.6343  25.7739  25.7742  27.8190  27.8191  28.4465  28.4471
    30.1618  35.4713  35.5996  36.4733  36.4737  36.7724  39.4618  39.4625
    40.7142  41.9452  42.9236  44.6231  45.6823  49.0072  49.8079  52.2853
    53.0115  54.6587  54.6599  55.6132

          k =-0.0473 0.0000 0.0946 (  1511 PWs)   bands (ev):

     6.9542   9.5095  10.1801  10.2279  10.4313  10.4837  10.5017  11.2116
    11.7069  11.8431  11.9547  12.0680  12.0955  12.5173  12.9284  12.9943
    13.0176  13.0348  13.1835  13.4267  13.4346  14.1032  17.6424  20.1896
    21.6672  24.1312  25.0543  26.0849  26.8878  29.1160  29.4126  29.4657
    30.4856  33.2009  33.9306  37.1254  38.0552  39.8314  40.0109  40.0864
    40.5357  43.3648  44.2797  46.3635  47.1628  47.9224  49.2236  50.6752
    52.2589  52.6006  54.0662  55.5575

          k =-0.0946 0.0000 0.0946 (  1506 PWs)   bands (ev):

     7.8714  10.0872  10.0874  10.4491  10.6916  10.6930  10.7104  11.1443
    11.3846  11.3847  11.5357  11.8464  12.1951  12.4334  12.7184  12.8681
    12.8686  13.0038  13.0042  13.1693  13.3798  15.3279  15.3279  18.9093
    21.6947  24.6822  26.3096  26.3097  27.4158  27.4164  30.4799  31.1097
    31.1160  31.2278  33.0658  36.2837  40.9618  41.2945  41.2948  42.4393
    42.8504  43.1212  43.1212  46.4566  46.6565  47.7849  47.7857  50.9488
    51.5041  51.5323  52.4710  54.6594

          k = 0.0473-0.0473 0.0473 (  1490 PWs)   bands (ev):

     6.2857   9.8648   9.8650   9.8650  10.2681  10.2689  10.2689  11.4510
    11.8472  11.8472  12.3930  12.3930  12.3932  12.7742  12.7742  13.0153
    13.0158  13.0158  13.5438  13.5438  13.5440  16.6710  16.6711  16.6711
    24.8803  24.8805  24.8805  26.1047  26.1048  26.1051  30.6690  30.6693
    30.6693  32.9603  35.6032  35.6032  35.6036  38.7560  40.5188  40.5188
    42.1517  42.1517  42.1518  45.9792  47.0127  47.0127  50.8242  50.8242
    54.4904  54.5261  54.5268  54.5270

          k = 0.0473-0.0473 0.0946 (  1514 PWs)   bands (ev):

     7.2570   9.6658  10.2383  10.2386  10.5469  10.5761  10.5763  11.2475
    11.6974  11.6975  11.8833  11.9302  11.9841  12.6227  12.6906  12.7762
    12.7783  13.0082  13.4489  13.4490  13.4811  14.4606  17.9949  17.9950
    22.2750  22.2751  26.1514  26.7615  26.7616  29.8504  29.8507  30.2393
    30.4438  32.1273  36.0793  37.2599  37.2729  38.2145  38.2145  41.7460
    42.8380  43.8283  46.3360  46.3361  47.1858  48.4376  49.5263  49.5264
    50.0034  52.3487  52.3822  54.8128

          k =-0.0946 0.0473 0.0473 (  1514 PWs)   bands (ev):

     7.2570   9.6658  10.2383  10.2386  10.5469  10.5761  10.5763  11.2475
    11.6974  11.6975  11.8833  11.9302  11.9841  12.6227  12.6906  12.7762
    12.7782  13.0082  13.4489  13.4490  13.4811  14.4606  17.9949  17.9950
    22.2750  22.2751  26.1514  26.7614  26.7616  29.8504  29.8507  30.2393
    30.4438  32.1273  36.0793  37.2599  37.2729  38.2145  38.2145  41.7460
    42.8380  43.8283  46.3360  46.3361  47.1858  48.4376  49.5263  49.5264
    50.0034  52.3487  52.3822  54.8125

          k = 0.0473-0.0473-0.1419 (  1518 PWs)   bands (ev):

     8.6092   8.6281  10.6122  10.6135  10.6769  10.6772  10.8957  10.9244
    11.3140  11.3141  11.7776  11.8097  12.2446  12.2556  12.6129  12.6133
    13.1631  13.1857  13.2740  13.2789  13.3945  13.3946  19.1396  19.1397
    20.7160  20.7161  27.7375  27.7419  27.9501  27.9662  28.4074  28.4142
    34.3667  34.4004  34.8815  34.9465  37.4632  37.5312  41.6081  41.6083
    44.0547  44.0898  44.7352  44.7355  48.8125  48.8629  50.2190  50.2367
    51.4401  51.4404  52.9827  52.9932

          k = 0.0946-0.0473 0.0946 (  1501 PWs)   bands (ev):

     8.0890   9.9781   9.9785  10.2611  10.8589  10.9016  10.9021  11.2918
    11.4981  11.4984  11.6290  11.8481  11.9696  12.4357  12.4361  12.4528
    12.7479  13.2879  13.3526  13.3697  13.3716  15.4603  15.4604  18.2543
    20.3729  23.4552  23.4552  27.4485  27.5770  30.6441  30.6443  31.5792
    31.5796  33.4736  34.7094  36.3570  38.7464  38.7467  39.6113  42.3607
    43.1198  44.1748  45.8101  45.8102  48.4889  48.4894  49.7497  49.9118
    50.2283  50.8633  51.5917  52.2450

          k =-0.0946 0.0473 0.0946 (  1501 PWs)   bands (ev):

     8.0890   9.9781   9.9785  10.2611  10.8589  10.9016  10.9021  11.2918
    11.4981  11.4984  11.6290  11.8481  11.9696  12.4357  12.4362  12.4528
    12.7479  13.2879  13.3526  13.3697  13.3716  15.4604  15.4604  18.2543
    20.3729  23.4551  23.4552  27.4485  27.5770  30.6441  30.6443  31.5792
    31.5796  33.4736  34.7094  36.3570  38.7464  38.7467  39.6113  42.3607
    43.1198  44.1748  45.8101  45.8101  48.4889  48.4894  49.7497  49.9118
    50.2283  50.8633  51.5917  52.2451

          k = 0.0946-0.0473-0.1419 (  1510 PWs)   bands (ev):

     9.1598   9.1717  10.1938  10.1974  11.0662  11.0673  11.1970  11.2203
    11.5013  11.5109  11.6138  11.6350  12.1113  12.1193  12.3189  12.3240
    13.0325  13.0415  13.2532  13.2625  13.9350  13.9384  16.8166  16.8350
    21.3770  21.3917  25.1925  25.2032  28.9395  28.9472  32.5183  32.5232
    32.7136  32.7204  36.3143  36.3907  39.5534  39.5707  39.8414  39.8543
    44.5562  44.5628  45.0265  45.0620  47.0326  47.0510  49.8454  49.8756
    51.1009  51.1191  53.1385  53.1671

          k = 0.0946-0.0946 0.0946 (  1502 PWs)   bands (ev):

     8.6327   9.8165   9.8171   9.8171  11.2525  11.2531  11.2531  11.7523
    11.8038  11.8038  11.8138  11.8227  11.8227  12.0910  12.0910  12.0915
    13.1394  13.1394  13.4940  13.4941  13.4942  15.8440  15.8441  15.8441
    20.9744  20.9744  20.9745  24.6864  31.9921  31.9921  31.9925  34.6851
    34.6854  34.6854  36.7187  36.7188  36.7194  37.3227  39.3293  39.3293
    43.8092  43.8092  47.0939  47.4197  47.4197  47.4214  47.4672  47.4674
    47.4674  51.6990  51.6996  51.6997

          k = 0.0946-0.0946-0.1419 (  1510 PWs)   bands (ev):

     9.2559   9.2592   9.7497   9.7501  11.3683  11.3687  11.6376  11.6553
    11.8553  11.8578  11.9696  11.9744  11.9870  12.0045  12.0911  12.0917
    13.4154  13.4172  13.4242  13.4256  13.8341  13.8355  16.1347  16.1348
    19.9444  19.9445  22.5147  22.5258  32.9199  32.9201  34.0589  34.0594
    35.8361  35.8675  36.6522  36.6704  38.3531  38.4070  38.8755  38.8756
    44.0044  44.0047  44.2660  44.2924  45.3602  45.3662  47.8937  47.8937
    48.8848  48.8964  52.2411  52.2430

 ------ SPIN DOWN ----------


          k = 0.0000 0.0000 0.0000 (  1503 PWs)   bands (ev):

     5.1726   9.9644   9.9644   9.9644  10.6614  10.6622  10.6622  12.5576
    12.5576  12.5576  13.6084  13.6084  14.3425  14.3426  14.3426  14.6217
    14.6217  14.6217  14.6221  14.6221  14.6221  16.6616  16.6619  16.6619
    23.6465  23.6465  23.6465  29.0764  29.0764  29.0764  29.0767  29.0767
    29.0768  34.2648  34.2648  34.2651  37.4886  37.4888  37.4888  37.8215
    41.8475  41.8475  41.8475  45.4569  45.4569  45.4569  47.4058  54.5238
    54.5238  54.5238  57.7888  58.5906

          k = 0.0000 0.0000 0.0473 (  1478 PWs)   bands (ev):

     5.5342   9.9358  10.1550  10.1550  10.7785  10.7822  10.7827  12.4193
    12.6615  12.6615  13.4835  13.6552  13.8008  13.8013  14.1797  14.1797
    14.2919  14.4342  14.4342  14.6223  14.6223  15.2181  17.7822  17.7825
    23.7302  23.7302  25.7847  27.4168  27.4171  27.9901  27.9902  29.6444
    29.6444  34.3706  36.3433  36.3435  37.2353  37.6166  39.4111  39.4112
    39.6926  39.6926  40.2868  46.8316  47.4463  47.4463  48.4830  50.8559
    55.6070  55.6070  55.9018  55.9024

          k = 0.0000 0.0000 0.0946 (  1510 PWs)   bands (ev):

     6.5758   9.4863  10.6079  10.6079  11.1041  11.1499  11.1507  12.0508
    12.6786  12.6794  12.9637  12.9637  13.1701  13.3836  13.7777  13.7777
    13.7876  13.9719  13.9719  14.1548  14.6229  14.6229  19.7916  19.7918
    24.0134  24.0135  24.7389  24.7390  26.2869  26.2870  29.9590  31.2337
    31.2337  34.7027  36.1836  36.5230  36.5230  37.7406  38.1622  40.2842
    40.2846  43.5255  43.5256  43.6144  50.1952  50.3130  50.3130  50.3170
    50.3171  54.2242  55.5034  55.5035

          k = 0.0000 0.0000-0.1419 (  1510 PWs)   bands (ev):

     8.0946   8.1180  10.8942  10.8943  11.5482  11.5823  11.7646  11.7653
    11.7970  11.7977  12.8862  12.9349  13.4137  13.4137  13.4386  13.4386
    13.5205  13.5205  13.9606  13.9789  14.6232  14.6232  22.1148  22.1150
    22.1722  22.1724  24.3589  24.3590  25.3814  25.3815  33.5870  33.5870
    33.6270  33.6270  34.3456  34.4302  35.2876  35.3101  39.6938  39.8267
    44.9422  44.9425  45.0584  45.0587  46.9763  46.9764  51.7555  51.7555
    53.3562  53.3562  53.4614  53.4614

          k = 0.0000 0.0473 0.0473 (  1490 PWs)   bands (ev):

     5.8885  10.1432  10.1432  10.3337  10.8788  10.8896  10.8902  12.3476
    12.7107  12.7148  13.4077  13.4315  13.4473  13.4743  13.6571  14.0451
    14.1679  14.1679  14.4329  14.4331  14.5024  16.3700  16.3701  18.5968
    23.7099  24.7615  25.9624  25.9627  27.9006  27.9006  28.4867  28.4875
    30.1719  35.5728  35.5924  36.5417  36.5421  36.7908  39.5781  39.5787
    40.6300  42.0303  42.8949  44.5620  45.7414  49.1625  49.7298  52.4604
    52.9607  54.6150  54.6162  55.5506

          k = 0.0000 0.0473 0.0946 (  1511 PWs)   bands (ev):

     6.9068   9.7335  10.6508  10.7700  11.1539  11.1885  11.2277  12.0432
    12.4074  12.5736  12.7565  12.8084  12.9795  13.2926  13.7044  13.7862
    13.8550  13.9406  13.9703  14.4295  14.4403  14.8200  17.9815  20.3913
    21.8645  24.3601  25.2043  26.2181  27.0135  29.2230  29.4744  29.5336
    30.5834  33.2778  33.9735  37.1655  38.0918  39.7813  39.9557  40.2037
    40.5334  43.4459  44.4851  46.4273  47.0817  47.9021  49.2046  50.5982
    52.2111  52.5060  54.2708  55.7869

          k = 0.0000 0.0473-0.1419 (  1500 PWs)   bands (ev):

     8.3859   8.4081  11.0322  11.0350  11.5836  11.6138  11.6142  11.6417
    11.7822  11.8140  12.6193  12.6572  13.4168  13.4413  13.4965  13.5026
    13.5107  13.5135  14.1897  14.1908  14.4263  14.4317  19.7557  19.7849
    22.6213  22.6724  25.0949  25.1350  27.9213  27.9352  31.0906  31.1065
    31.5601  31.5712  35.2638  35.3591  38.2688  38.2745  41.6280  41.7105
    42.4788  42.5107  45.2164  45.3262  49.3656  49.4614  49.6100  49.6556
    51.8397  51.8761  52.6438  52.6733

          k = 0.0000 0.0946 0.0946 (  1506 PWs)   bands (ev):

     7.8476  10.3635  10.3637  11.1218  11.2038  11.4364  11.4379  11.9477
    12.0877  12.0877  12.2572  12.6478  13.1197  13.1914  13.4832  13.6170
    13.6176  13.9737  13.9739  14.1595  14.2326  15.9387  15.9389  19.2171
    21.9118  24.8809  26.4745  26.4746  27.5164  27.5170  30.6092  31.1972
    31.2042  31.2960  33.1176  36.3179  40.8950  41.2746  41.2750  42.4763
    42.7306  43.1632  43.1632  46.5746  46.6840  47.8258  47.8267  51.0038
    51.4073  51.4565  52.6609  54.5552

          k = 0.0000 0.0946-0.1419 (  1514 PWs)   bands (ev):

     9.1792   9.1983  10.9650  10.9849  11.5986  11.6003  11.6986  11.7287
    11.8107  11.8407  12.3251  12.3490  13.2813  13.2820  13.3506  13.3540
    13.4670  13.4927  14.0076  14.0234  14.8402  14.8450  17.2968  17.3188
    23.9776  24.0154  25.8835  25.9164  28.3193  28.3363  29.1277  29.1323
    32.4827  32.4920  36.2138  36.3066  39.7694  39.7864  42.4004  42.4173
    42.6008  42.6086  46.0100  46.0992  47.2641  47.3191  49.6828  49.7325
    51.0823  51.1624  52.7886  52.8090

          k = 0.0000-0.1419-0.1419 (  1516 PWs)   bands (ev):

    10.1785  10.1954  10.1954  10.2119  11.7748  11.8041  11.8041  11.8328
    12.0331  12.0422  12.0422  12.0511  13.1396  13.1423  13.1424  13.1458
    13.6332  13.6569  13.6569  13.6805  15.7599  15.7690  15.7690  15.7779
    25.9117  25.9373  25.9373  25.9623  27.1972  27.2169  27.2169  27.2377
    37.3462  37.3709  37.3709  37.3977  37.8875  37.9191  37.9191  37.9454
    46.4529  46.4529  46.4530  46.4561  48.4593  48.5093  48.5093  48.5590
    51.1295  51.1355  51.1355  51.1406

          k = 0.0473 0.0473 0.0473 (  1490 PWs)   bands (ev):

     6.2332  10.3278  10.3279  10.3279  10.9776  10.9786  10.9786  12.2940
    12.7347  12.7347  13.1134  13.1134  13.1134  13.5715  13.5715  13.8570
    13.8576  13.8576  14.5019  14.5019  14.5023  17.0126  17.0128  17.0128
    25.0102  25.0104  25.0104  26.2782  26.2782  26.2785  30.6898  30.6903
    30.6903  33.0262  35.6967  35.6967  35.6970  38.5974  40.5724  40.5724
    42.2336  42.2336  42.2336  45.8878  46.9665  46.9665  50.9906  50.9906
    54.4774  54.4784  54.4786  54.8133

          k = 0.0473 0.0473 0.0946 (  1514 PWs)   bands (ev):

     7.2201   9.9303  10.7791  10.7793  11.2121  11.2130  11.2689  12.0528
    12.4090  12.4091  12.5686  12.7675  12.8541  13.4791  13.5100  13.5738
    13.5770  13.8413  14.3922  14.4218  14.4224  15.0980  18.3222  18.3223
    22.4842  22.4842  26.2942  26.9099  26.9101  29.9244  29.9247  30.3522
    30.5308  32.1728  36.1523  37.1770  37.3368  38.2435  38.2435  41.7562
    42.9158  43.8422  46.3787  46.3787  47.2256  48.3818  49.5115  49.5118
    50.0050  52.2729  52.3413  54.9265

          k = 0.0473 0.0473-0.1419 (  1518 PWs)   bands (ev):

     8.6413   8.6618  11.2002  11.2004  11.2602  11.2614  11.6546  11.6859
    12.0372  12.0375  12.5357  12.5716  13.1062  13.1152  13.3874  13.3879
    13.9769  14.0012  14.1469  14.1494  14.3757  14.3759  19.3958  19.3959
    21.0202  21.0203  27.8511  27.8552  28.0907  28.1059  28.5221  28.5296
    34.4356  34.4688  34.8519  34.9191  37.5405  37.6090  41.5883  41.5884
    44.1372  44.1755  44.7228  44.7232  48.7294  48.7801  50.1723  50.1901
    51.4721  51.4722  53.1407  53.1578

          k = 0.0473 0.0946 0.0946 (  1501 PWs)   bands (ev):

     8.0990  10.3745  10.3748  10.8873  11.3755  11.5125  11.5133  12.0281
    12.2279  12.2283  12.3502  12.6589  12.8040  13.2444  13.2460  13.2500
    13.6015  14.1473  14.2908  14.2929  14.3117  16.0185  16.0187  18.5279
    20.7175  23.6709  23.6709  27.6051  27.7081  30.7065  30.7067  31.6716
    31.6721  33.5276  34.7357  36.3807  38.7598  38.7602  39.5302  42.4764
    43.1091  44.1191  45.8032  45.8032  48.5396  48.5400  49.6805  49.8945
    50.2041  50.9337  51.6485  52.1700

          k = 0.0473 0.0946-0.1419 (  1510 PWs)   bands (ev):

     9.3063   9.3218  10.7332  10.7401  11.6296  11.6328  11.8509  11.8775
    12.2032  12.2154  12.3825  12.4063  12.9267  12.9328  13.1044  13.1087
    13.9057  13.9189  14.1982  14.2088  14.7366  14.7413  17.2299  17.2475
    21.6773  21.6904  25.3919  25.4010  29.0383  29.0481  32.5761  32.5787
    32.7807  32.7896  36.3270  36.4026  39.5369  39.5528  39.8620  39.8761
    44.5425  44.5480  45.0161  45.0537  47.0105  47.0317  49.8802  49.9104
    51.0390  51.0564  53.2169  53.2615

          k = 0.0473-0.1419-0.1419 (  1492 PWs)   bands (ev):

    10.0819  10.0917  10.0917  10.1008  12.0140  12.0271  12.0271  12.0399
    12.2285  12.2441  12.2441  12.2597  12.8688  12.8756  12.8756  12.8827
    13.9249  13.9412  13.9412  13.9577  15.6384  15.6482  15.6483  15.6579
    23.2508  23.2606  23.2606  23.2703  30.5465  30.5508  30.5508  30.5557
    37.6250  37.6408  37.6408  37.6702  37.7276  37.7610  37.7610  37.7782
    45.9596  45.9597  45.9614  45.9635  46.0860  46.1159  46.1159  46.1410
    54.0634  54.0822  54.0823  54.1094

          k = 0.0946 0.0946 0.0946 (  1502 PWs)   bands (ev):

     8.7639  10.3317  10.3323  10.3323  11.8214  11.8220  11.8220  12.2854
    12.4993  12.4993  12.5012  12.6269  12.6269  12.8924  12.8924  12.8929
    14.0305  14.0305  14.4316  14.4316  14.4320  16.2725  16.2728  16.2728
    21.3129  21.3129  21.3129  24.9104  32.0385  32.0385  32.0389  34.7459
    34.7463  34.7463  36.7293  36.7293  36.7299  37.1476  39.4155  39.4155
    43.8178  43.8178  47.1075  47.3652  47.3652  47.3672  47.4679  47.4683
    47.4683  51.7284  51.7291  51.7291

          k = 0.0946 0.0946-0.1419 (  1510 PWs)   bands (ev):

     9.5873   9.5948  10.2940  10.2945  12.0106  12.0110  12.3067  12.3242
    12.5452  12.5672  12.6575  12.6594  12.7002  12.7002  12.7633  12.7634
    14.3342  14.3371  14.3623  14.3634  14.5560  14.5599  16.4647  16.4648
    20.3836  20.3837  22.8040  22.8135  32.9269  32.9270  34.1448  34.1455
    35.7241  35.7574  36.7248  36.7418  38.4336  38.4871  38.8480  38.8481
    44.0298  44.0302  44.2402  44.2669  45.3673  45.3747  47.8512  47.8513
    48.9366  48.9480  52.3420  52.3438

          k = 0.0946-0.1419-0.1419 (  1496 PWs)   bands (ev):

     9.9071   9.9097   9.9097   9.9115  12.3456  12.3502  12.3502  12.3545
    12.5725  12.5770  12.5770  12.5820  12.9688  12.9806  12.9806  12.9924
    14.2661  14.2748  14.2748  14.2837  15.1613  15.1722  15.1722  15.1827
    21.0413  21.0491  21.0492  21.0570  34.6162  34.6218  34.6219  34.6278
    37.6232  37.6357  37.6357  37.6493  38.3887  38.4037  38.4037  38.4161
    43.4697  43.4828  43.4829  43.4955  44.5079  44.5113  44.5114  44.5144
    49.7745  49.7795  49.7795  49.7859

          k =-0.1419-0.1419-0.1419 (  1472 PWs)   bands (ev):

     9.8278   9.8286   9.8286   9.8286  12.4650  12.4650  12.4650  12.4655
    12.4655  12.4658  12.4658  12.4658  13.9018  13.9019  13.9019  13.9029
    14.4040  14.4040  14.4044  14.4044  14.4044  14.4048  14.4048  14.4048
    20.2592  20.2592  20.2592  20.2592  36.3075  36.3077  36.3077  36.3078
    39.0300  39.0300  39.0301  39.0302  39.0302  39.0311  39.0311  39.0311
    42.2064  42.2064  42.2065  42.2066  42.2066  42.2071  42.2071  42.2071
    48.1571  48.1571  48.1571  48.1575

          k =-0.0473 0.0000 0.0473 (  1490 PWs)   bands (ev):

     5.8885  10.1432  10.1432  10.3337  10.8788  10.8896  10.8902  12.3476
    12.7107  12.7148  13.4077  13.4315  13.4473  13.4743  13.6571  14.0451
    14.1679  14.1679  14.4329  14.4331  14.5024  16.3701  16.3701  18.5968
    23.7099  24.7615  25.9623  25.9627  27.9005  27.9006  28.4867  28.4875
    30.1719  35.5728  35.5924  36.5417  36.5421  36.7908  39.5780  39.5788
    40.6300  42.0303  42.8949  44.5620  45.7414  49.1625  49.7298  52.4604
    52.9607  54.6150  54.6162  55.5506

          k =-0.0473 0.0000 0.0946 (  1511 PWs)   bands (ev):

     6.9068   9.7335  10.6508  10.7700  11.1539  11.1885  11.2277  12.0432
    12.4074  12.5736  12.7565  12.8084  12.9795  13.2926  13.7044  13.7862
    13.8550  13.9406  13.9703  14.4295  14.4403  14.8200  17.9815  20.3913
    21.8645  24.3601  25.2043  26.2181  27.0135  29.2230  29.4744  29.5336
    30.5834  33.2778  33.9735  37.1655  38.0918  39.7813  39.9557  40.2037
    40.5334  43.4459  44.4851  46.4273  47.0817  47.9021  49.2046  50.5982
    52.2111  52.5060  54.2708  55.7869

          k =-0.0946 0.0000 0.0946 (  1506 PWs)   bands (ev):

     7.8476  10.3635  10.3637  11.1218  11.2038  11.4364  11.4379  11.9477
    12.0877  12.0878  12.2572  12.6478  13.1197  13.1914  13.4832  13.6170
    13.6176  13.9737  13.9739  14.1595  14.2326  15.9387  15.9389  19.2171
    21.9118  24.8809  26.4744  26.4746  27.5163  27.5171  30.6092  31.1972
    31.2042  31.2960  33.1176  36.3179  40.8950  41.2747  41.2749  42.4763
    42.7306  43.1631  43.1632  46.5746  46.6840  47.8258  47.8267  51.0038
    51.4073  51.4565  52.6609  54.5615

          k = 0.0473-0.0473 0.0473 (  1490 PWs)   bands (ev):

     6.2332  10.3278  10.3279  10.3279  10.9776  10.9786  10.9786  12.2940
    12.7347  12.7347  13.1134  13.1134  13.1134  13.5715  13.5715  13.8570
    13.8575  13.8575  14.5019  14.5019  14.5023  17.0126  17.0128  17.0128
    25.0101  25.0104  25.0104  26.2782  26.2782  26.2786  30.6898  30.6902
    30.6903  33.0262  35.6966  35.6967  35.6971  38.5974  40.5724  40.5724
    42.2335  42.2336  42.2337  45.8878  46.9665  46.9665  50.9906  50.9906
    54.4773  54.4784  54.4784  54.8131

          k = 0.0473-0.0473 0.0946 (  1514 PWs)   bands (ev):

     7.2201   9.9303  10.7791  10.7793  11.2121  11.2130  11.2689  12.0528
    12.4090  12.4091  12.5686  12.7675  12.8541  13.4791  13.5100  13.5738
    13.5769  13.8413  14.3922  14.4218  14.4224  15.0980  18.3222  18.3223
    22.4842  22.4842  26.2942  26.9099  26.9100  29.9244  29.9247  30.3522
    30.5308  32.1728  36.1523  37.1770  37.3368  38.2435  38.2435  41.7562
    42.9158  43.8422  46.3786  46.3788  47.2256  48.3818  49.5115  49.5118
    50.0050  52.2729  52.3413  54.9264

          k =-0.0946 0.0473 0.0473 (  1514 PWs)   bands (ev):

     7.2201   9.9303  10.7791  10.7793  11.2121  11.2130  11.2689  12.0528
    12.4090  12.4091  12.5686  12.7675  12.8541  13.4791  13.5100  13.5738
    13.5770  13.8413  14.3922  14.4218  14.4224  15.0980  18.3222  18.3223
    22.4842  22.4842  26.2942  26.9099  26.9101  29.9244  29.9247  30.3522
    30.5308  32.1728  36.1523  37.1770  37.3368  38.2435  38.2435  41.7562
    42.9158  43.8422  46.3787  46.3787  47.2256  48.3818  49.5115  49.5118
    50.0050  52.2729  52.3413  54.9264

          k = 0.0473-0.0473-0.1419 (  1518 PWs)   bands (ev):

     8.6413   8.6618  11.2003  11.2004  11.2602  11.2614  11.6546  11.6859
    12.0372  12.0376  12.5357  12.5716  13.1062  13.1152  13.3874  13.3879
    13.9769  14.0012  14.1469  14.1494  14.3757  14.3759  19.3958  19.3959
    21.0202  21.0203  27.8511  27.8552  28.0907  28.1059  28.5222  28.5295
    34.4356  34.4688  34.8519  34.9191  37.5405  37.6090  41.5882  41.5884
    44.1372  44.1755  44.7228  44.7232  48.7294  48.7801  50.1723  50.1901
    51.4720  51.4723  53.1409  53.1580

          k = 0.0946-0.0473 0.0946 (  1501 PWs)   bands (ev):

     8.0990  10.3745  10.3748  10.8873  11.3755  11.5125  11.5133  12.0281
    12.2279  12.2283  12.3502  12.6589  12.8040  13.2444  13.2460  13.2500
    13.6015  14.1473  14.2908  14.2929  14.3117  16.0185  16.0187  18.5279
    20.7175  23.6709  23.6709  27.6051  27.7081  30.7065  30.7067  31.6716
    31.6721  33.5276  34.7357  36.3807  38.7598  38.7602  39.5302  42.4764
    43.1091  44.1191  45.8032  45.8032  48.5396  48.5400  49.6805  49.8945
    50.2041  50.9337  51.6486  52.1695

          k =-0.0946 0.0473 0.0946 (  1501 PWs)   bands (ev):

     8.0990  10.3745  10.3748  10.8873  11.3755  11.5125  11.5133  12.0281
    12.2279  12.2283  12.3502  12.6589  12.8040  13.2444  13.2460  13.2500
    13.6015  14.1473  14.2908  14.2929  14.3117  16.0185  16.0187  18.5279
    20.7175  23.6709  23.6709  27.6051  27.7081  30.7065  30.7067  31.6717
    31.6721  33.5276  34.7357  36.3807  38.7598  38.7602  39.5302  42.4764
    43.1091  44.1191  45.8032  45.8032  48.5396  48.5401  49.6805  49.8945
    50.2041  50.9337  51.6486  52.1701

          k = 0.0946-0.0473-0.1419 (  1510 PWs)   bands (ev):

     9.3063   9.3218  10.7332  10.7401  11.6296  11.6328  11.8509  11.8775
    12.2032  12.2154  12.3825  12.4063  12.9267  12.9328  13.1044  13.1087
    13.9057  13.9189  14.1982  14.2088  14.7366  14.7413  17.2299  17.2475
    21.6773  21.6904  25.3919  25.4010  29.0383  29.0481  32.5761  32.5787
    32.7807  32.7896  36.3270  36.4026  39.5369  39.5528  39.8620  39.8761
    44.5425  44.5480  45.0161  45.0537  47.0105  47.0317  49.8802  49.9104
    51.0390  51.0564  53.2170  53.2498

          k = 0.0946-0.0946 0.0946 (  1502 PWs)   bands (ev):

     8.7639  10.3317  10.3323  10.3323  11.8214  11.8220  11.8220  12.2854
    12.4993  12.4993  12.5012  12.6269  12.6269  12.8924  12.8924  12.8929
    14.0305  14.0305  14.4316  14.4316  14.4320  16.2725  16.2728  16.2728
    21.3129  21.3129  21.3129  24.9104  32.0384  32.0385  32.0389  34.7459
    34.7463  34.7463  36.7292  36.7293  36.7299  37.1476  39.4155  39.4155
    43.8178  43.8178  47.1075  47.3652  47.3652  47.3672  47.4679  47.4683
    47.4683  51.7284  51.7291  51.7291

          k = 0.0946-0.0946-0.1419 (  1510 PWs)   bands (ev):

     9.5873   9.5948  10.2940  10.2945  12.0106  12.0110  12.3067  12.3242
    12.5452  12.5672  12.6575  12.6594  12.7002  12.7002  12.7633  12.7635
    14.3342  14.3370  14.3623  14.3634  14.5561  14.5599  16.4647  16.4648
    20.3837  20.3837  22.8040  22.8135  32.9269  32.9271  34.1449  34.1454
    35.7241  35.7574  36.7248  36.7418  38.4336  38.4871  38.8479  38.8482
    44.0299  44.0302  44.2402  44.2669  45.3673  45.3747  47.8512  47.8513
    48.9366  48.9480  52.3420  52.3439

     the Fermi energy is    14.1795 ev

!    total energy              =    -343.62955256 Ry
     Harris-Foulkes estimate   =    -343.62954762 Ry
     estimated scf accuracy    <          9.8E-09 Ry

     The total energy is the sum of the following terms:

     one-electron contribution =      -8.70007196 Ry
     hartree contribution      =      61.07868768 Ry
     xc contribution           =    -120.47472034 Ry
     ewald contribution        =    -275.48620515 Ry
     Dispersion Correction     =      -0.04675218 Ry
     smearing contrib. (-TS)   =      -0.00049061 Ry

     total magnetization       =     2.87 Bohr mag/cell
     absolute magnetization    =     3.30 Bohr mag/cell

     convergence has been achieved in  13 iterations

     Forces acting on atoms (Ry/au):

     atom    1 type  1   force =    -0.00230207   -0.00230207    0.00230452
     atom    2 type  1   force =     0.00229962    0.00229962    0.00229962
     atom    3 type  1   force =    -0.00230207    0.00230452   -0.00230207
     atom    4 type  1   force =     0.00230452   -0.00230207   -0.00230207

     Total force =     0.007975     Total SCF correction =     0.000035


     entering subroutine stress ...

          total   stress  (Ry/bohr**3)                   (kbar)     P=  -32.24
  -0.00021919  -0.00000000  -0.00000000        -32.24     -0.00     -0.00
  -0.00000000  -0.00021919  -0.00000000         -0.00    -32.24     -0.00
  -0.00000000  -0.00000000  -0.00021919         -0.00     -0.00    -32.24


     BFGS Geometry Optimization

     number of scf cycles    =   1
     number of bfgs steps    =   0

     enthalpy new            =    -343.6295525635 Ry

     new trust radius        =       0.0188235539 bohr
     new conv_thr            =       0.0000000100 Ry

     new unit-cell volume =    290.17790 a.u.^3 (    42.99993 Ang^3 )

CELL_PARAMETERS (alat=  1.88972590)
   3.503396521  -0.000000107  -0.000000107
  -0.000000107   3.503396521  -0.000000107
  -0.000000107  -0.000000107   3.503396521

ATOMIC_POSITIONS (alat)
Ni1      1.758263775   1.758263775   0.001212711
Ni1      0.001210237   0.001210237   0.001210237
Ni1      1.758263775   0.001212711   1.758263775
Ni1      0.001212711   1.758263775   1.758263775



     Writing output data file Ni-ferromag.save
     NEW-OLD atomic charge density approx. for the potential

     Check: negative/imaginary core charge=   -0.000005    0.000000
     extrapolated charge   39.33519, renormalised to   40.00000

     total cpu time spent up to now is      398.1 secs

     Self-consistent Calculation

     iteration #  1     ecut=    45.00 Ry     beta=0.20
     Davidson diagonalization with overlap
     c_bands:  2 eigenvalues not converged
     c_bands:  3 eigenvalues not converged
     c_bands:  2 eigenvalues not converged
     ethr =  1.00E-06,  avg # of iterations =  6.8

     total cpu time spent up to now is      459.5 secs

     total energy              =    -343.54225271 Ry
     Harris-Foulkes estimate   =    -344.36309500 Ry
     estimated scf accuracy    <       0.14416692 Ry

     total magnetization       =     2.55 Bohr mag/cell
     absolute magnetization    =     2.97 Bohr mag/cell

     iteration #  2     ecut=    45.00 Ry     beta=0.20
     Davidson diagonalization with overlap
     ethr =  3.60E-04,  avg # of iterations =  3.2

     total cpu time spent up to now is      486.6 secs

     total energy              =    -343.63308241 Ry
     Harris-Foulkes estimate   =    -343.64367153 Ry
     estimated scf accuracy    <       0.05431707 Ry

     total magnetization       =     2.94 Bohr mag/cell
     absolute magnetization    =     3.35 Bohr mag/cell

     iteration #  3     ecut=    45.00 Ry     beta=0.20
     Davidson diagonalization with overlap
     ethr =  1.36E-04,  avg # of iterations =  1.2

     total cpu time spent up to now is      510.6 secs

     total energy              =    -343.62646187 Ry
     Harris-Foulkes estimate   =    -343.63481613 Ry
     estimated scf accuracy    <       0.01878716 Ry

     total magnetization       =     2.90 Bohr mag/cell
     absolute magnetization    =     3.32 Bohr mag/cell

     iteration #  4     ecut=    45.00 Ry     beta=0.20
     Davidson diagonalization with overlap
     ethr =  4.70E-05,  avg # of iterations =  2.8

     total cpu time spent up to now is      536.6 secs

     total energy              =    -343.63024555 Ry
     Harris-Foulkes estimate   =    -343.63014603 Ry
     estimated scf accuracy    <       0.00007661 Ry

     total magnetization       =     2.84 Bohr mag/cell
     absolute magnetization    =     3.26 Bohr mag/cell

     iteration #  5     ecut=    45.00 Ry     beta=0.20
     Davidson diagonalization with overlap
     ethr =  1.92E-07,  avg # of iterations =  4.0

     total cpu time spent up to now is      569.3 secs

     total energy              =    -343.63054807 Ry
     Harris-Foulkes estimate   =    -343.63031653 Ry
     estimated scf accuracy    <       0.00073768 Ry

     total magnetization       =     2.83 Bohr mag/cell
     absolute magnetization    =     3.25 Bohr mag/cell

     iteration #  6     ecut=    45.00 Ry     beta=0.20
     Davidson diagonalization with overlap
     ethr =  1.92E-07,  avg # of iterations =  1.9

     total cpu time spent up to now is      594.0 secs

     total energy              =    -343.63021549 Ry
     Harris-Foulkes estimate   =    -343.63059255 Ry
     estimated scf accuracy    <       0.00185136 Ry

     total magnetization       =     2.82 Bohr mag/cell
     absolute magnetization    =     3.24 Bohr mag/cell

     iteration #  7     ecut=    45.00 Ry     beta=0.20
     Davidson diagonalization with overlap
     ethr =  1.92E-07,  avg # of iterations =  2.0

     total cpu time spent up to now is      619.6 secs

     total energy              =    -343.63010309 Ry
     Harris-Foulkes estimate   =    -343.63027866 Ry
     estimated scf accuracy    <       0.00057678 Ry

     total magnetization       =     2.83 Bohr mag/cell
     absolute magnetization    =     3.25 Bohr mag/cell

     iteration #  8     ecut=    45.00 Ry     beta=0.20
     Davidson diagonalization with overlap
     ethr =  1.92E-07,  avg # of iterations =  2.1

     total cpu time spent up to now is      644.7 secs

     total energy              =    -343.63016954 Ry
     Harris-Foulkes estimate   =    -343.63015094 Ry
     estimated scf accuracy    <       0.00005603 Ry

     total magnetization       =     2.84 Bohr mag/cell
     absolute magnetization    =     3.25 Bohr mag/cell

     iteration #  9     ecut=    45.00 Ry     beta=0.20
     Davidson diagonalization with overlap
     ethr =  1.40E-07,  avg # of iterations =  1.0

     total cpu time spent up to now is      668.5 secs

     total energy              =    -343.63014572 Ry
     Harris-Foulkes estimate   =    -343.63017334 Ry
     estimated scf accuracy    <       0.00014563 Ry

     total magnetization       =     2.83 Bohr mag/cell
     absolute magnetization    =     3.25 Bohr mag/cell

     iteration # 10     ecut=    45.00 Ry     beta=0.20
     Davidson diagonalization with overlap
     ethr =  1.40E-07,  avg # of iterations =  1.0

     total cpu time spent up to now is      692.3 secs

     total energy              =    -343.63012871 Ry
     Harris-Foulkes estimate   =    -343.63014998 Ry
     estimated scf accuracy    <       0.00005076 Ry

     total magnetization       =     2.83 Bohr mag/cell
     absolute magnetization    =     3.25 Bohr mag/cell

     iteration # 11     ecut=    45.00 Ry     beta=0.20
     Davidson diagonalization with overlap
     ethr =  1.27E-07,  avg # of iterations =  1.0

     Magnetic moment per site:
     atom:    1    charge:    3.0062    magn:    0.3351    constr:    0.0000
     atom:    2    charge:    3.0044    magn:    0.3350    constr:    0.0000
     atom:    3    charge:    3.0062    magn:    0.3351    constr:    0.0000
     atom:    4    charge:    3.0062    magn:    0.3351    constr:    0.0000

     total cpu time spent up to now is      716.2 secs

     End of self-consistent calculation

 ------ SPIN UP ------------


          k = 0.0000 0.0000 0.0000 (  1503 PWs)   bands (ev):

     5.4277   9.7110   9.7110   9.7110  10.1637  10.1640  10.1640  11.9422
    11.9422  11.9422  13.1204  13.1204  13.8381  13.8381  13.8381  13.9279
    13.9279  13.9279  13.9280  13.9280  13.9280  17.0669  17.0670  17.0670
    23.8029  23.8029  23.8029  29.5609  29.5609  29.5609  29.5610  29.5610
    29.5611  34.6384  34.6384  34.6386  37.9809  37.9811  37.9811  38.4890
    42.4632  42.4632  42.4632  46.0616  46.0616  46.0616  48.1646  55.1558
    55.1558  55.1558  57.6147  59.0319

          k = 0.0000 0.0000 0.0476 (  1478 PWs)   bands (ev):

     5.7938   9.7331   9.8952   9.8952  10.2743  10.2901  10.2903  11.8136
    12.0445  12.0445  13.0023  13.1668  13.2746  13.2747  13.6845  13.6845
    13.7523  13.7523  13.7886  13.9283  13.9283  15.4661  18.0251  18.0252
    23.8988  23.8988  26.0521  27.8094  27.8095  28.4372  28.4372  30.1212
    30.1212  34.7546  36.8110  36.8111  37.8532  38.1128  39.9371  39.9372
    40.2428  40.2428  40.9085  47.4814  48.1182  48.1182  49.1382  51.5482
    56.2513  56.2513  56.6636  56.6639

          k = 0.0000 0.0000 0.0951 (  1510 PWs)   bands (ev):

     6.8429   9.5038  10.3320  10.3320  10.5818  10.6730  10.6733  11.4698
    12.2186  12.2190  12.3410  12.3410  12.7149  13.2957  13.3008  13.3008
    13.3025  13.3193  13.3193  13.6546  13.9288  13.9288  19.9870  19.9871
    24.2163  24.2163  25.0362  25.0362  26.6690  26.6690  30.3517  31.7001
    31.7001  35.1180  36.7204  37.0211  37.0211  38.3414  38.6648  40.8546
    40.8547  44.1021  44.1021  44.1340  50.9165  51.0385  51.0385  51.0414
    51.0414  55.0255  55.9309  55.9310

          k =-0.0000-0.0000-0.1427 (  1510 PWs)   bands (ev):

     8.3344   8.3497  10.6079  10.6079  11.0051  11.0275  11.3086  11.3087
    11.3309  11.3310  12.5224  12.5539  12.7842  12.7842  12.8010  12.8010
    13.0588  13.0588  13.4676  13.4799  13.9291  13.9291  22.3527  22.3528
    22.3917  22.3917  24.5898  24.5899  25.7232  25.7232  34.0638  34.0638
    34.0912  34.0912  34.8729  34.9304  35.7589  35.7725  40.2119  40.3039
    45.6153  45.6154  45.6953  45.6955  47.6072  47.6072  52.2806  52.2806
    54.1291  54.1291  54.2030  54.2030

          k = 0.0000 0.0476 0.0476 (  1490 PWs)   bands (ev):

     6.1513   9.9314   9.9314  10.0582  10.3915  10.3918  10.4055  11.7537
    12.0895  12.1065  12.9283  12.9699  12.9867  12.9949  13.1626  13.5562
    13.6805  13.6805  13.7509  13.7510  13.8125  16.3978  16.3978  18.7947
    23.8933  25.0919  26.2395  26.2397  28.2866  28.2866  28.9296  28.9300
    30.6488  36.0269  36.1117  37.0194  37.0196  37.3243  40.1059  40.1062
    41.2627  42.5941  43.5223  45.2230  46.3545  49.7766  50.4462  53.0827
    53.6596  55.3400  55.3406  56.2940

          k = 0.0000 0.0476 0.0951 (  1511 PWs)   bands (ev):

     7.1727   9.7398  10.4133  10.4617  10.6732  10.7265  10.7455  11.4730
    11.9804  12.1196  12.2354  12.3526  12.3786  12.8114  13.2326  13.3054
    13.3225  13.3421  13.4940  13.7471  13.7542  14.4312  18.0115  20.5770
    22.0747  24.6012  25.4974  26.5266  27.3931  29.6003  29.8914  29.9518
    31.0075  33.7164  34.4591  37.6717  38.6236  40.3819  40.5606  40.7378
    41.1104  44.0296  45.0212  47.0476  47.7765  48.5790  49.8842  51.3260
    52.9304  53.2512  54.8083  56.1944

          k =-0.0000 0.0476-0.1427 (  1500 PWs)   bands (ev):

     8.6163   8.6307  10.7599  10.7609  11.0568  11.0784  11.1788  11.1971
    11.3235  11.3451  12.1532  12.1764  12.7848  12.8020  13.0187  13.0263
    13.0436  13.0445  13.6572  13.6574  13.7435  13.7469  19.8699  19.8896
    22.8538  22.8888  25.3917  25.4183  28.2974  28.3063  31.4839  31.4956
    32.0091  32.0172  35.7879  35.8540  38.8180  38.8231  42.1740  42.2306
    43.0951  43.1162  45.8936  45.9692  50.0376  50.1051  50.3297  50.3615
    52.5907  52.6160  53.1834  53.2038

          k = 0.0000 0.0951 0.0951 (  1506 PWs)   bands (ev):

     8.0991  10.3271  10.3272  10.6928  10.9407  10.9413  10.9552  11.4034
    11.6500  11.6501  11.8044  12.1231  12.4832  12.7251  13.0168  13.1710
    13.1713  13.3120  13.3121  13.4820  13.6970  15.6767  15.6767  19.2944
    22.1031  25.1518  26.7694  26.7694  27.8895  27.8898  30.9777  31.6297
    31.6330  31.7323  33.5963  36.8301  41.5192  41.8721  41.8722  43.0665
    43.4041  43.7619  43.7620  47.1781  47.3211  48.4652  48.4657  51.6639
    52.1685  52.1806  53.1919  55.3395

          k =-0.0000 0.0951-0.1427 (  1514 PWs)   bands (ev):

     9.3600   9.3718  10.7908  10.8046  11.1823  11.1957  11.2067  11.2119
    11.3430  11.3632  11.8515  11.8667  12.8209  12.8299  12.8309  12.8381
    12.8978  12.9004  13.3417  13.3520  14.3568  14.3595  17.2001  17.2155
    24.2136  24.2401  26.2087  26.2304  28.6394  28.6520  29.5294  29.5321
    32.9388  32.9445  36.7508  36.8152  40.3500  40.3627  43.0353  43.0478
    43.2047  43.2106  46.7009  46.7624  47.8956  47.9328  50.4011  50.4355
    51.7239  51.7790  53.5463  53.5608

          k =-0.0000-0.1427-0.1427 (  1516 PWs)   bands (ev):

    10.2087  10.2189  10.2189  10.2288  11.2954  11.3146  11.3146  11.3337
    11.6185  11.6241  11.6241  11.6295  12.6823  12.6841  12.6841  12.6862
    12.9829  12.9988  12.9988  13.0146  15.4209  15.4282  15.4282  15.4355
    26.1820  26.2004  26.2004  26.2185  27.5592  27.5721  27.5722  27.5856
    37.8664  37.8840  37.8840  37.9024  38.4708  38.4931  38.4931  38.5131
    47.1692  47.1692  47.1696  47.1702  49.1468  49.1816  49.1816  49.2162
    51.8044  51.8075  51.8075  51.8102

          k = 0.0476 0.0476 0.0476 (  1490 PWs)   bands (ev):

     6.4970  10.0922  10.0923  10.0923  10.5059  10.5063  10.5063  11.7189
    12.1261  12.1261  12.6829  12.6829  12.6829  13.0756  13.0756  13.3228
    13.3231  13.3231  13.8664  13.8664  13.8665  17.0247  17.0247  17.0247
    25.3189  25.3190  25.3190  26.5844  26.5844  26.5846  31.1638  31.1639
    31.1639  33.4749  36.1583  36.1583  36.1585  39.2455  41.1291  41.1291
    42.8013  42.8013  42.8013  46.5835  47.6395  47.6395  51.6317  51.6317
    55.1020  55.2182  55.2187  55.2187

          k = 0.0476 0.0476 0.0951 (  1514 PWs)   bands (ev):

     7.4783   9.8984  10.4750  10.4752  10.7914  10.8198  10.8199  11.5096
    11.9707  11.9707  12.1639  12.2078  12.2658  12.9206  12.9906  13.0770
    13.0780  13.3155  13.7691  13.7692  13.8015  14.7929  18.3666  18.3667
    22.7002  22.7002  26.6121  27.2358  27.2359  30.3506  30.3507  30.7376
    30.9406  32.6432  36.6372  37.7694  37.8419  38.7823  38.7823  42.3518
    43.4933  44.4603  47.0103  47.0103  47.8726  49.0742  50.1909  50.1910
    50.6862  53.0074  53.0679  55.6452

          k = 0.0476 0.0476-0.1427 (  1518 PWs)   bands (ev):

     8.8441   8.8568  10.8614  10.8621  10.9202  10.9203  11.1533  11.1736
    11.5772  11.5772  12.0577  12.0804  12.5347  12.5425  12.9093  12.9095
    13.4768  13.4928  13.5895  13.5930  13.7133  13.7133  19.5153  19.5154
    21.1390  21.1390  28.1985  28.2006  28.4339  28.4431  28.9192  28.9223
    34.9190  34.9418  35.3857  35.4310  38.0625  38.1100  42.1955  42.1955
    44.7332  44.7588  45.3605  45.3607  49.4537  49.4893  50.8836  50.8959
    52.1742  52.1743  53.6676  53.6722

          k = 0.0476 0.0951 0.0951 (  1501 PWs)   bands (ev):

     8.3170  10.2159  10.2161  10.5020  11.1071  11.1529  11.1531  11.5546
    11.7669  11.7671  11.9000  12.1251  12.2506  12.7284  12.7286  12.7452
    13.0482  13.6026  13.6709  13.6871  13.6881  15.8075  15.8075  18.6186
    20.7966  23.8966  23.8966  27.9313  28.0509  31.1272  31.1273  32.1124
    32.1126  34.0092  35.2339  36.9010  39.3162  39.3164  40.1466  43.0276
    43.7272  44.7755  46.4536  46.4537  49.1817  49.1819  50.4080  50.5863
    50.9144  51.6075  52.2912  52.9169

          k = 0.0476 0.0951-0.1427 (  1510 PWs)   bands (ev):

     9.3961   9.4040  10.4359  10.4382  11.3200  11.3208  11.4606  11.4770
    11.7703  11.7772  11.8874  11.9024  12.3969  12.4026  12.6087  12.6123
    13.3418  13.3482  13.5693  13.5758  14.2633  14.2658  17.1787  17.1912
    21.8075  21.8173  25.6535  25.6604  29.4255  29.4316  33.0306  33.0332
    33.2429  33.2484  36.8705  36.9233  40.1233  40.1350  40.4327  40.4421
    45.1818  45.1861  45.6631  45.6886  47.6876  47.7013  50.5521  50.5733
    51.7749  51.7873  53.8661  53.8893

          k = 0.0476-0.1427-0.1427 (  1492 PWs)   bands (ev):

     9.9660   9.9694   9.9694   9.9725  11.7058  11.7111  11.7111  11.7161
    11.7881  11.7992  11.7992  11.8105  12.3658  12.3712  12.3712  12.3768
    13.3176  13.3276  13.3276  13.3376  15.3312  15.3392  15.3392  15.3472
    23.4384  23.4460  23.4460  23.4535  30.9637  30.9660  30.9660  30.9685
    38.1490  38.1629  38.1629  38.1806  38.3173  38.3384  38.3384  38.3543
    46.6449  46.6449  46.6455  46.6480  46.7302  46.7507  46.7507  46.7677
    54.7870  54.7972  54.7973  55.0606

          k = 0.0951 0.0951 0.0951 (  1502 PWs)   bands (ev):

     8.8608  10.0509  10.0511  10.0511  11.5113  11.5116  11.5116  12.0247
    12.0818  12.0818  12.0873  12.0961  12.0961  12.3746  12.3746  12.3749
    13.4506  13.4506  13.8152  13.8152  13.8153  16.1858  16.1859  16.1859
    21.4039  21.4039  21.4040  25.1436  32.4928  32.4928  32.4929  35.2362
    35.2364  35.2364  37.2660  37.2660  37.2662  37.7852  39.9431  39.9431
    44.4369  44.4369  47.7631  48.0570  48.0570  48.0579  48.1310  48.1312
    48.1312  52.4378  52.4381  52.4381

          k = 0.0951 0.0951-0.1427 (  1510 PWs)   bands (ev):

     9.4858   9.4878   9.9824   9.9826  11.6311  11.6313  11.9114  11.9239
    12.1334  12.1352  12.2516  12.2547  12.2646  12.2771  12.3694  12.3697
    13.7348  13.7361  13.7435  13.7442  14.1543  14.1551  16.4702  16.4703
    20.3749  20.3749  22.9579  22.9652  33.4088  33.4088  34.6192  34.6195
    36.3128  36.3349  37.2324  37.2442  38.9674  39.0050  39.4318  39.4319
    44.6437  44.6439  44.8858  44.9046  46.0060  46.0110  48.5422  48.5423
    49.5921  49.5999  52.9675  52.9684

          k = 0.0951-0.1427-0.1427 (  1496 PWs)   bands (ev):

     9.6621   9.6625   9.6625   9.6625  11.8739  11.8772  11.8772  11.8803
    12.0634  12.0668  12.0668  12.0704  12.8092  12.8163  12.8163  12.8234
    13.6583  13.6638  13.6638  13.6693  14.9538  14.9629  14.9629  14.9720
    21.0822  21.0883  21.0883  21.0945  35.1452  35.1482  35.1482  35.1513
    38.2019  38.2115  38.2115  38.2216  38.9219  38.9322  38.9322  38.9413
    44.0773  44.0860  44.0860  44.0945  45.1468  45.1492  45.1492  45.1512
    50.4065  50.4101  50.4101  50.4143

          k =-0.1427-0.1427-0.1427 (  1472 PWs)   bands (ev):

     9.5462   9.5466   9.5466   9.5466  11.9552  11.9552  11.9552  11.9553
    11.9553  11.9556  11.9556  11.9556  13.7907  13.7907  13.7907  13.7912
    13.7912  13.7912  13.7912  13.7912  14.2884  14.2888  14.2889  14.2889
    20.2071  20.2071  20.2071  20.2072  36.9441  36.9443  36.9443  36.9443
    39.5677  39.5677  39.5677  39.5678  39.5678  39.5682  39.5682  39.5682
    42.7951  42.7951  42.7952  42.7952  42.7953  42.7954  42.7955  42.7955
    48.7640  48.7640  48.7640  48.7642

          k =-0.0476 0.0000 0.0476 (  1490 PWs)   bands (ev):

     6.1513   9.9314   9.9314  10.0582  10.3915  10.3918  10.4055  11.7537
    12.0895  12.1065  12.9283  12.9699  12.9867  12.9949  13.1626  13.5562
    13.6805  13.6805  13.7509  13.7510  13.8125  16.3977  16.3978  18.7947
    23.8933  25.0919  26.2395  26.2397  28.2866  28.2866  28.9296  28.9300
    30.6488  36.0269  36.1117  37.0194  37.0196  37.3243  40.1059  40.1062
    41.2627  42.5941  43.5223  45.2230  46.3545  49.7766  50.4462  53.0827
    53.6596  55.3400  55.3406  56.2940

          k =-0.0476 0.0000 0.0951 (  1511 PWs)   bands (ev):

     7.1727   9.7398  10.4133  10.4617  10.6732  10.7265  10.7455  11.4730
    11.9804  12.1196  12.2354  12.3526  12.3786  12.8114  13.2326  13.3054
    13.3225  13.3421  13.4940  13.7471  13.7542  14.4312  18.0115  20.5770
    22.0747  24.6012  25.4974  26.5266  27.3931  29.6003  29.8914  29.9518
    31.0075  33.7164  34.4591  37.6717  38.6236  40.3819  40.5606  40.7378
    41.1104  44.0296  45.0212  47.0476  47.7765  48.5790  49.8842  51.3260
    52.9304  53.2512  54.8083  56.1944

          k =-0.0951 0.0000 0.0951 (  1506 PWs)   bands (ev):

     8.0991  10.3271  10.3271  10.6928  10.9407  10.9413  10.9552  11.4034
    11.6500  11.6501  11.8044  12.1231  12.4832  12.7251  13.0168  13.1710
    13.1713  13.3120  13.3122  13.4820  13.6970  15.6767  15.6767  19.2944
    22.1031  25.1518  26.7694  26.7695  27.8895  27.8898  30.9777  31.6297
    31.6330  31.7323  33.5963  36.8301  41.5192  41.8721  41.8722  43.0665
    43.4041  43.7620  43.7620  47.1781  47.3211  48.4652  48.4657  51.6639
    52.1685  52.1806  53.1919  55.3383

          k = 0.0476-0.0476 0.0476 (  1490 PWs)   bands (ev):

     6.4970  10.0922  10.0922  10.0923  10.5059  10.5063  10.5063  11.7189
    12.1261  12.1261  12.6829  12.6829  12.6829  13.0756  13.0756  13.3228
    13.3231  13.3231  13.8664  13.8664  13.8665  17.0247  17.0247  17.0247
    25.3189  25.3190  25.3190  26.5844  26.5844  26.5846  31.1638  31.1639
    31.1640  33.4749  36.1583  36.1583  36.1585  39.2455  41.1291  41.1291
    42.8013  42.8013  42.8013  46.5835  47.6395  47.6395  51.6317  51.6317
    55.1020  55.2182  55.2187  55.2187

          k = 0.0476-0.0476 0.0951 (  1514 PWs)   bands (ev):

     7.4783   9.8984  10.4750  10.4752  10.7914  10.8198  10.8199  11.5096
    11.9707  11.9707  12.1639  12.2078  12.2658  12.9206  12.9906  13.0770
    13.0780  13.3155  13.7691  13.7692  13.8015  14.7929  18.3666  18.3666
    22.7002  22.7002  26.6121  27.2358  27.2358  30.3506  30.3507  30.7376
    30.9406  32.6432  36.6372  37.7694  37.8419  38.7823  38.7823  42.3518
    43.4933  44.4603  47.0103  47.0103  47.8726  49.0742  50.1909  50.1911
    50.6862  53.0074  53.0679  55.6452

          k =-0.0951 0.0476 0.0476 (  1514 PWs)   bands (ev):

     7.4783   9.8984  10.4750  10.4752  10.7914  10.8198  10.8199  11.5096
    11.9707  11.9707  12.1639  12.2078  12.2658  12.9206  12.9906  13.0770
    13.0780  13.3155  13.7691  13.7692  13.8015  14.7929  18.3666  18.3667
    22.7002  22.7002  26.6121  27.2358  27.2359  30.3506  30.3507  30.7376
    30.9406  32.6432  36.6372  37.7694  37.8419  38.7823  38.7823  42.3518
    43.4933  44.4603  47.0103  47.0103  47.8726  49.0742  50.1909  50.1910
    50.6862  53.0074  53.0679  55.6452

          k = 0.0476-0.0476-0.1427 (  1518 PWs)   bands (ev):

     8.8441   8.8568  10.8614  10.8621  10.9202  10.9203  11.1533  11.1736
    11.5772  11.5772  12.0577  12.0804  12.5347  12.5425  12.9093  12.9095
    13.4768  13.4928  13.5895  13.5930  13.7133  13.7133  19.5153  19.5154
    21.1390  21.1390  28.1986  28.2005  28.4339  28.4431  28.9192  28.9223
    34.9190  34.9418  35.3857  35.4310  38.0625  38.1100  42.1955  42.1955
    44.7332  44.7588  45.3605  45.3607  49.4537  49.4893  50.8836  50.8959
    52.1742  52.1744  53.6676  53.6721

          k = 0.0951-0.0476 0.0951 (  1501 PWs)   bands (ev):

     8.3170  10.2159  10.2161  10.5020  11.1071  11.1529  11.1531  11.5546
    11.7669  11.7671  11.9000  12.1251  12.2506  12.7284  12.7286  12.7452
    13.0482  13.6026  13.6709  13.6871  13.6881  15.8075  15.8075  18.6186
    20.7966  23.8966  23.8966  27.9313  28.0509  31.1272  31.1273  32.1124
    32.1126  34.0092  35.2339  36.9010  39.3162  39.3164  40.1466  43.0276
    43.7272  44.7755  46.4536  46.4537  49.1817  49.1819  50.4080  50.5863
    50.9144  51.6075  52.2912  52.9168

          k =-0.0951 0.0476 0.0951 (  1501 PWs)   bands (ev):

     8.3170  10.2159  10.2161  10.5020  11.1071  11.1529  11.1531  11.5546
    11.7669  11.7671  11.9000  12.1251  12.2506  12.7284  12.7286  12.7452
    13.0482  13.6026  13.6709  13.6871  13.6881  15.8075  15.8075  18.6186
    20.7966  23.8966  23.8966  27.9313  28.0509  31.1272  31.1273  32.1124
    32.1126  34.0092  35.2339  36.9010  39.3162  39.3164  40.1466  43.0276
    43.7272  44.7755  46.4536  46.4537  49.1817  49.1819  50.4080  50.5863
    50.9144  51.6075  52.2912  52.9168

          k = 0.0951-0.0476-0.1427 (  1510 PWs)   bands (ev):

     9.3961   9.4040  10.4359  10.4382  11.3200  11.3207  11.4606  11.4770
    11.7703  11.7772  11.8874  11.9024  12.3969  12.4026  12.6087  12.6123
    13.3418  13.3482  13.5693  13.5758  14.2633  14.2658  17.1787  17.1912
    21.8075  21.8173  25.6535  25.6604  29.4255  29.4316  33.0306  33.0332
    33.2429  33.2484  36.8705  36.9233  40.1233  40.1350  40.4327  40.4421
    45.1818  45.1861  45.6631  45.6886  47.6876  47.7013  50.5521  50.5733
    51.7749  51.7873  53.8661  53.8892

          k = 0.0951-0.0951 0.0951 (  1502 PWs)   bands (ev):

     8.8608  10.0509  10.0511  10.0512  11.5113  11.5116  11.5116  12.0247
    12.0818  12.0818  12.0873  12.0961  12.0961  12.3746  12.3746  12.3749
    13.4506  13.4506  13.8152  13.8152  13.8153  16.1858  16.1859  16.1859
    21.4039  21.4039  21.4039  25.1436  32.4927  32.4928  32.4930  35.2362
    35.2363  35.2364  37.2659  37.2660  37.2663  37.7852  39.9431  39.9431
    44.4369  44.4369  47.7631  48.0570  48.0570  48.0579  48.1310  48.1312
    48.1312  52.4378  52.4381  52.4381

          k = 0.0951-0.0951-0.1427 (  1510 PWs)   bands (ev):

     9.4858   9.4878   9.9824   9.9826  11.6312  11.6313  11.9114  11.9239
    12.1334  12.1352  12.2516  12.2547  12.2646  12.2771  12.3694  12.3697
    13.7348  13.7361  13.7435  13.7442  14.1543  14.1551  16.4702  16.4703
    20.3749  20.3749  22.9579  22.9652  33.4088  33.4089  34.6193  34.6195
    36.3129  36.3349  37.2324  37.2442  38.9674  39.0050  39.4318  39.4319
    44.6437  44.6439  44.8858  44.9046  46.0060  46.0110  48.5422  48.5423
    49.5921  49.5999  52.9675  52.9684

 ------ SPIN DOWN ----------


          k = 0.0000 0.0000 0.0000 (  1503 PWs)   bands (ev):

     5.3730  10.1734  10.1734  10.1734  10.8823  10.8827  10.8827  12.8232
    12.8232  12.8232  13.9010  13.9010  14.6528  14.6528  14.6528  14.9378
    14.9378  14.9378  14.9380  14.9380  14.9380  16.9880  16.9881  16.9881
    24.1086  24.1086  24.1086  29.5471  29.5471  29.5471  29.5473  29.5473
    29.5473  34.8025  34.8025  34.8026  38.1243  38.1245  38.1245  38.2832
    42.4339  42.4339  42.4339  46.1339  46.1339  46.1339  48.0049  55.3449
    55.3449  55.3449  58.1381  59.5510

          k = 0.0000 0.0000 0.0476 (  1478 PWs)   bands (ev):

     5.7390  10.1489  10.3675  10.3675  11.0018  11.0062  11.0065  12.6813
    12.9295  12.9295  13.7731  13.9494  14.0952  14.0954  14.4857  14.4858
    14.6009  14.7454  14.7454  14.9383  14.9383  15.5363  18.1318  18.1319
    24.1894  24.1895  26.2540  27.8779  27.8781  28.4644  28.4645  30.1238
    30.1238  34.9061  36.8918  36.8919  37.7143  38.2538  40.0570  40.0571
    40.2851  40.2851  40.8385  47.5017  48.0919  48.0919  49.2099  51.5388
    56.4626  56.4626  56.5900  56.5903

          k = 0.0000 0.0000 0.0951 (  1510 PWs)   bands (ev):

     6.7925   9.7120  10.8288  10.8288  11.3347  11.3836  11.3840  12.3032
    12.9484  12.9488  13.2391  13.2391  13.4522  13.6741  14.0737  14.0737
    14.0844  14.2710  14.2710  14.4603  14.9389  14.9389  20.1721  20.1722
    24.4625  24.4625  25.1769  25.1769  26.7671  26.7671  30.4473  31.7370
    31.7370  35.2317  36.6855  37.0925  37.0925  38.2510  38.8107  40.8598
    40.8600  44.2013  44.2014  44.3523  50.8719  50.9434  50.9434  50.9677
    50.9678  54.9209  56.1717  56.1717

          k =-0.0000-0.0000-0.1427 (  1510 PWs)   bands (ev):

     8.3275   8.3434  11.1205  11.1205  11.7950  11.8190  12.0180  12.0184
    12.0409  12.0412  13.1694  13.2037  13.7052  13.7052  13.7227  13.7227
    13.8071  13.8072  14.2643  14.2772  14.9392  14.9392  22.5339  22.5340
    22.5737  22.5738  24.7864  24.7865  25.8806  25.8807  34.1289  34.1289
    34.1562  34.1562  34.8521  34.9112  35.8088  35.8250  40.4033  40.4967
    45.5697  45.5699  45.6517  45.6519  47.6811  47.6813  52.4696  52.4696
    54.0186  54.0186  54.0925  54.0925

          k = 0.0000 0.0476 0.0476 (  1490 PWs)   bands (ev):

     6.0975  10.3598  10.3598  10.5495  11.1056  11.1160  11.1163  12.6077
    12.9799  12.9843  13.6938  13.7255  13.7353  13.7568  13.9503  14.3474
    14.4734  14.4734  14.7442  14.7442  14.8151  16.7123  16.7123  18.9603
    24.1521  25.2215  26.4282  26.4284  28.3694  28.3695  28.9707  28.9710
    30.6598  36.1026  36.1315  37.0899  37.0901  37.3417  40.2237  40.2239
    41.1818  42.6813  43.4913  45.1664  46.4150  49.9353  50.3714  53.2550
    53.6252  55.3018  55.3024  56.2341

          k = 0.0000 0.0476 0.0951 (  1511 PWs)   bands (ev):

     7.1270   9.9624  10.8759  10.9942  11.3888  11.4215  11.4629  12.2955
    12.6722  12.8411  13.0327  13.0777  13.2552  13.5763  13.9981  14.0827
    14.1532  14.2402  14.2694  14.7410  14.7511  15.1407  18.3502  20.7810
    22.2732  24.8292  25.6490  26.6614  27.5183  29.7088  29.9536  30.0218
    31.1049  33.7944  34.5015  37.7135  38.6615  40.3334  40.5081  40.8575
    41.1098  44.1117  45.2257  47.1140  47.6988  48.5612  49.8681  51.2511
    52.8858  53.1604  55.0279  56.4469

          k =-0.0000 0.0476-0.1427 (  1500 PWs)   bands (ev):

     8.6214   8.6365  11.2630  11.2650  11.8355  11.8574  11.8605  11.8791
    12.0357  12.0580  12.8929  12.9196  13.7084  13.7260  13.7878  13.7918
    13.7972  13.7998  14.4960  14.4968  14.7380  14.7418  20.1512  20.1713
    23.0468  23.0821  25.5621  25.5908  28.4136  28.4240  31.5985  31.6089
    32.0675  32.0744  35.8131  35.8791  38.8199  38.8235  42.3257  42.3843
    43.0869  43.1103  45.8446  45.9220  50.1035  50.1698  50.2618  50.2939
    52.5065  52.5327  53.3513  53.3715

          k = 0.0000 0.0951 0.0951 (  1506 PWs)   bands (ev):

     8.0768  10.6004  10.6005  11.3574  11.4398  11.6767  11.6775  12.1978
    12.3437  12.3437  12.5172  12.9148  13.3990  13.4726  13.7710  13.9092
    13.9094  14.2732  14.2733  14.4633  14.5399  16.2822  16.2823  19.6020
    22.3223  25.3502  26.9362  26.9362  27.9907  27.9910  31.1086  31.7179
    31.7217  31.8003  33.6487  36.8658  41.4555  41.8538  41.8540  43.1012
    43.2866  43.8043  43.8044  47.2993  47.3502  48.5100  48.5104  51.7232
    52.0575  52.1231  53.3950  55.2393

          k =-0.0000 0.0951-0.1427 (  1514 PWs)   bands (ev):

     9.4207   9.4336  11.2108  11.2245  11.8420  11.8433  11.9484  11.9698
    12.0639  12.0850  12.5881  12.6049  13.5651  13.5655  13.6369  13.6395
    13.7572  13.7755  14.3103  14.3215  15.1630  15.1664  17.6646  17.6797
    24.4190  24.4449  26.3595  26.3831  28.8023  28.8136  29.6189  29.6227
    33.0098  33.0170  36.7783  36.8429  40.3495  40.3608  42.9814  42.9930
    43.2233  43.2285  46.6384  46.7011  47.9768  48.0158  50.3479  50.3831
    51.8447  51.8997  53.4612  53.4749

          k =-0.0000-0.1427-0.1427 (  1516 PWs)   bands (ev):

    10.4269  10.4383  10.4383  10.4495  12.0323  12.0529  12.0529  12.0732
    12.2875  12.2939  12.2939  12.3003  13.4204  13.4224  13.4224  13.4248
    13.9316  13.9483  13.9484  13.9650  16.1043  16.1105  16.1105  16.1166
    26.3781  26.3953  26.3953  26.4123  27.6813  27.6957  27.6958  27.7107
    37.9410  37.9579  37.9579  37.9761  38.4381  38.4592  38.4593  38.4777
    47.0486  47.0491  47.0492  47.0511  49.1350  49.1706  49.1707  49.2062
    51.9038  51.9086  51.9086  51.9130

          k = 0.0476 0.0476 0.0476 (  1490 PWs)   bands (ev):

     6.4461  10.5476  10.5476  10.5476  11.2069  11.2074  11.2074  12.5528
    13.0047  13.0047  13.3941  13.3941  13.3941  13.8625  13.8625  14.1544
    14.1547  14.1547  14.8153  14.8153  14.8155  17.3657  17.3658  17.3658
    25.4504  25.4505  25.4505  26.7577  26.7577  26.7579  31.1855  31.1858
    31.1858  33.5414  36.2532  36.2532  36.2533  39.0899  41.1816  41.1816
    42.8853  42.8854  42.8854  46.4959  47.5965  47.5965  51.7984  51.7984
    55.1713  55.1719  55.1719  55.4394

          k = 0.0476 0.0476 0.0951 (  1514 PWs)   bands (ev):

     7.4431  10.1611  11.0070  11.0071  11.4483  11.4487  11.5044  12.3058
    12.6735  12.6736  12.8384  13.0372  13.1267  13.7673  13.8005  13.8643
    13.8659  14.1384  14.7032  14.7330  14.7333  15.4236  18.6936  18.6937
    22.9104  22.9104  26.7562  27.3848  27.3849  30.4255  30.4256  30.8517
    31.0280  32.6896  36.7116  37.6751  37.9191  38.8125  38.8125  42.3593
    43.5735  44.4777  47.0544  47.0544  47.9145  49.0198  50.1796  50.1798
    50.6929  52.9366  53.0280  55.7597

          k = 0.0476 0.0476-0.1427 (  1518 PWs)   bands (ev):

     8.8780   8.8919  11.4344  11.4345  11.5014  11.5020  11.9037  11.9257
    12.2916  12.2918  12.8066  12.8319  13.3866  13.3929  13.6735  13.6737
    14.2814  14.2986  14.4521  14.4539  14.6855  14.6856  19.7727  19.7727
    21.4430  21.4430  28.3135  28.3154  28.5759  28.5844  29.0338  29.0373
    34.9884  35.0110  35.3580  35.4049  38.1396  38.1873  42.1767  42.1767
    44.8189  44.8467  45.3494  45.3496  49.3739  49.4097  50.8377  50.8501
    52.2076  52.2077  53.8437  53.8516

          k = 0.0476 0.0951 0.0951 (  1501 PWs)   bands (ev):

     8.3289  10.6089  10.6091  11.1207  11.6146  11.7550  11.7554  12.2817
    12.4875  12.4877  12.6124  12.9263  13.0754  13.5275  13.5285  13.5317
    13.8921  14.4522  14.5998  14.6008  14.6188  16.3610  16.3611  18.8934
    21.1406  24.1136  24.1136  28.0909  28.1809  31.1909  31.1910  32.2049
    32.2052  34.0638  35.2593  36.9261  39.3309  39.3310  40.0701  43.1412
    43.7188  44.7211  46.4475  46.4476  49.2363  49.2365  50.3395  50.5698
    50.8907  51.6800  52.3565  52.8440

          k = 0.0476 0.0951-0.1427 (  1510 PWs)   bands (ev):

     9.5444   9.5547  10.9700  10.9747  11.8740  11.8763  12.1057  12.1244
    12.4638  12.4724  12.6472  12.6640  13.2023  13.2066  13.3840  13.3869
    14.2061  14.2154  14.5052  14.5127  15.0563  15.0597  17.5901  17.6022
    22.1082  22.1170  25.8540  25.8599  29.5253  29.5329  33.0882  33.0891
    33.3111  33.3180  36.8837  36.9360  40.1080  40.1187  40.4548  40.4650
    45.1692  45.1729  45.6540  45.6809  47.6675  47.6830  50.5902  50.6113
    51.7145  51.7264  53.9481  53.9876

          k = 0.0476-0.1427-0.1427 (  1492 PWs)   bands (ev):

    10.3201  10.3265  10.3265  10.3325  12.2729  12.2820  12.2820  12.2910
    12.4915  12.5026  12.5026  12.5136  13.1441  13.1489  13.1489  13.1539
    14.2286  14.2401  14.2401  14.2517  15.9784  15.9852  15.9852  15.9918
    23.6973  23.7037  23.7037  23.7100  31.0448  31.0486  31.0486  31.0526
    38.2217  38.2300  38.2300  38.2524  38.2693  38.2943  38.2943  38.3038
    46.5772  46.5773  46.5776  46.5792  46.7545  46.7755  46.7755  46.7947
    54.8469  54.8611  54.8612  55.0781

          k = 0.0951 0.0951 0.0951 (  1502 PWs)   bands (ev):

     8.9939  10.5609  10.5612  10.5612  12.0706  12.0709  12.0709  12.5482
    12.7658  12.7658  12.7667  12.8936  12.8936  13.1662  13.1662  13.1664
    14.3321  14.3321  14.7433  14.7433  14.7435  16.6125  16.6126  16.6126
    21.7425  21.7425  21.7426  25.3690  32.5392  32.5392  32.5393  35.2976
    35.2978  35.2978  37.2786  37.2786  37.2788  37.6141  40.0292  40.0292
    44.4461  44.4461  47.7780  48.0053  48.0053  48.0063  48.1323  48.1326
    48.1326  52.4689  52.4693  52.4693

          k = 0.0951 0.0951-0.1427 (  1510 PWs)   bands (ev):

     9.8168   9.8216  10.5208  10.5210  12.2632  12.2634  12.5705  12.5828
    12.8163  12.8318  12.9261  12.9273  12.9699  12.9699  13.0338  13.0339
    14.6441  14.6461  14.6724  14.6729  14.8695  14.8723  16.8018  16.8019
    20.8120  20.8121  23.2479  23.2541  33.4165  33.4165  34.7052  34.7056
    36.2033  36.2267  37.3052  37.3162  39.0479  39.0851  39.4063  39.4064
    44.6701  44.6703  44.8628  44.8818  46.0138  46.0198  48.5019  48.5020
    49.6455  49.6532  53.0763  53.0772

          k = 0.0951-0.1427-0.1427 (  1496 PWs)   bands (ev):

    10.1319  10.1334  10.1334  10.1346  12.6073  12.6105  12.6106  12.6136
    12.8399  12.8431  12.8431  12.8465  13.2486  13.2569  13.2569  13.2652
    14.5763  14.5824  14.5824  14.5887  15.4872  15.4946  15.4947  15.5019
    21.4760  21.4811  21.4812  21.4863  35.1176  35.1222  35.1223  35.1270
    38.1718  38.1805  38.1805  38.1896  38.9916  39.0014  39.0014  39.0099
    44.1082  44.1180  44.1180  44.1275  45.1388  45.1417  45.1417  45.1443
    50.4967  50.5004  50.5004  50.5047

          k =-0.1427-0.1427-0.1427 (  1472 PWs)   bands (ev):

    10.0478  10.0482  10.0482  10.0482  12.7286  12.7286  12.7286  12.7288
    12.7288  12.7289  12.7290  12.7290  14.1885  14.1886  14.1886  14.1890
    14.7151  14.7151  14.7152  14.7152  14.7152  14.7154  14.7154  14.7154
    20.6896  20.6896  20.6896  20.6896  36.7598  36.7600  36.7600  36.7601
    39.6379  39.6379  39.6379  39.6379  39.6379  39.6384  39.6384  39.6384
    42.8254  42.8254  42.8254  42.8255  42.8255  42.8257  42.8257  42.8257
    48.8779  48.8779  48.8779  48.8782

          k =-0.0476 0.0000 0.0476 (  1490 PWs)   bands (ev):

     6.0975  10.3598  10.3598  10.5495  11.1056  11.1160  11.1163  12.6077
    12.9799  12.9843  13.6938  13.7255  13.7353  13.7568  13.9503  14.3474
    14.4734  14.4734  14.7442  14.7442  14.8151  16.7123  16.7123  18.9603
    24.1521  25.2215  26.4282  26.4284  28.3694  28.3695  28.9706  28.9710
    30.6598  36.1026  36.1315  37.0899  37.0901  37.3417  40.2236  40.2240
    41.1818  42.6813  43.4913  45.1664  46.4150  49.9353  50.3714  53.2550
    53.6252  55.3018  55.3024  56.2341

          k =-0.0476 0.0000 0.0951 (  1511 PWs)   bands (ev):

     7.1270   9.9624  10.8759  10.9942  11.3888  11.4215  11.4629  12.2955
    12.6722  12.8411  13.0327  13.0777  13.2552  13.5763  13.9981  14.0827
    14.1532  14.2402  14.2694  14.7410  14.7511  15.1407  18.3502  20.7810
    22.2732  24.8292  25.6490  26.6614  27.5183  29.7088  29.9536  30.0218
    31.1049  33.7944  34.5015  37.7135  38.6615  40.3334  40.5081  40.8575
    41.1098  44.1117  45.2258  47.1140  47.6988  48.5612  49.8681  51.2511
    52.8858  53.1604  55.0279  56.4469

          k =-0.0951 0.0000 0.0951 (  1506 PWs)   bands (ev):

     8.0768  10.6004  10.6005  11.3574  11.4398  11.6767  11.6775  12.1978
    12.3437  12.3437  12.5172  12.9148  13.3990  13.4726  13.7710  13.9092
    13.9094  14.2732  14.2733  14.4633  14.5399  16.2822  16.2823  19.6020
    22.3223  25.3502  26.9361  26.9362  27.9907  27.9911  31.1086  31.7179
    31.7217  31.8003  33.6487  36.8658  41.4555  41.8538  41.8539  43.1012
    43.2866  43.8043  43.8044  47.2993  47.3502  48.5100  48.5104  51.7232
    52.0575  52.1231  53.3950  55.2423

          k = 0.0476-0.0476 0.0476 (  1490 PWs)   bands (ev):

     6.4461  10.5476  10.5476  10.5476  11.2069  11.2074  11.2074  12.5528
    13.0047  13.0047  13.3941  13.3941  13.3941  13.8625  13.8625  14.1545
    14.1547  14.1547  14.8153  14.8153  14.8155  17.3657  17.3658  17.3658
    25.4503  25.4504  25.4505  26.7577  26.7577  26.7579  31.1856  31.1858
    31.1858  33.5414  36.2531  36.2532  36.2534  39.0899  41.1816  41.1816
    42.8853  42.8854  42.8854  46.4959  47.5965  47.5965  51.7984  51.7984
    55.1713  55.1718  55.1719  55.4394

          k = 0.0476-0.0476 0.0951 (  1514 PWs)   bands (ev):

     7.4431  10.1611  11.0070  11.0071  11.4483  11.4487  11.5044  12.3058
    12.6735  12.6736  12.8384  13.0372  13.1267  13.7673  13.8006  13.8644
    13.8659  14.1384  14.7032  14.7330  14.7333  15.4236  18.6936  18.6936
    22.9104  22.9104  26.7562  27.3848  27.3849  30.4255  30.4256  30.8517
    31.0280  32.6896  36.7116  37.6751  37.9191  38.8125  38.8125  42.3593
    43.5735  44.4777  47.0543  47.0544  47.9145  49.0198  50.1796  50.1798
    50.6929  52.9366  53.0280  55.7597

          k =-0.0951 0.0476 0.0476 (  1514 PWs)   bands (ev):

     7.4431  10.1611  11.0070  11.0071  11.4483  11.4487  11.5044  12.3058
    12.6735  12.6736  12.8384  13.0372  13.1267  13.7673  13.8005  13.8643
    13.8659  14.1384  14.7032  14.7330  14.7333  15.4236  18.6936  18.6937
    22.9104  22.9104  26.7562  27.3848  27.3849  30.4255  30.4256  30.8517
    31.0280  32.6896  36.7116  37.6751  37.9191  38.8125  38.8125  42.3593
    43.5735  44.4777  47.0544  47.0544  47.9146  49.0198  50.1796  50.1798
    50.6929  52.9366  53.0280  55.7600

          k = 0.0476-0.0476-0.1427 (  1518 PWs)   bands (ev):

     8.8780   8.8919  11.4345  11.4345  11.5014  11.5020  11.9037  11.9257
    12.2916  12.2918  12.8066  12.8319  13.3866  13.3929  13.6734  13.6737
    14.2814  14.2986  14.4521  14.4539  14.6855  14.6856  19.7727  19.7727
    21.4430  21.4430  28.3135  28.3153  28.5759  28.5844  29.0339  29.0372
    34.9884  35.0110  35.3580  35.4049  38.1396  38.1873  42.1767  42.1768
    44.8189  44.8467  45.3494  45.3496  49.3739  49.4097  50.8377  50.8501
    52.2076  52.2078  53.8437  53.8516

          k = 0.0951-0.0476 0.0951 (  1501 PWs)   bands (ev):

     8.3289  10.6089  10.6091  11.1207  11.6146  11.7550  11.7554  12.2817
    12.4875  12.4877  12.6124  12.9263  13.0754  13.5275  13.5285  13.5317
    13.8921  14.4522  14.5998  14.6008  14.6188  16.3610  16.3611  18.8934
    21.1406  24.1136  24.1136  28.0909  28.1809  31.1909  31.1910  32.2049
    32.2052  34.0638  35.2593  36.9261  39.3309  39.3310  40.0701  43.1412
    43.7188  44.7211  46.4475  46.4476  49.2363  49.2365  50.3395  50.5698
    50.8907  51.6800  52.3565  52.8437

          k =-0.0951 0.0476 0.0951 (  1501 PWs)   bands (ev):

     8.3289  10.6089  10.6091  11.1207  11.6146  11.7550  11.7554  12.2817
    12.4875  12.4877  12.6124  12.9263  13.0754  13.5275  13.5285  13.5317
    13.8921  14.4522  14.5998  14.6008  14.6188  16.3610  16.3611  18.8934
    21.1406  24.1136  24.1136  28.0909  28.1809  31.1909  31.1910  32.2049
    32.2052  34.0638  35.2593  36.9261  39.3309  39.3310  40.0701  43.1412
    43.7188  44.7211  46.4476  46.4476  49.2363  49.2365  50.3395  50.5698
    50.8907  51.6800  52.3565  52.8440

          k = 0.0951-0.0476-0.1427 (  1510 PWs)   bands (ev):

     9.5444   9.5547  10.9700  10.9747  11.8740  11.8763  12.1057  12.1244
    12.4638  12.4724  12.6472  12.6640  13.2023  13.2066  13.3840  13.3870
    14.2061  14.2154  14.5052  14.5127  15.0563  15.0597  17.5901  17.6022
    22.1082  22.1170  25.8540  25.8599  29.5253  29.5328  33.0882  33.0891
    33.3111  33.3180  36.8837  36.9360  40.1080  40.1187  40.4548  40.4650
    45.1692  45.1729  45.6540  45.6809  47.6675  47.6830  50.5902  50.6113
    51.7145  51.7264  53.9477  53.9699

          k = 0.0951-0.0951 0.0951 (  1502 PWs)   bands (ev):

     8.9939  10.5609  10.5612  10.5612  12.0706  12.0709  12.0709  12.5482
    12.7658  12.7658  12.7667  12.8936  12.8936  13.1661  13.1662  13.1664
    14.3321  14.3321  14.7433  14.7433  14.7435  16.6125  16.6126  16.6126
    21.7425  21.7425  21.7426  25.3690  32.5391  32.5392  32.5394  35.2976
    35.2978  35.2978  37.2785  37.2786  37.2789  37.6141  40.0292  40.0292
    44.4461  44.4461  47.7780  48.0052  48.0053  48.0064  48.1324  48.1325
    48.1326  52.4689  52.4693  52.4693

          k = 0.0951-0.0951-0.1427 (  1510 PWs)   bands (ev):

     9.8168   9.8216  10.5208  10.5210  12.2632  12.2634  12.5705  12.5828
    12.8163  12.8318  12.9261  12.9273  12.9699  12.9699  13.0338  13.0339
    14.6441  14.6461  14.6724  14.6729  14.8695  14.8723  16.8018  16.8019
    20.8121  20.8121  23.2479  23.2541  33.4165  33.4166  34.7053  34.7055
    36.2033  36.2267  37.3052  37.3162  39.0479  39.0851  39.4063  39.4064
    44.6701  44.6703  44.8628  44.8818  46.0138  46.0198  48.5019  48.5020
    49.6455  49.6532  53.0763  53.0772

     the Fermi energy is    14.4882 ev

!    total energy              =    -343.63013756 Ry
     Harris-Foulkes estimate   =    -343.63013755 Ry
     estimated scf accuracy    <          2.0E-09 Ry

     The total energy is the sum of the following terms:

     one-electron contribution =      -6.42238785 Ry
     hartree contribution      =      60.36254789 Ry
     xc contribution           =    -120.51377418 Ry
     ewald contribution        =    -277.00812034 Ry
     Dispersion Correction     =      -0.04782863 Ry
     smearing contrib. (-TS)   =      -0.00057444 Ry

     total magnetization       =     2.84 Bohr mag/cell
     absolute magnetization    =     3.25 Bohr mag/cell

     convergence has been achieved in  11 iterations

     Forces acting on atoms (Ry/au):

     atom    1 type  1   force =    -0.00171241   -0.00171241    0.00171261
     atom    2 type  1   force =     0.00171220    0.00171220    0.00171220
     atom    3 type  1   force =    -0.00171241    0.00171261   -0.00171241
     atom    4 type  1   force =     0.00171261   -0.00171241   -0.00171241

     Total force =     0.005932     Total SCF correction =     0.000022


     entering subroutine stress ...

          total   stress  (Ry/bohr**3)                   (kbar)     P=   -0.21
  -0.00000145   0.00000001   0.00000001         -0.21      0.00      0.00
   0.00000001  -0.00000145   0.00000001          0.00     -0.21      0.00
   0.00000001   0.00000001  -0.00000145          0.00      0.00     -0.21


     number of scf cycles    =   2
     number of bfgs steps    =   1

     enthalpy old            =    -343.6295525635 Ry
     enthalpy new            =    -343.6301375624 Ry

     CASE: enthalpy_new < enthalpy_old

     new trust radius        =       0.0032067426 bohr
     new conv_thr            =       0.0000000002 Ry

     new unit-cell volume =    289.99336 a.u.^3 (    42.97258 Ang^3 )

CELL_PARAMETERS (alat=  1.88972590)
   3.502653713   0.000000683   0.000000683
   0.000000683   3.502653713   0.000000683
   0.000000683   0.000000683   3.502653713

ATOMIC_POSITIONS (alat)
Ni1      1.756911908   1.756911908   0.002192867
Ni1      0.002189296   0.002189296   0.002189296
Ni1      1.756911908   0.002192867   1.756911908
Ni1      0.002192867   1.756911908   1.756911908



     Writing output data file Ni-ferromag.save
     NEW-OLD atomic charge density approx. for the potential

     Check: negative/imaginary core charge=   -0.000005    0.000000
     extrapolated charge   39.97455, renormalised to   40.00000

     total cpu time spent up to now is      744.2 secs

     Self-consistent Calculation

     iteration #  1     ecut=    45.00 Ry     beta=0.20
     Davidson diagonalization with overlap
     ethr =  1.00E-06,  avg # of iterations =  2.6

     total cpu time spent up to now is      782.3 secs

     total energy              =    -343.63008011 Ry
     Harris-Foulkes estimate   =    -343.65700626 Ry
     estimated scf accuracy    <       0.00021061 Ry

     total magnetization       =     2.83 Bohr mag/cell
     absolute magnetization    =     3.24 Bohr mag/cell

     iteration #  2     ecut=    45.00 Ry     beta=0.20
     Davidson diagonalization with overlap
     ethr =  5.27E-07,  avg # of iterations =  1.8

     total cpu time spent up to now is      807.3 secs

     total energy              =    -343.63021318 Ry
     Harris-Foulkes estimate   =    -343.63022917 Ry
     estimated scf accuracy    <       0.00008410 Ry

     total magnetization       =     2.84 Bohr mag/cell
     absolute magnetization    =     3.26 Bohr mag/cell

     iteration #  3     ecut=    45.00 Ry     beta=0.20
     Davidson diagonalization with overlap
     ethr =  2.10E-07,  avg # of iterations =  1.0

     total cpu time spent up to now is      831.3 secs

     total energy              =    -343.63019434 Ry
     Harris-Foulkes estimate   =    -343.63021590 Ry
     estimated scf accuracy    <       0.00002948 Ry

     total magnetization       =     2.84 Bohr mag/cell
     absolute magnetization    =     3.25 Bohr mag/cell

     iteration #  4     ecut=    45.00 Ry     beta=0.20
     Davidson diagonalization with overlap
     ethr =  7.37E-08,  avg # of iterations =  2.0

     total cpu time spent up to now is      857.4 secs

     total energy              =    -343.63021061 Ry
     Harris-Foulkes estimate   =    -343.63022141 Ry
     estimated scf accuracy    <       0.00005084 Ry

     total magnetization       =     2.83 Bohr mag/cell
     absolute magnetization    =     3.25 Bohr mag/cell

     iteration #  5     ecut=    45.00 Ry     beta=0.20
     Davidson diagonalization with overlap
     ethr =  7.37E-08,  avg # of iterations =  1.0

     total cpu time spent up to now is      881.5 secs

     total energy              =    -343.63021028 Ry
     Harris-Foulkes estimate   =    -343.63021251 Ry
     estimated scf accuracy    <       0.00001486 Ry

     total magnetization       =     2.83 Bohr mag/cell
     absolute magnetization    =     3.25 Bohr mag/cell

     iteration #  6     ecut=    45.00 Ry     beta=0.20
     Davidson diagonalization with overlap
     ethr =  3.72E-08,  avg # of iterations =  1.0

     total cpu time spent up to now is      905.6 secs

     total energy              =    -343.63020748 Ry
     Harris-Foulkes estimate   =    -343.63021055 Ry
     estimated scf accuracy    <       0.00000682 Ry

     total magnetization       =     2.83 Bohr mag/cell
     absolute magnetization    =     3.25 Bohr mag/cell

     iteration #  7     ecut=    45.00 Ry     beta=0.20
     Davidson diagonalization with overlap
     ethr =  1.71E-08,  avg # of iterations =  1.0

     total cpu time spent up to now is      929.6 secs

     total energy              =    -343.63020885 Ry
     Harris-Foulkes estimate   =    -343.63020889 Ry
     estimated scf accuracy    <       0.00000005 Ry

     total magnetization       =     2.84 Bohr mag/cell
     absolute magnetization    =     3.25 Bohr mag/cell

     iteration #  8     ecut=    45.00 Ry     beta=0.20
     Davidson diagonalization with overlap
     ethr =  1.33E-10,  avg # of iterations =  2.0

     total cpu time spent up to now is      959.1 secs

     total energy              =    -343.63020897 Ry
     Harris-Foulkes estimate   =    -343.63020904 Ry
     estimated scf accuracy    <       0.00000064 Ry

     total magnetization       =     2.84 Bohr mag/cell
     absolute magnetization    =     3.25 Bohr mag/cell

     iteration #  9     ecut=    45.00 Ry     beta=0.20
     Davidson diagonalization with overlap
     ethr =  1.33E-10,  avg # of iterations =  1.0

     total cpu time spent up to now is      983.2 secs

     total energy              =    -343.63020907 Ry
     Harris-Foulkes estimate   =    -343.63020898 Ry
     estimated scf accuracy    <       0.00000038 Ry

     total magnetization       =     2.84 Bohr mag/cell
     absolute magnetization    =     3.25 Bohr mag/cell

     iteration # 10     ecut=    45.00 Ry     beta=0.20
     Davidson diagonalization with overlap
     ethr =  1.33E-10,  avg # of iterations =  1.0

     total cpu time spent up to now is     1007.2 secs

     total energy              =    -343.63020875 Ry
     Harris-Foulkes estimate   =    -343.63020908 Ry
     estimated scf accuracy    <       0.00000077 Ry

     total magnetization       =     2.84 Bohr mag/cell
     absolute magnetization    =     3.25 Bohr mag/cell

     iteration # 11     ecut=    45.00 Ry     beta=0.20
     Davidson diagonalization with overlap
     ethr =  1.33E-10,  avg # of iterations =  2.0

     Magnetic moment per site:
     atom:    1    charge:    3.0042    magn:    0.3347    constr:    0.0000
     atom:    2    charge:    3.0024    magn:    0.3346    constr:    0.0000
     atom:    3    charge:    3.0042    magn:    0.3347    constr:    0.0000
     atom:    4    charge:    3.0042    magn:    0.3347    constr:    0.0000

     total cpu time spent up to now is     1036.1 secs

     End of self-consistent calculation

 ------ SPIN UP ------------


          k = 0.0000 0.0000 0.0000 (  1503 PWs)   bands (ev):

     5.4354   9.7196   9.7196   9.7196  10.1730  10.1731  10.1731  11.9531
    11.9531  11.9531  13.1325  13.1325  13.8507  13.8507  13.8507  13.9408
    13.9408  13.9408  13.9408  13.9408  13.9408  17.0794  17.0794  17.0794
    23.8210  23.8211  23.8211  29.5790  29.5790  29.5790  29.5791  29.5791
    29.5791  34.6593  34.6593  34.6594  38.0059  38.0060  38.0060  38.5064
    42.4857  42.4858  42.4858  46.0880  46.0880  46.0880  48.1878  55.1874
    55.1874  55.1874  57.6284  59.0447

          k =-0.0000-0.0000 0.0476 (  1478 PWs)   bands (ev):

     5.8017   9.7418   9.9039   9.9039  10.2836  10.2994  10.2995  11.8243
    12.0555  12.0555  13.0143  13.1791  13.2865  13.2865  13.6971  13.6971
    13.7648  13.7648  13.8012  13.9411  13.9411  15.4784  18.0385  18.0386
    23.9168  23.9169  26.0705  27.8272  27.8272  28.4556  28.4556  30.1396
    30.1396  34.7755  36.8323  36.8323  37.8715  38.1378  39.9630  39.9631
    40.2650  40.2650  40.9297  47.5074  48.1432  48.1433  49.1665  51.5744
    56.2844  56.2844  56.6900  56.6901

          k =-0.0000-0.0000 0.0952 (  1510 PWs)   bands (ev):

     6.8513   9.5126  10.3410  10.3410  10.5914  10.6827  10.6829  11.4801
    12.2298  12.2299  12.3523  12.3523  12.7265  13.3079  13.3139  13.3156
    13.3156  13.3287  13.3287  13.6670  13.9416  13.9416  20.0017  20.0018
    24.2339  24.2339  25.0531  25.0531  26.6876  26.6876  30.3707  31.7194
    31.7194  35.1385  36.7396  37.0431  37.0431  38.3612  38.6900  40.8769
    40.8770  44.1284  44.1285  44.1625  50.9428  51.0628  51.0628  51.0663
    51.0663  55.0523  55.9557  55.9557

          k = 0.0000 0.0000-0.1427 (  1510 PWs)   bands (ev):

     8.3460   8.3558  10.6172  10.6172  11.0193  11.0336  11.3228  11.3229
    11.3370  11.3370  12.5394  12.5593  12.7992  12.7992  12.8098  12.8098
    13.0701  13.0701  13.4821  13.4899  13.9419  13.9419  22.3757  22.3758
    22.4004  22.4005  24.6065  24.6065  25.7427  25.7427  34.0895  34.0895
    34.1068  34.1068  34.9024  34.9389  35.7814  35.7900  40.2556  40.3139
    45.6535  45.6535  45.7043  45.7043  47.6347  47.6348  52.3078  52.3079
    54.1674  54.1674  54.2143  54.2143

          k =-0.0000 0.0476 0.0476 (  1490 PWs)   bands (ev):

     6.1594   9.9402   9.9402  10.0671  10.4010  10.4011  10.4149  11.7643
    12.1006  12.1176  12.9400  12.9856  12.9985  13.0028  13.1745  13.5685
    13.6930  13.6930  13.7635  13.7635  13.8250  16.4111  16.4111  18.8087
    23.9107  25.1098  26.2577  26.2577  28.3049  28.3049  28.9482  28.9483
    30.6675  36.0487  36.1313  37.0407  37.0408  37.3457  40.1312  40.1312
    41.2839  42.6193  43.5453  45.2463  46.3808  49.8065  50.4709  53.1137
    53.6848  55.3663  55.3665  56.3201

          k =-0.0000 0.0476 0.0952 (  1511 PWs)   bands (ev):

     7.1812   9.7488  10.4224  10.4710  10.6829  10.7362  10.7553  11.4832
    11.9912  12.1308  12.2465  12.3639  12.3895  12.8228  13.2445  13.3203
    13.3324  13.3539  13.5061  13.7600  13.7664  14.4440  18.0259  20.5921
    22.0905  24.6196  25.5146  26.5438  27.4129  29.6190  29.9121  29.9686
    31.0277  33.7363  34.4795  37.6929  38.6457  40.4032  40.5819  40.7632
    41.1327  44.0555  45.0498  47.0745  47.8003  48.6045  49.9096  51.3510
    52.9563  53.2765  54.8369  56.2186

          k = 0.0000 0.0476-0.1427 (  1500 PWs)   bands (ev):

     8.6279   8.6370  10.7695  10.7702  11.0712  11.0850  11.1919  11.2035
    11.3375  11.3513  12.1683  12.1830  12.7999  12.8108  13.0322  13.0371
    13.0549  13.0555  13.6696  13.6697  13.7567  13.7589  19.8887  19.9012
    22.8764  22.8986  25.4145  25.4314  28.3181  28.3238  31.5055  31.5129
    32.0300  32.0351  35.8207  35.8626  38.8402  38.8434  42.2109  42.2469
    43.1223  43.1358  45.9310  45.9790  50.0781  50.1209  50.3603  50.3805
    52.6210  52.6370  53.2139  53.2268

          k =-0.0000 0.0952 0.0952 (  1506 PWs)   bands (ev):

     8.1079  10.3365  10.3365  10.7025  10.9510  10.9512  10.9649  11.4134
    11.6604  11.6605  11.8151  12.1338  12.4948  12.7366  13.0284  13.1833
    13.1834  13.3240  13.3240  13.4941  13.7094  15.6904  15.6904  19.3093
    22.1191  25.1702  26.7876  26.7876  27.9076  27.9077  30.9970  31.6517
    31.6531  31.7500  33.6168  36.8514  41.5407  41.8945  41.8946  43.0908
    43.4254  43.7867  43.7868  47.2063  47.3470  48.4919  48.4920  51.6915
    52.1940  52.2062  53.2194  55.3665

          k = 0.0000 0.0952-0.1427 (  1514 PWs)   bands (ev):

     9.3714   9.3789  10.8032  10.8119  11.1976  11.2072  11.2151  11.2173
    11.3567  11.3696  11.8648  11.8745  12.8367  12.8417  12.8424  12.8478
    12.9088  12.9106  13.3556  13.3622  14.3703  14.3721  17.2172  17.2270
    24.2354  24.2522  26.2312  26.2450  28.6601  28.6681  29.5489  29.5506
    32.9601  32.9638  36.7838  36.8247  40.3746  40.3827  43.0599  43.0678
    43.2298  43.2335  46.7358  46.7749  47.9297  47.9533  50.4330  50.4548
    51.7628  51.7978  53.5747  53.5839

          k = 0.0000-0.1427-0.1427 (  1516 PWs)   bands (ev):

    10.2220  10.2284  10.2284  10.2348  11.3127  11.3249  11.3249  11.3371
    11.6308  11.6343  11.6343  11.6377  12.6946  12.6958  12.6958  12.6971
    13.0004  13.0105  13.0105  13.0205  15.4372  15.4418  15.4418  15.4465
    26.2068  26.2184  26.2185  26.2300  27.5821  27.5904  27.5904  27.5989
    37.8958  37.9071  37.9071  37.9186  38.4995  38.5133  38.5134  38.5263
    47.1925  47.1925  47.1926  47.1930  49.1850  49.2070  49.2070  49.2291
    51.8356  51.8375  51.8375  51.8392

          k = 0.0476 0.0476 0.0476 (  1490 PWs)   bands (ev):

     6.5052  10.1012  10.1012  10.1012  10.5155  10.5157  10.5157  11.7294
    12.1372  12.1372  12.6943  12.6943  12.6944  13.0876  13.0876  13.3349
    13.3350  13.3350  13.8791  13.8791  13.8792  17.0384  17.0385  17.0385
    25.3360  25.3361  25.3361  26.6031  26.6031  26.6031  31.1829  31.1830
    31.1830  33.4948  36.1800  36.1800  36.1800  39.2643  41.1527  41.1527
    42.8266  42.8266  42.8266  46.6068  47.6638  47.6638  51.6632  51.6632
    55.1253  55.2450  55.2452  55.2452

          k = 0.0476 0.0476 0.0952 (  1514 PWs)   bands (ev):

     7.4869   9.9075  10.4844  10.4845  10.8013  10.8295  10.8295  11.5199
    11.9815  11.9816  12.1762  12.2175  12.2768  12.9325  13.0029  13.0889
    13.0893  13.3274  13.7818  13.7818  13.8141  14.8059  18.3811  18.3811
    22.7167  22.7167  26.6301  27.2543  27.2543  30.3700  30.3701  30.7570
    30.9596  32.6631  36.6589  37.7885  37.8645  38.8043  38.8043  42.3752
    43.5188  44.4848  47.0367  47.0367  47.8994  49.0988  50.2166  50.2167
    50.7126  53.0329  53.0944  55.6780

          k = 0.0476 0.0476-0.1427 (  1518 PWs)   bands (ev):

     8.8554   8.8635  10.8717  10.8720  10.9298  10.9299  11.1670  11.1799
    11.5875  11.5875  12.0726  12.0871  12.5476  12.5525  12.9211  12.9212
    13.4919  13.5021  13.6025  13.6047  13.7258  13.7258  19.5300  19.5300
    21.1555  21.1555  28.2175  28.2183  28.4547  28.4601  28.9391  28.9403
    34.9443  34.9588  35.4131  35.4419  38.0940  38.1241  42.2182  42.2182
    44.7640  44.7803  45.3849  45.3850  49.4848  49.5074  50.9115  50.9193
    52.2028  52.2028  53.6964  53.6983

          k = 0.0476 0.0952 0.0952 (  1501 PWs)   bands (ev):

     8.3259  10.2253  10.2254  10.5116  11.1170  11.1630  11.1631  11.5649
    11.7775  11.7776  11.9108  12.1358  12.2617  12.7401  12.7402  12.7567
    13.0598  13.6150  13.6840  13.6996  13.7000  15.8210  15.8211  18.6328
    20.8132  23.9139  23.9139  27.9530  28.0664  31.1459  31.1459  32.1331
    32.1332  34.0298  35.2541  36.9221  39.3383  39.3384  40.1671  43.0533
    43.7509  44.7988  46.4786  46.4787  49.2089  49.2090  50.4335  50.6122
    50.9411  51.6364  52.3183  52.9428

          k = 0.0476 0.0952-0.1427 (  1510 PWs)   bands (ev):

     9.4068   9.4117  10.4459  10.4474  11.3303  11.3307  11.4738  11.4842
    11.7822  11.7866  11.9006  11.9101  12.4093  12.4128  12.6208  12.6230
    13.3550  13.3591  13.5828  13.5870  14.2766  14.2782  17.1950  17.2029
    21.8260  21.8322  25.6727  25.6771  29.4453  29.4492  33.0510  33.0526
    33.2642  33.2677  36.9012  36.9347  40.1474  40.1547  40.4572  40.4631
    45.2069  45.2096  45.6923  45.7084  47.7154  47.7241  50.5834  50.5968
    51.8031  51.8110  53.9036  53.9185

          k = 0.0476-0.1427-0.1427 (  1492 PWs)   bands (ev):

     9.9766   9.9787   9.9787   9.9807  11.7185  11.7219  11.7219  11.7251
    11.8023  11.8094  11.8094  11.8166  12.3790  12.3825  12.3825  12.3860
    13.3333  13.3397  13.3397  13.3461  15.3476  15.3526  15.3526  15.3577
    23.4585  23.4632  23.4632  23.4680  30.9837  30.9852  30.9852  30.9868
    38.1777  38.1870  38.1870  38.1978  38.3446  38.3574  38.3574  38.3681
    46.6698  46.6698  46.6698  46.6714  46.7627  46.7753  46.7753  46.7865
    54.8213  54.8286  54.8286  55.0916

          k = 0.0952 0.0952 0.0952 (  1502 PWs)   bands (ev):

     8.8697  10.0603  10.0604  10.0604  11.5216  11.5218  11.5218  12.0358
    12.0948  12.0948  12.0975  12.1048  12.1048  12.3859  12.3859  12.3860
    13.4628  13.4628  13.8279  13.8279  13.8279  16.1992  16.1992  16.1992
    21.4207  21.4207  21.4207  25.1615  32.5122  32.5122  32.5122  35.2575
    35.2576  35.2576  37.2872  37.2872  37.2873  37.8029  39.9668  39.9668
    44.4613  44.4613  47.7896  48.0819  48.0819  48.0822  48.1568  48.1569
    48.1569  52.4668  52.4669  52.4669

          k = 0.0952 0.0952-0.1427 (  1510 PWs)   bands (ev):

     9.4952   9.4965   9.9917   9.9918  11.6416  11.6417  11.9245  11.9324
    12.1447  12.1458  12.2644  12.2657  12.2768  12.2849  12.3803  12.3805
    13.7478  13.7486  13.7561  13.7564  14.1670  14.1675  16.4833  16.4833
    20.3917  20.3918  22.9765  22.9811  33.4276  33.4277  34.6410  34.6411
    36.3350  36.3490  37.2569  37.2644  38.9977  39.0215  39.4532  39.4533
    44.6687  44.6688  44.9132  44.9251  46.0320  46.0352  48.5675  48.5675
    49.6210  49.6260  52.9963  52.9966

          k = 0.0952-0.1427-0.1427 (  1496 PWs)   bands (ev):

     9.6713   9.6714   9.6714   9.6714  11.8858  11.8879  11.8879  11.8899
    12.0755  12.0777  12.0777  12.0800  12.8229  12.8275  12.8275  12.8320
    13.6728  13.6763  13.6763  13.6797  14.9698  14.9755  14.9755  14.9813
    21.1014  21.1053  21.1053  21.1092  35.1656  35.1675  35.1675  35.1695
    38.2263  38.2324  38.2324  38.2388  38.9487  38.9551  38.9551  38.9609
    44.1052  44.1107  44.1107  44.1161  45.1721  45.1736  45.1736  45.1749
    50.4359  50.4383  50.4383  50.4409

          k =-0.1427-0.1427-0.1427 (  1472 PWs)   bands (ev):

     9.5553   9.5554   9.5554   9.5554  11.9661  11.9661  11.9661  11.9661
    11.9661  11.9662  11.9662  11.9662  13.8036  13.8036  13.8036  13.8038
    13.8038  13.8038  13.8038  13.8038  14.2994  14.2995  14.2996  14.2996
    20.2241  20.2241  20.2241  20.2242  36.9613  36.9614  36.9614  36.9615
    39.5912  39.5912  39.5913  39.5913  39.5913  39.5915  39.5915  39.5915
    42.8193  42.8193  42.8194  42.8194  42.8194  42.8194  42.8195  42.8195
    48.7922  48.7922  48.7923  48.7923

          k =-0.0476-0.0000 0.0476 (  1490 PWs)   bands (ev):

     6.1594   9.9402   9.9402  10.0671  10.4010  10.4011  10.4149  11.7643
    12.1006  12.1176  12.9400  12.9856  12.9985  13.0028  13.1745  13.5685
    13.6930  13.6930  13.7635  13.7635  13.8250  16.4111  16.4111  18.8087
    23.9107  25.1098  26.2577  26.2577  28.3049  28.3049  28.9482  28.9483
    30.6675  36.0487  36.1313  37.0407  37.0408  37.3457  40.1311  40.1313
    41.2839  42.6193  43.5453  45.2463  46.3807  49.8064  50.4709  53.1137
    53.6848  55.3663  55.3666  56.3201

          k =-0.0476-0.0000 0.0952 (  1511 PWs)   bands (ev):

     7.1812   9.7488  10.4224  10.4710  10.6829  10.7362  10.7553  11.4832
    11.9912  12.1308  12.2465  12.3639  12.3895  12.8228  13.2445  13.3203
    13.3324  13.3539  13.5061  13.7600  13.7664  14.4440  18.0259  20.5921
    22.0905  24.6196  25.5146  26.5438  27.4129  29.6189  29.9121  29.9686
    31.0277  33.7363  34.4795  37.6929  38.6457  40.4031  40.5819  40.7633
    41.1327  44.0555  45.0498  47.0745  47.8003  48.6045  49.9096  51.3510
    52.9563  53.2765  54.8369  56.2186

          k =-0.0952-0.0000 0.0952 (  1506 PWs)   bands (ev):

     8.1079  10.3365  10.3365  10.7025  10.9510  10.9512  10.9649  11.4134
    11.6604  11.6605  11.8151  12.1338  12.4948  12.7366  13.0284  13.1833
    13.1834  13.3240  13.3240  13.4941  13.7094  15.6904  15.6904  19.3093
    22.1191  25.1702  26.7876  26.7876  27.9076  27.9078  30.9970  31.6517
    31.6531  31.7500  33.6167  36.8513  41.5406  41.8945  41.8946  43.0908
    43.4254  43.7868  43.7868  47.2062  47.3470  48.4919  48.4920  51.6915
    52.1939  52.2062  53.2194  55.3658

          k = 0.0476-0.0476 0.0476 (  1490 PWs)   bands (ev):

     6.5052  10.1012  10.1012  10.1012  10.5155  10.5157  10.5157  11.7294
    12.1372  12.1372  12.6943  12.6943  12.6944  13.0876  13.0876  13.3349
    13.3350  13.3350  13.8791  13.8791  13.8792  17.0384  17.0385  17.0385
    25.3360  25.3360  25.3361  26.6031  26.6031  26.6032  31.1829  31.1830
    31.1830  33.4948  36.1800  36.1800  36.1801  39.2643  41.1527  41.1527
    42.8266  42.8267  42.8267  46.6068  47.6637  47.6638  51.6632  51.6632
    55.1253  55.2450  55.2452  55.2452

          k = 0.0476-0.0476 0.0952 (  1514 PWs)   bands (ev):

     7.4869   9.9075  10.4844  10.4845  10.8013  10.8295  10.8295  11.5199
    11.9815  11.9816  12.1762  12.2175  12.2768  12.9325  13.0029  13.0889
    13.0893  13.3274  13.7818  13.7818  13.8141  14.8059  18.3811  18.3811
    22.7167  22.7167  26.6301  27.2543  27.2543  30.3700  30.3701  30.7570
    30.9596  32.6631  36.6589  37.7884  37.8645  38.8043  38.8043  42.3752
    43.5188  44.4848  47.0367  47.0367  47.8994  49.0988  50.2166  50.2167
    50.7126  53.0329  53.0944  55.6780

          k =-0.0952 0.0476 0.0476 (  1514 PWs)   bands (ev):

     7.4869   9.9075  10.4844  10.4845  10.8013  10.8295  10.8295  11.5199
    11.9815  11.9816  12.1762  12.2175  12.2768  12.9325  13.0029  13.0889
    13.0893  13.3274  13.7818  13.7818  13.8141  14.8059  18.3811  18.3811
    22.7167  22.7167  26.6301  27.2543  27.2543  30.3700  30.3701  30.7570
    30.9596  32.6631  36.6589  37.7885  37.8645  38.8043  38.8043  42.3752
    43.5188  44.4847  47.0367  47.0367  47.8994  49.0988  50.2166  50.2167
    50.7126  53.0329  53.0944  55.6780

          k = 0.0476-0.0476-0.1427 (  1518 PWs)   bands (ev):

     8.8554   8.8635  10.8717  10.8720  10.9298  10.9299  11.1670  11.1799
    11.5875  11.5875  12.0726  12.0871  12.5476  12.5525  12.9211  12.9212
    13.4919  13.5021  13.6025  13.6047  13.7258  13.7258  19.5300  19.5300
    21.1555  21.1555  28.2175  28.2183  28.4547  28.4601  28.9391  28.9403
    34.9442  34.9587  35.4131  35.4419  38.0940  38.1241  42.2182  42.2183
    44.7640  44.7803  45.3849  45.3850  49.4848  49.5074  50.9115  50.9193
    52.2027  52.2028  53.6964  53.6982

          k = 0.0952-0.0476 0.0952 (  1501 PWs)   bands (ev):

     8.3259  10.2253  10.2254  10.5116  11.1170  11.1630  11.1631  11.5649
    11.7775  11.7776  11.9108  12.1358  12.2617  12.7401  12.7402  12.7567
    13.0598  13.6150  13.6840  13.6996  13.7000  15.8210  15.8211  18.6328
    20.8132  23.9139  23.9139  27.9530  28.0665  31.1459  31.1459  32.1331
    32.1332  34.0298  35.2541  36.9221  39.3383  39.3384  40.1671  43.0533
    43.7509  44.7988  46.4786  46.4787  49.2089  49.2090  50.4336  50.6122
    50.9411  51.6364  52.3183  52.9428

          k =-0.0952 0.0476 0.0952 (  1501 PWs)   bands (ev):

     8.3259  10.2253  10.2254  10.5116  11.1170  11.1630  11.1631  11.5649
    11.7775  11.7776  11.9108  12.1358  12.2617  12.7401  12.7402  12.7567
    13.0598  13.6150  13.6840  13.6996  13.7000  15.8211  15.8211  18.6328
    20.8132  23.9139  23.9139  27.9530  28.0664  31.1459  31.1460  32.1331
    32.1332  34.0298  35.2541  36.9221  39.3383  39.3384  40.1671  43.0533
    43.7509  44.7988  46.4786  46.4787  49.2089  49.2090  50.4335  50.6122
    50.9411  51.6364  52.3183  52.9428

          k = 0.0952-0.0476-0.1427 (  1510 PWs)   bands (ev):

     9.4068   9.4117  10.4459  10.4474  11.3303  11.3307  11.4738  11.4842
    11.7822  11.7866  11.9006  11.9101  12.4093  12.4128  12.6208  12.6230
    13.3550  13.3591  13.5828  13.5870  14.2766  14.2782  17.1950  17.2029
    21.8260  21.8322  25.6727  25.6772  29.4453  29.4492  33.0510  33.0526
    33.2642  33.2677  36.9012  36.9347  40.1474  40.1547  40.4571  40.4631
    45.2069  45.2096  45.6922  45.7084  47.7154  47.7241  50.5834  50.5968
    51.8032  51.8110  53.9036  53.9185

          k = 0.0952-0.0952 0.0952 (  1502 PWs)   bands (ev):

     8.8697  10.0603  10.0604  10.0604  11.5217  11.5218  11.5218  12.0358
    12.0948  12.0948  12.0975  12.1048  12.1048  12.3859  12.3859  12.3860
    13.4628  13.4628  13.8279  13.8279  13.8279  16.1992  16.1992  16.1992
    21.4207  21.4207  21.4207  25.1615  32.5121  32.5122  32.5123  35.2575
    35.2576  35.2576  37.2872  37.2872  37.2873  37.8029  39.9668  39.9668
    44.4613  44.4613  47.7896  48.0818  48.0819  48.0823  48.1568  48.1569
    48.1569  52.4668  52.4669  52.4670

          k = 0.0952-0.0952-0.1427 (  1510 PWs)   bands (ev):

     9.4952   9.4965   9.9917   9.9918  11.6416  11.6417  11.9245  11.9324
    12.1447  12.1458  12.2644  12.2657  12.2768  12.2849  12.3803  12.3805
    13.7478  13.7486  13.7561  13.7564  14.1670  14.1675  16.4833  16.4833
    20.3917  20.3918  22.9765  22.9811  33.4276  33.4277  34.6410  34.6411
    36.3350  36.3490  37.2568  37.2644  38.9977  39.0215  39.4532  39.4533
    44.6687  44.6688  44.9132  44.9251  46.0319  46.0352  48.5675  48.5675
    49.6210  49.6260  52.9963  52.9967

 ------ SPIN DOWN ----------


          k = 0.0000 0.0000 0.0000 (  1503 PWs)   bands (ev):

     5.3808  10.1816  10.1816  10.1816  10.8911  10.8913  10.8913  12.8335
    12.8335  12.8335  13.9125  13.9125  14.6648  14.6648  14.6648  14.9501
    14.9501  14.9501  14.9502  14.9502  14.9502  17.0007  17.0007  17.0007
    24.1267  24.1267  24.1267  29.5653  29.5653  29.5653  29.5655  29.5655
    29.5655  34.8236  34.8236  34.8236  38.1494  38.1496  38.1496  38.3010
    42.4565  42.4565  42.4565  46.1604  46.1605  46.1605  48.0284  55.3767
    55.3767  55.3767  58.1516  59.5635

          k =-0.0000-0.0000 0.0476 (  1478 PWs)   bands (ev):

     5.7471  10.1573  10.3759  10.3759  11.0106  11.0150  11.0151  12.6914
    12.9399  12.9399  13.7848  13.9612  14.1064  14.1065  14.4977  14.4977
    14.6129  14.7575  14.7575  14.9505  14.9505  15.5486  18.1454  18.1455
    24.2074  24.2075  26.2724  27.8958  27.8959  28.4829  28.4830  30.1423
    30.1423  34.9271  36.9133  36.9133  37.7328  38.2789  40.0834  40.0835
    40.3071  40.3071  40.8598  47.5279  48.1171  48.1171  49.2381  51.5656
    56.4959  56.4959  56.6167  56.6168

          k =-0.0000-0.0000 0.0952 (  1510 PWs)   bands (ev):

     6.8010   9.7208  10.8375  10.8375  11.3438  11.3929  11.3931  12.3129
    12.9591  12.9592  13.2498  13.2498  13.4637  13.6847  14.0854  14.0854
    14.0960  14.2824  14.2824  14.4721  14.9511  14.9511  20.1870  20.1870
    24.4801  24.4801  25.1939  25.1939  26.7858  26.7859  30.4664  31.7564
    31.7564  35.2524  36.7049  37.1146  37.1146  38.2709  38.8360  40.8823
    40.8824  44.2278  44.2279  44.3808  50.8984  50.9680  50.9680  50.9929
    50.9929  54.9481  56.1974  56.1974

          k = 0.0000 0.0000-0.1427 (  1510 PWs)   bands (ev):

     8.3394   8.3495  11.1293  11.1294  11.8092  11.8244  12.0318  12.0320
    12.0463  12.0464  13.1863  13.2081  13.7203  13.7203  13.7314  13.7314
    13.8168  13.8168  14.2784  14.2866  14.9514  14.9514  22.5572  22.5572
    22.5824  22.5824  24.8032  24.8033  25.9000  25.9001  34.1546  34.1546
    34.1719  34.1719  34.8821  34.9197  35.8320  35.8423  40.4472  40.5065
    45.6085  45.6085  45.6605  45.6606  47.7088  47.7089  52.4973  52.4974
    54.0572  54.0572  54.1041  54.1041

          k =-0.0000 0.0476 0.0476 (  1490 PWs)   bands (ev):

     6.1058  10.3683  10.3683  10.5580  11.1145  11.1249  11.1251  12.6177
    12.9903  12.9947  13.7050  13.7415  13.7465  13.7634  13.9616  14.3592
    14.4853  14.4853  14.7563  14.7563  14.8271  16.7256  16.7256  18.9744
    24.1694  25.2395  26.4464  26.4465  28.3879  28.3879  28.9893  28.9894
    30.6786  36.1228  36.1530  37.1113  37.1114  37.3632  40.2491  40.2491
    41.2032  42.7067  43.5144  45.1900  46.4414  49.9653  50.3964  53.2859
    53.6512  55.3285  55.3287  56.2605

          k =-0.0000 0.0476 0.0952 (  1511 PWs)   bands (ev):

     7.1357   9.9714  10.8847  11.0030  11.3981  11.4307  11.4722  12.3051
    12.6825  12.8516  13.0446  13.0868  13.2660  13.5873  14.0095  14.0947
    14.1649  14.2515  14.2807  14.7532  14.7628  15.1531  18.3646  20.7962
    22.2891  24.8476  25.6663  26.6787  27.5381  29.7275  29.9741  30.0390
    31.1252  33.8145  34.5220  37.7349  38.6837  40.3548  40.5296  40.8831
    41.1323  44.1377  45.2544  47.1410  47.7228  48.5870  49.8938  51.2763
    52.9120  53.1860  55.0572  56.4721

          k = 0.0000 0.0476-0.1427 (  1500 PWs)   bands (ev):

     8.6333   8.6428  11.2724  11.2737  11.8518  11.8660  11.8709  11.8824
    12.0493  12.0635  12.9081  12.9250  13.7235  13.7349  13.8010  13.8034
    13.8067  13.8087  14.5080  14.5085  14.7507  14.7531  20.1701  20.1828
    23.0695  23.0919  25.5854  25.6036  28.4347  28.4413  31.6200  31.6266
    32.0883  32.0927  35.8460  35.8878  38.8420  38.8443  42.3631  42.4003
    43.1147  43.1296  45.8825  45.9316  50.1440  50.1861  50.2927  50.3131
    52.5372  52.5538  53.3822  53.3950

          k =-0.0000 0.0952 0.0952 (  1506 PWs)   bands (ev):

     8.0858  10.6097  10.6098  11.3667  11.4490  11.6866  11.6869  12.2072
    12.3536  12.3536  12.5273  12.9250  13.4100  13.4835  13.7820  13.9208
    13.9209  14.2848  14.2848  14.4749  14.5517  16.2956  16.2956  19.6170
    22.3384  25.3687  26.9545  26.9545  28.0089  28.0090  31.1280  31.7403
    31.7419  31.8178  33.6693  36.8871  41.4772  41.8764  41.8765  43.1255
    43.3081  43.8292  43.8293  47.3277  47.3763  48.5368  48.5370  51.7511
    52.0832  52.1488  53.4232  55.2681

          k = 0.0000 0.0952-0.1427 (  1514 PWs)   bands (ev):

     9.4325   9.4406  11.2228  11.2315  11.8523  11.8531  11.9618  11.9754
    12.0771  12.0905  12.6011  12.6118  13.5763  13.5766  13.6491  13.6508
    13.7711  13.7828  14.3238  14.3309  15.1761  15.1783  17.6815  17.6911
    24.4408  24.4572  26.3824  26.3974  28.8229  28.8300  29.6387  29.6411
    33.0315  33.0361  36.8115  36.8525  40.3740  40.3812  43.0061  43.0134
    43.2484  43.2517  46.6737  46.7136  48.0115  48.0362  50.3801  50.4025
    51.8839  51.9188  53.4897  53.4984

          k = 0.0000-0.1427-0.1427 (  1516 PWs)   bands (ev):

    10.4407  10.4478  10.4479  10.4550  12.0497  12.0627  12.0627  12.0757
    12.2995  12.3035  12.3035  12.3076  13.4322  13.4335  13.4335  13.4350
    13.9489  13.9595  13.9595  13.9701  16.1198  16.1237  16.1237  16.1276
    26.4026  26.4135  26.4136  26.4243  27.7048  27.7140  27.7141  27.7235
    37.9703  37.9812  37.9812  37.9926  38.4665  38.4795  38.4796  38.4915
    47.0722  47.0726  47.0727  47.0737  49.1737  49.1963  49.1963  49.2189
    51.9357  51.9387  51.9387  51.9415

          k = 0.0476 0.0476 0.0476 (  1490 PWs)   bands (ev):

     6.4545  10.5562  10.5562  10.5562  11.2161  11.2163  11.2163  12.5628
    13.0153  13.0153  13.4050  13.4050  13.4050  13.8739  13.8739  14.1660
    14.1661  14.1661  14.8274  14.8274  14.8275  17.3795  17.3795  17.3795
    25.4676  25.4676  25.4676  26.7764  26.7764  26.7765  31.2048  31.2050
    31.2050  33.5614  36.2750  36.2750  36.2750  39.1090  41.2053  41.2053
    42.9107  42.9108  42.9108  46.5196  47.6210  47.6210  51.8300  51.8300
    55.1983  55.1986  55.1986  55.4634

          k = 0.0476 0.0476 0.0952 (  1514 PWs)   bands (ev):

     7.4519  10.1702  11.0159  11.0160  11.4578  11.4579  11.5137  12.3155
    12.6839  12.6839  12.8492  13.0473  13.1372  13.7787  13.8126  13.8757
    13.8764  14.1497  14.7153  14.7450  14.7452  15.4362  18.7081  18.7081
    22.9270  22.9270  26.7744  27.4033  27.4034  30.4450  30.4451  30.8712
    31.0471  32.7096  36.7335  37.6944  37.9417  38.8346  38.8347  42.3828
    43.5992  44.5023  47.0809  47.0809  47.9415  49.0446  50.2056  50.2057
    50.7197  52.9624  53.0546  55.7929

          k = 0.0476 0.0476-0.1427 (  1518 PWs)   bands (ev):

     8.8897   8.8985  11.4437  11.4438  11.5111  11.5114  11.9172  11.9313
    12.3014  12.3015  12.8215  12.8375  13.3986  13.4027  13.6847  13.6848
    14.2962  14.3071  14.4642  14.4653  14.6975  14.6975  19.7874  19.7874
    21.4595  21.4595  28.3325  28.3333  28.5969  28.6017  29.0538  29.0552
    35.0138  35.0281  35.3859  35.4157  38.1712  38.2015  42.1996  42.1996
    44.8503  44.8680  45.3739  45.3740  49.4053  49.4280  50.8658  50.8737
    52.2363  52.2363  53.8752  53.8783

          k = 0.0476 0.0952 0.0952 (  1501 PWs)   bands (ev):

     8.3379  10.6182  10.6182  11.1299  11.6240  11.7647  11.7649  12.2915
    12.4976  12.4977  12.6226  12.9365  13.0859  13.5391  13.5396  13.5423
    13.9031  14.4640  14.6123  14.6128  14.6300  16.3744  16.3744  18.9076
    21.1571  24.1309  24.1309  28.1139  28.1952  31.2098  31.2098  32.2257
    32.2258  34.0846  35.2797  36.9474  39.3532  39.3532  40.0910  43.1670
    43.7426  44.7446  46.4727  46.4727  49.2637  49.2638  50.3652  50.5959
    50.9175  51.7091  52.3841  52.8700

          k = 0.0476 0.0952-0.1427 (  1510 PWs)   bands (ev):

     9.5555   9.5621  10.9802  10.9831  11.8841  11.8855  12.1190  12.1309
    12.4754  12.4808  12.6603  12.6709  13.2138  13.2165  13.3954  13.3973
    14.2194  14.2252  14.5183  14.5231  15.0693  15.0714  17.6062  17.6139
    22.1266  22.1321  25.8732  25.8769  29.5454  29.5503  33.1083  33.1089
    33.3328  33.3372  36.9144  36.9476  40.1320  40.1388  40.4796  40.4860
    45.1944  45.1967  45.6836  45.7007  47.6958  47.7056  50.6217  50.6352
    51.7428  51.7503  53.9848  54.0146

          k = 0.0476-0.1427-0.1427 (  1492 PWs)   bands (ev):

    10.3316  10.3356  10.3356  10.3395  12.2864  12.2922  12.2922  12.2979
    12.5054  12.5124  12.5124  12.5195  13.1565  13.1596  13.1596  13.1627
    14.2443  14.2517  14.2517  14.2590  15.9940  15.9983  15.9983  16.0025
    23.7170  23.7210  23.7210  23.7250  31.0655  31.0679  31.0679  31.0705
    38.2504  38.2568  38.2569  38.2698  38.2963  38.3108  38.3108  38.3182
    46.6019  46.6019  46.6020  46.6029  46.7876  46.8007  46.8007  46.8131
    54.8832  54.8928  54.8929  55.1064

          k = 0.0952 0.0952 0.0952 (  1502 PWs)   bands (ev):

     9.0029  10.5700  10.5701  10.5701  12.0805  12.0807  12.0807  12.5586
    12.7764  12.7764  12.7768  12.9037  12.9037  13.1769  13.1769  13.1770
    14.3437  14.3437  14.7554  14.7554  14.7555  16.6258  16.6258  16.6258
    21.7593  21.7593  21.7594  25.3869  32.5586  32.5586  32.5587  35.3190
    35.3192  35.3192  37.3000  37.3000  37.3000  37.6321  40.0530  40.0530
    44.4706  44.4706  47.8048  48.0304  48.0304  48.0308  48.1583  48.1584
    48.1584  52.4981  52.4982  52.4982

          k = 0.0952 0.0952-0.1427 (  1510 PWs)   bands (ev):

     9.8266   9.8297  10.5298  10.5298  12.2731  12.2732  12.5830  12.5908
    12.8295  12.8394  12.9369  12.9376  12.9802  12.9802  13.0444  13.0444
    14.6565  14.6577  14.6845  14.6847  14.8821  14.8839  16.8150  16.8150
    20.8288  20.8288  23.2663  23.2703  33.4355  33.4355  34.7271  34.7272
    36.2260  36.2408  37.3296  37.3366  39.0782  39.1018  39.4280  39.4280
    44.6952  44.6953  44.8904  44.9025  46.0400  46.0439  48.5274  48.5274
    49.6746  49.6795  53.1056  53.1059

          k = 0.0952-0.1427-0.1427 (  1496 PWs)   bands (ev):

    10.1412  10.1421  10.1421  10.1429  12.6187  12.6207  12.6207  12.6227
    12.8514  12.8535  12.8535  12.8556  13.2624  13.2677  13.2677  13.2730
    14.5904  14.5943  14.5944  14.5983  15.5024  15.5071  15.5071  15.5118
    21.4948  21.4980  21.4980  21.5013  35.1386  35.1416  35.1416  35.1446
    38.1961  38.2017  38.2017  38.2074  39.0183  39.0243  39.0243  39.0299
    44.1366  44.1428  44.1428  44.1488  45.1645  45.1663  45.1664  45.1680
    50.5264  50.5288  50.5288  50.5315

          k =-0.1427-0.1427-0.1427 (  1472 PWs)   bands (ev):

    10.0566  10.0567  10.0567  10.0568  12.7390  12.7390  12.7390  12.7391
    12.7391  12.7391  12.7391  12.7391  14.2000  14.2000  14.2000  14.2002
    14.7271  14.7271  14.7272  14.7272  14.7272  14.7273  14.7273  14.7273
    20.7064  20.7064  20.7064  20.7065  36.7772  36.7775  36.7775  36.7775
    39.6614  39.6614  39.6614  39.6615  39.6615  39.6617  39.6617  39.6617
    42.8497  42.8497  42.8497  42.8498  42.8498  42.8498  42.8499  42.8499
    48.9064  48.9064  48.9064  48.9065

          k =-0.0476-0.0000 0.0476 (  1490 PWs)   bands (ev):

     6.1058  10.3683  10.3683  10.5580  11.1145  11.1249  11.1251  12.6177
    12.9903  12.9948  13.7050  13.7415  13.7465  13.7634  13.9616  14.3592
    14.4853  14.4853  14.7563  14.7563  14.8271  16.7256  16.7256  18.9744
    24.1694  25.2395  26.4464  26.4465  28.3879  28.3879  28.9893  28.9894
    30.6786  36.1228  36.1530  37.1114  37.1114  37.3632  40.2490  40.2492
    41.2032  42.7068  43.5144  45.1900  46.4414  49.9653  50.3964  53.2859
    53.6512  55.3285  55.3287  56.2605

          k =-0.0476-0.0000 0.0952 (  1511 PWs)   bands (ev):

     7.1357   9.9714  10.8847  11.0030  11.3981  11.4307  11.4722  12.3051
    12.6825  12.8516  13.0446  13.0868  13.2660  13.5873  14.0095  14.0947
    14.1649  14.2515  14.2807  14.7532  14.7628  15.1531  18.3646  20.7962
    22.2891  24.8476  25.6663  26.6787  27.5381  29.7275  29.9741  30.0390
    31.1252  33.8145  34.5220  37.7349  38.6837  40.3548  40.5296  40.8831
    41.1323  44.1377  45.2544  47.1410  47.7228  48.5870  49.8938  51.2763
    52.9120  53.1860  55.0572  56.4721

          k =-0.0952-0.0000 0.0952 (  1506 PWs)   bands (ev):

     8.0858  10.6097  10.6098  11.3667  11.4490  11.6866  11.6869  12.2072
    12.3536  12.3536  12.5273  12.9250  13.4100  13.4835  13.7820  13.9208
    13.9209  14.2847  14.2848  14.4749  14.5517  16.2956  16.2956  19.6170
    22.3384  25.3687  26.9545  26.9546  28.0088  28.0090  31.1280  31.7403
    31.7419  31.8178  33.6693  36.8871  41.4772  41.8765  41.8765  43.1255
    43.3081  43.8292  43.8293  47.3276  47.3763  48.5369  48.5370  51.7512
    52.0832  52.1488  53.4232  55.2697

          k = 0.0476-0.0476 0.0476 (  1490 PWs)   bands (ev):

     6.4545  10.5562  10.5562  10.5563  11.2161  11.2163  11.2163  12.5628
    13.0153  13.0153  13.4050  13.4050  13.4050  13.8739  13.8739  14.1660
    14.1661  14.1661  14.8274  14.8274  14.8275  17.3795  17.3795  17.3795
    25.4676  25.4676  25.4676  26.7764  26.7764  26.7765  31.2048  31.2049
    31.2050  33.5614  36.2749  36.2750  36.2751  39.1090  41.2053  41.2053
    42.9107  42.9109  42.9109  46.5196  47.6210  47.6210  51.8300  51.8300
    55.1984  55.1986  55.1986  55.4634

          k = 0.0476-0.0476 0.0952 (  1514 PWs)   bands (ev):

     7.4519  10.1702  11.0160  11.0160  11.4578  11.4579  11.5137  12.3155
    12.6839  12.6839  12.8492  13.0473  13.1372  13.7787  13.8126  13.8757
    13.8763  14.1497  14.7153  14.7450  14.7452  15.4362  18.7081  18.7081
    22.9270  22.9270  26.7744  27.4034  27.4034  30.4450  30.4450  30.8712
    31.0471  32.7096  36.7335  37.6944  37.9417  38.8346  38.8347  42.3828
    43.5992  44.5023  47.0809  47.0810  47.9415  49.0446  50.2056  50.2057
    50.7197  52.9624  53.0546  55.7929

          k =-0.0952 0.0476 0.0476 (  1514 PWs)   bands (ev):

     7.4519  10.1702  11.0160  11.0160  11.4578  11.4579  11.5137  12.3155
    12.6839  12.6839  12.8492  13.0473  13.1372  13.7787  13.8126  13.8757
    13.8764  14.1497  14.7153  14.7450  14.7452  15.4362  18.7081  18.7081
    22.9270  22.9270  26.7744  27.4034  27.4034  30.4450  30.4450  30.8712
    31.0471  32.7096  36.7335  37.6944  37.9417  38.8346  38.8347  42.3828
    43.5992  44.5023  47.0809  47.0809  47.9415  49.0446  50.2056  50.2057
    50.7197  52.9624  53.0546  55.7929

          k = 0.0476-0.0476-0.1427 (  1518 PWs)   bands (ev):

     8.8897   8.8985  11.4438  11.4438  11.5111  11.5114  11.9172  11.9313
    12.3014  12.3015  12.8215  12.8375  13.3986  13.4027  13.6847  13.6848
    14.2962  14.3071  14.4642  14.4653  14.6975  14.6975  19.7874  19.7874
    21.4595  21.4595  28.3326  28.3333  28.5969  28.6018  29.0538  29.0552
    35.0138  35.0280  35.3859  35.4157  38.1712  38.2015  42.1996  42.1997
    44.8503  44.8680  45.3740  45.3740  49.4053  49.4280  50.8658  50.8737
    52.2362  52.2364  53.8752  53.8783

          k = 0.0952-0.0476 0.0952 (  1501 PWs)   bands (ev):

     8.3379  10.6182  10.6182  11.1299  11.6240  11.7647  11.7649  12.2915
    12.4976  12.4977  12.6226  12.9365  13.0859  13.5391  13.5396  13.5423
    13.9031  14.4640  14.6123  14.6128  14.6300  16.3744  16.3744  18.9076
    21.1571  24.1309  24.1310  28.1139  28.1952  31.2098  31.2098  32.2257
    32.2258  34.0846  35.2797  36.9474  39.3531  39.3532  40.0910  43.1670
    43.7426  44.7446  46.4727  46.4727  49.2638  49.2638  50.3652  50.5959
    50.9175  51.7091  52.3841  52.8698

          k =-0.0952 0.0476 0.0952 (  1501 PWs)   bands (ev):

     8.3379  10.6182  10.6182  11.1299  11.6240  11.7647  11.7649  12.2915
    12.4976  12.4976  12.6226  12.9365  13.0859  13.5391  13.5396  13.5423
    13.9031  14.4640  14.6123  14.6128  14.6300  16.3744  16.3744  18.9076
    21.1571  24.1309  24.1310  28.1139  28.1952  31.2097  31.2098  32.2257
    32.2258  34.0846  35.2797  36.9474  39.3532  39.3532  40.0910  43.1670
    43.7426  44.7446  46.4727  46.4727  49.2637  49.2639  50.3652  50.5959
    50.9175  51.7090  52.3841  52.8700

          k = 0.0952-0.0476-0.1427 (  1510 PWs)   bands (ev):

     9.5555   9.5621  10.9802  10.9831  11.8841  11.8855  12.1190  12.1309
    12.4754  12.4808  12.6603  12.6709  13.2138  13.2165  13.3954  13.3973
    14.2194  14.2252  14.5183  14.5231  15.0693  15.0714  17.6062  17.6139
    22.1265  22.1321  25.8732  25.8769  29.5454  29.5503  33.1083  33.1088
    33.3328  33.3372  36.9144  36.9476  40.1320  40.1388  40.4796  40.4860
    45.1944  45.1967  45.6836  45.7007  47.6958  47.7056  50.6218  50.6352
    51.7428  51.7504  53.9848  53.9983

          k = 0.0952-0.0952 0.0952 (  1502 PWs)   bands (ev):

     9.0029  10.5700  10.5701  10.5701  12.0805  12.0806  12.0807  12.5586
    12.7764  12.7764  12.7768  12.9037  12.9037  13.1769  13.1769  13.1770
    14.3437  14.3437  14.7554  14.7554  14.7555  16.6258  16.6258  16.6258
    21.7593  21.7593  21.7594  25.3869  32.5586  32.5586  32.5587  35.3191
    35.3191  35.3192  37.2999  37.3000  37.3001  37.6321  40.0529  40.0530
    44.4706  44.4706  47.8048  48.0304  48.0304  48.0308  48.1583  48.1584
    48.1584  52.4981  52.4983  52.4983

          k = 0.0952-0.0952-0.1427 (  1510 PWs)   bands (ev):

     9.8267   9.8297  10.5298  10.5299  12.2732  12.2732  12.5830  12.5908
    12.8295  12.8394  12.9369  12.9376  12.9802  12.9802  13.0443  13.0444
    14.6565  14.6577  14.6845  14.6847  14.8821  14.8839  16.8150  16.8150
    20.8288  20.8288  23.2663  23.2703  33.4355  33.4356  34.7271  34.7272
    36.2260  36.2408  37.3296  37.3366  39.0782  39.1018  39.4279  39.4280
    44.6952  44.6953  44.8904  44.9025  46.0400  46.0439  48.5274  48.5274
    49.6746  49.6795  53.1056  53.1059

     the Fermi energy is    14.5002 ev

!    total energy              =    -343.63020889 Ry
     Harris-Foulkes estimate   =    -343.63020889 Ry
     estimated scf accuracy    <          2.1E-11 Ry

     The total energy is the sum of the following terms:

     one-electron contribution =      -6.33062743 Ry
     hartree contribution      =      60.33311004 Ry
     xc contribution           =    -120.51522029 Ry
     ewald contribution        =    -277.06902349 Ry
     Dispersion Correction     =      -0.04787019 Ry
     smearing contrib. (-TS)   =      -0.00057753 Ry

     total magnetization       =     2.84 Bohr mag/cell
     absolute magnetization    =     3.25 Bohr mag/cell

     convergence has been achieved in  11 iterations

     Forces acting on atoms (Ry/au):

     atom    1 type  1   force =    -0.00108993   -0.00108993    0.00108980
     atom    2 type  1   force =     0.00109007    0.00109007    0.00109007
     atom    3 type  1   force =    -0.00108993    0.00108980   -0.00108993
     atom    4 type  1   force =     0.00108980   -0.00108993   -0.00108993

     Total force =     0.003776     Total SCF correction =     0.000004


     entering subroutine stress ...

          total   stress  (Ry/bohr**3)                   (kbar)     P=    0.94
   0.00000638  -0.00000006  -0.00000006          0.94     -0.01     -0.01
  -0.00000006   0.00000638  -0.00000006         -0.01      0.94     -0.01
  -0.00000006  -0.00000006   0.00000638         -0.01     -0.01      0.94


     number of scf cycles    =   3
     number of bfgs steps    =   2

     enthalpy old            =    -343.6301375624 Ry
     enthalpy new            =    -343.6302088920 Ry

     CASE: enthalpy_new < enthalpy_old

     new trust radius        =       0.0048090933 bohr
     new conv_thr            =            1.0E-10 Ry

     new unit-cell volume =    290.05200 a.u.^3 (    42.98127 Ang^3 )

CELL_PARAMETERS (alat=  1.88972590)
   3.502889804  -0.000010414  -0.000010414
  -0.000010414   3.502889804  -0.000010414
  -0.000010414  -0.000010414   3.502889804

ATOMIC_POSITIONS (alat)
Ni1      1.755555455   1.755555455   0.003651118
Ni1      0.003658796   0.003658796   0.003658796
Ni1      1.755555455   0.003651118   1.755555455
Ni1      0.003651118   1.755555455   1.755555455



     Writing output data file Ni-ferromag.save
     NEW-OLD atomic charge density approx. for the potential

     Check: negative/imaginary core charge=   -0.000005    0.000000
     extrapolated charge   40.00809, renormalised to   40.00000

     total cpu time spent up to now is     1064.6 secs

     Self-consistent Calculation

     iteration #  1     ecut=    45.00 Ry     beta=0.20
     Davidson diagonalization with overlap
     ethr =  1.00E-06,  avg # of iterations =  3.5

     Threshold (ethr) on eigenvalues was too large:
     Diagonalizing with lowered threshold

     Davidson diagonalization with overlap
     ethr =  6.76E-08,  avg # of iterations =  1.0

     total cpu time spent up to now is     1127.3 secs

     total energy              =    -343.63018145 Ry
     Harris-Foulkes estimate   =    -343.62169724 Ry
     estimated scf accuracy    <       0.00002710 Ry

     total magnetization       =     2.84 Bohr mag/cell
     absolute magnetization    =     3.25 Bohr mag/cell

     iteration #  2     ecut=    45.00 Ry     beta=0.20
     Davidson diagonalization with overlap
     ethr =  6.77E-08,  avg # of iterations =  1.1

     total cpu time spent up to now is     1151.7 secs

     total energy              =    -343.63019487 Ry
     Harris-Foulkes estimate   =    -343.63019654 Ry
     estimated scf accuracy    <       0.00001191 Ry

     total magnetization       =     2.83 Bohr mag/cell
     absolute magnetization    =     3.25 Bohr mag/cell

     iteration #  3     ecut=    45.00 Ry     beta=0.20
     Davidson diagonalization with overlap
     ethr =  2.98E-08,  avg # of iterations =  1.0

     total cpu time spent up to now is     1176.0 secs

     total energy              =    -343.63019297 Ry
     Harris-Foulkes estimate   =    -343.63019516 Ry
     estimated scf accuracy    <       0.00000538 Ry

     total magnetization       =     2.84 Bohr mag/cell
     absolute magnetization    =     3.25 Bohr mag/cell

     iteration #  4     ecut=    45.00 Ry     beta=0.20
     Davidson diagonalization with overlap
     ethr =  1.34E-08,  avg # of iterations =  1.1

     total cpu time spent up to now is     1200.4 secs

     total energy              =    -343.63019328 Ry
     Harris-Foulkes estimate   =    -343.63019586 Ry
     estimated scf accuracy    <       0.00000569 Ry

     total magnetization       =     2.84 Bohr mag/cell
     absolute magnetization    =     3.25 Bohr mag/cell

     iteration #  5     ecut=    45.00 Ry     beta=0.20
     Davidson diagonalization with overlap
     ethr =  1.34E-08,  avg # of iterations =  1.0

     total cpu time spent up to now is     1224.7 secs

     total energy              =    -343.63019454 Ry
     Harris-Foulkes estimate   =    -343.63019450 Ry
     estimated scf accuracy    <       0.00000009 Ry

     total magnetization       =     2.84 Bohr mag/cell
     absolute magnetization    =     3.25 Bohr mag/cell

     iteration #  6     ecut=    45.00 Ry     beta=0.20
     Davidson diagonalization with overlap
     ethr =  2.27E-10,  avg # of iterations =  1.2

     total cpu time spent up to now is     1249.2 secs

     total energy              =    -343.63019454 Ry
     Harris-Foulkes estimate   =    -343.63019455 Ry
     estimated scf accuracy    <       0.00000015 Ry

     total magnetization       =     2.84 Bohr mag/cell
     absolute magnetization    =     3.25 Bohr mag/cell

     iteration #  7     ecut=    45.00 Ry     beta=0.20
     Davidson diagonalization with overlap
     ethr =  2.27E-10,  avg # of iterations =  1.0

     total cpu time spent up to now is     1273.5 secs

     total energy              =    -343.63019450 Ry
     Harris-Foulkes estimate   =    -343.63019454 Ry
     estimated scf accuracy    <       0.00000007 Ry

     total magnetization       =     2.84 Bohr mag/cell
     absolute magnetization    =     3.25 Bohr mag/cell

     iteration #  8     ecut=    45.00 Ry     beta=0.20
     Davidson diagonalization with overlap
     ethr =  1.72E-10,  avg # of iterations =  2.0

     total cpu time spent up to now is     1301.4 secs

     total energy              =    -343.63019454 Ry
     Harris-Foulkes estimate   =    -343.63019460 Ry
     estimated scf accuracy    <       0.00000025 Ry

     total magnetization       =     2.84 Bohr mag/cell
     absolute magnetization    =     3.25 Bohr mag/cell

     iteration #  9     ecut=    45.00 Ry     beta=0.20
     Davidson diagonalization with overlap
     ethr =  1.72E-10,  avg # of iterations =  1.0

     total cpu time spent up to now is     1325.6 secs

     total energy              =    -343.63019456 Ry
     Harris-Foulkes estimate   =    -343.63019456 Ry
     estimated scf accuracy    <       0.00000005 Ry

     total magnetization       =     2.84 Bohr mag/cell
     absolute magnetization    =     3.25 Bohr mag/cell

     iteration # 10     ecut=    45.00 Ry     beta=0.20
     Davidson diagonalization with overlap
     ethr =  1.21E-10,  avg # of iterations =  1.0

     total cpu time spent up to now is     1350.0 secs

     total energy              =    -343.63019454 Ry
     Harris-Foulkes estimate   =    -343.63019456 Ry
     estimated scf accuracy    <       0.00000005 Ry

     total magnetization       =     2.84 Bohr mag/cell
     absolute magnetization    =     3.25 Bohr mag/cell

     iteration # 11     ecut=    45.00 Ry     beta=0.20
     Davidson diagonalization with overlap
     ethr =  1.17E-10,  avg # of iterations =  1.0

     Magnetic moment per site:
     atom:    1    charge:    3.0044    magn:    0.3348    constr:    0.0000
     atom:    2    charge:    3.0026    magn:    0.3346    constr:    0.0000
     atom:    3    charge:    3.0044    magn:    0.3348    constr:    0.0000
     atom:    4    charge:    3.0044    magn:    0.3348    constr:    0.0000

     total cpu time spent up to now is     1374.2 secs

     End of self-consistent calculation

 ------ SPIN UP ------------


          k = 0.0000 0.0000 0.0000 (  1503 PWs)   bands (ev):

     5.4329   9.7169   9.7170   9.7170  10.1703  10.1703  10.1703  11.9497
    11.9497  11.9498  13.1288  13.1288  13.8468  13.8468  13.8468  13.9368
    13.9368  13.9368  13.9368  13.9368  13.9368  17.0753  17.0753  17.0753
    23.8153  23.8154  23.8154  29.5730  29.5730  29.5730  29.5733  29.5733
    29.5733  34.6528  34.6528  34.6528  37.9982  37.9983  37.9983  38.5006
    42.4782  42.4782  42.4786  46.0796  46.0796  46.0800  48.1807  55.1771
    55.1771  55.1773  57.6239  59.0404

          k = 0.0000 0.0000 0.0476 (  1478 PWs)   bands (ev):

     5.7992   9.7391   9.9012   9.9012  10.2808  10.2967  10.2967  11.8210
    12.0521  12.0521  13.0109  13.1755  13.2826  13.2826  13.6933  13.6933
    13.7608  13.7608  13.7972  13.9371  13.9371  15.4744  18.0342  18.0342
    23.9112  23.9112  26.0647  27.8214  27.8214  28.4497  28.4497  30.1333
    30.1336  34.7689  36.8256  36.8256  37.8654  38.1301  39.9557  39.9558
    40.2569  40.2572  40.9228  47.4992  48.1352  48.1354  49.1574  51.5662
    56.2737  56.2739  56.6814  56.6814

          k = 0.0000 0.0000 0.0952 (  1510 PWs)   bands (ev):

     6.8486   9.5099  10.3382  10.3383  10.5885  10.6799  10.6799  11.4768
    12.2265  12.2265  12.3488  12.3488  12.7229  13.3041  13.3100  13.3146
    13.3146  13.3220  13.3220  13.6630  13.9376  13.9376  19.9970  19.9970
    24.2284  24.2284  25.0476  25.0476  26.6817  26.6817  30.3647  31.7129
    31.7132  35.1320  36.7334  37.0358  37.0361  38.3550  38.6820  40.8698
    40.8698  44.1202  44.1202  44.1532  50.9345  51.0550  51.0552  51.0582
    51.0582  55.0439  55.9479  55.9479

          k =-0.0000-0.0000-0.1427 (  1510 PWs)   bands (ev):

     8.3474   8.3487  10.6144  10.6144  11.0226  11.0245  11.3258  11.3258
    11.3277  11.3277  12.5444  12.5471  12.8003  12.8003  12.8017  12.8018
    13.0661  13.0661  13.4817  13.4827  13.9379  13.9379  22.3813  22.3813
    22.3846  22.3846  24.6013  24.6013  25.7364  25.7365  34.0901  34.0904
    34.0924  34.0927  34.9121  34.9171  35.7787  35.7799  40.2723  40.2801
    45.6679  45.6679  45.6747  45.6747  47.6262  47.6262  52.2992  52.2993
    54.1796  54.1798  54.1859  54.1860

          k = 0.0000 0.0476 0.0476 (  1490 PWs)   bands (ev):

     6.1568   9.9375   9.9375  10.0644  10.3982  10.3982  10.4121  11.7610
    12.0971  12.1142  12.9365  12.9861  12.9948  12.9949  13.1707  13.5646
    13.6892  13.6892  13.7595  13.7595  13.8210  16.4067  16.4068  18.8042
    23.9052  25.1042  26.2519  26.2520  28.2992  28.2992  28.9420  28.9420
    30.6611  36.0418  36.1249  37.0340  37.0340  37.3390  40.1233  40.1234
    41.2770  42.6115  43.5377  45.2388  46.3724  49.7968  50.4632  53.1040
    53.6771  55.3581  55.3581  56.3114

          k = 0.0000 0.0476 0.0952 (  1511 PWs)   bands (ev):

     7.1785   9.7460  10.4196  10.4682  10.6800  10.7333  10.7524  11.4799
    11.9878  12.1276  12.2430  12.3605  12.3859  12.8192  13.2407  13.3193
    13.3262  13.3498  13.5022  13.7562  13.7622  14.4399  18.0213  20.5872
    22.0855  24.6138  25.5090  26.5383  27.4067  29.6128  29.9079  29.9607
    31.0212  33.7300  34.4730  37.6861  38.6386  40.3962  40.5750  40.7553
    41.1256  44.0474  45.0404  47.0664  47.7926  48.5963  49.9014  51.3428
    52.9482  53.2686  54.8279  56.2109

          k =-0.0000 0.0476-0.1427 (  1500 PWs)   bands (ev):

     8.6290   8.6302  10.7669  10.7670  11.0744  11.0763  11.1935  11.1951
    11.3403  11.3421  12.1712  12.1732  12.8011  12.8026  13.0310  13.0316
    13.0511  13.0511  13.6657  13.6657  13.7536  13.7539  19.8893  19.8909
    22.8808  22.8838  25.4162  25.4184  28.3145  28.3153  31.5024  31.5034
    32.0259  32.0266  35.8322  35.8379  38.8347  38.8352  42.2180  42.2228
    43.1207  43.1225  45.9442  45.9506  50.0878  50.0936  50.3611  50.3638
    52.6198  52.6220  53.2110  53.2128

          k = 0.0000 0.0952 0.0952 (  1506 PWs)   bands (ev):

     8.1051  10.3336  10.3336  10.6996  10.9482  10.9482  10.9619  11.4100
    11.6571  11.6571  11.8118  12.1303  12.4913  12.7330  13.0247  13.1799
    13.1799  13.3200  13.3200  13.4901  13.7054  15.6860  15.6860  19.3046
    22.1140  25.1645  26.7821  26.7821  27.9015  27.9015  30.9908  31.6467
    31.6468  31.7424  33.6100  36.8445  41.5336  41.8875  41.8875  43.0830
    43.4184  43.7789  43.7789  47.1972  47.3387  48.4837  48.4837  51.6828
    52.1854  52.1985  53.2103  55.3592

          k =-0.0000 0.0952-0.1427 (  1514 PWs)   bands (ev):

     9.3717   9.3727  10.8039  10.8051  11.2016  11.2033  11.2100  11.2101
    11.3590  11.3607  11.8656  11.8669  12.8385  12.8386  12.8386  12.8401
    12.9052  12.9055  13.3545  13.3554  14.3669  14.3672  17.2169  17.2182
    24.2373  24.2395  26.2315  26.2333  28.6575  28.6585  29.5435  29.5437
    32.9551  32.9557  36.7947  36.8002  40.3709  40.3720  43.0562  43.0572
    43.2236  43.2242  46.7451  46.7504  47.9313  47.9345  50.4345  50.4374
    51.7687  51.7734  53.5704  53.5717

          k =-0.0000-0.1427-0.1427 (  1516 PWs)   bands (ev):

    10.2246  10.2254  10.2254  10.2263  11.3202  11.3218  11.3218  11.3235
    11.6305  11.6310  11.6310  11.6315  12.6922  12.6924  12.6924  12.6926
    13.0052  13.0066  13.0066  13.0079  15.4369  15.4375  15.4375  15.4381
    26.2115  26.2130  26.2131  26.2146  27.5831  27.5842  27.5842  27.5854
    37.8985  37.8999  37.9001  37.9015  38.5044  38.5061  38.5063  38.5080
    47.1853  47.1853  47.1854  47.1855  49.1958  49.1987  49.1989  49.2017
    51.8276  51.8278  51.8280  51.8282

          k = 0.0476 0.0476 0.0476 (  1490 PWs)   bands (ev):

     6.5026  10.0984  10.0984  10.0984  10.5128  10.5128  10.5128  11.7261
    12.1338  12.1338  12.6908  12.6908  12.6908  13.0839  13.0839  13.3311
    13.3311  13.3311  13.8751  13.8751  13.8751  17.0340  17.0340  17.0340
    25.3307  25.3307  25.3307  26.5972  26.5972  26.5972  31.1766  31.1766
    31.1766  33.4887  36.1731  36.1731  36.1731  39.2580  41.1450  41.1450
    42.8188  42.8189  42.8189  46.5993  47.6559  47.6559  51.6531  51.6531
    55.1180  55.2365  55.2365  55.2365

          k = 0.0476 0.0476 0.0952 (  1514 PWs)   bands (ev):

     7.4842   9.9047  10.4816  10.4816  10.7985  10.8266  10.8266  11.5166
    11.9782  11.9782  12.1736  12.2131  12.2733  12.9289  12.9995  13.0852
    13.0852  13.3235  13.7778  13.7778  13.8101  14.8017  18.3765  18.3765
    22.7115  22.7115  26.6245  27.2485  27.2485  30.3637  30.3637  30.7511
    30.9533  32.6565  36.6520  37.7821  37.8571  38.7971  38.7971  42.3677
    43.5110  44.4767  47.0287  47.0287  47.8908  49.0907  50.2085  50.2085
    50.7041  53.0249  53.0859  55.6680

          k = 0.0476 0.0476-0.1427 (  1518 PWs)   bands (ev):

     8.8561   8.8572  10.8690  10.8690  10.9269  10.9269  11.1694  11.1712
    11.5842  11.5842  12.0755  12.0774  12.5462  12.5469  12.9175  12.9175
    13.4924  13.4938  13.5995  13.5998  13.7218  13.7218  19.5253  19.5254
    21.1502  21.1502  28.2126  28.2127  28.4514  28.4521  28.9327  28.9328
    34.9435  34.9455  35.4194  35.4233  38.0997  38.1037  42.2109  42.2109
    44.7628  44.7650  45.3772  45.3772  49.4868  49.4898  50.9066  50.9077
    52.1937  52.1937  53.6899  53.6899

          k = 0.0476 0.0952 0.0952 (  1501 PWs)   bands (ev):

     8.3231  10.2225  10.2225  10.5087  11.1140  11.1601  11.1601  11.5617
    11.7742  11.7742  11.9075  12.1323  12.2582  12.7367  12.7367  12.7531
    13.0559  13.6111  13.6804  13.6956  13.6956  15.8167  15.8167  18.6283
    20.8079  23.9084  23.9084  27.9494  28.0585  31.1399  31.1399  32.1265
    32.1265  34.0230  35.2475  36.9153  39.3312  39.3312  40.1602  43.0448
    43.7432  44.7913  46.4709  46.4709  49.2008  49.2008  50.4256  50.6037
    50.9326  51.6271  52.3099  52.9346

          k = 0.0476 0.0952-0.1427 (  1510 PWs)   bands (ev):

     9.4060   9.4067  10.4437  10.4439  11.3275  11.3276  11.4751  11.4765
    11.7808  11.7814  11.9013  11.9025  12.4073  12.4078  12.6182  12.6185
    13.3530  13.3535  13.5807  13.5812  14.2732  14.2734  17.1940  17.1950
    21.8234  21.8242  25.6691  25.6697  29.4409  29.4415  33.0453  33.0455
    33.2590  33.2595  36.9089  36.9134  40.1435  40.1445  40.4522  40.4530
    45.2003  45.2008  45.6915  45.6936  47.7111  47.7124  50.5807  50.5826
    51.7983  51.7994  53.9098  53.9119

          k = 0.0476-0.1427-0.1427 (  1492 PWs)   bands (ev):

     9.9755   9.9758   9.9758   9.9761  11.7184  11.7188  11.7188  11.7193
    11.8049  11.8059  11.8059  11.8069  12.3786  12.3790  12.3790  12.3795
    13.3350  13.3358  13.3358  13.3367  15.3477  15.3483  15.3484  15.3490
    23.4572  23.4578  23.4579  23.4585  30.9787  30.9790  30.9790  30.9793
    38.1792  38.1804  38.1806  38.1818  38.3482  38.3496  38.3499  38.3513
    46.6628  46.6629  46.6631  46.6631  46.7648  46.7664  46.7666  46.7681
    54.8186  54.8195  54.8197  55.0853

          k = 0.0952 0.0952 0.0952 (  1502 PWs)   bands (ev):

     8.8669  10.0575  10.0575  10.0575  11.5186  11.5187  11.5187  12.0328
    12.0936  12.0936  12.0937  12.0992  12.0992  12.3824  12.3824  12.3824
    13.4589  13.4589  13.8239  13.8239  13.8239  16.1949  16.1950  16.1950
    21.4154  21.4154  21.4154  25.1561  32.5061  32.5061  32.5061  35.2506
    35.2506  35.2506  37.2803  37.2804  37.2804  37.7969  39.9589  39.9589
    44.4534  44.4534  47.7817  48.0742  48.0742  48.0742  48.1487  48.1487
    48.1487  52.4583  52.4583  52.4583

          k = 0.0952 0.0952-0.1427 (  1510 PWs)   bands (ev):

     9.4930   9.4931   9.9889   9.9890  11.6385  11.6385  11.9246  11.9257
    12.1418  12.1419  12.2622  12.2622  12.2763  12.2774  12.3769  12.3769
    13.7443  13.7444  13.7522  13.7522  14.1632  14.1633  16.4791  16.4791
    20.3864  20.3864  22.9731  22.9737  33.4216  33.4216  34.6341  34.6341
    36.3351  36.3370  37.2527  37.2538  39.0004  39.0036  39.4462  39.4462
    44.6609  44.6609  44.9107  44.9124  46.0253  46.0257  48.5596  48.5596
    49.6146  49.6153  52.9880  52.9880

          k = 0.0952-0.1427-0.1427 (  1496 PWs)   bands (ev):

     9.6686   9.6686   9.6686   9.6686  11.8843  11.8846  11.8846  11.8849
    12.0741  12.0744  12.0744  12.0747  12.8233  12.8239  12.8240  12.8246
    13.6719  13.6723  13.6723  13.6728  14.9707  14.9715  14.9715  14.9723
    21.0994  21.0999  21.1000  21.1005  35.1609  35.1612  35.1612  35.1616
    38.2249  38.2256  38.2258  38.2266  38.9466  38.9473  38.9475  38.9482
    44.1021  44.1028  44.1029  44.1036  45.1656  45.1658  45.1659  45.1661
    50.4293  50.4297  50.4297  50.4300

          k =-0.1427-0.1427-0.1427 (  1472 PWs)   bands (ev):

     9.5526   9.5526   9.5526   9.5527  11.9628  11.9628  11.9628  11.9628
    11.9628  11.9628  11.9629  11.9629  13.7998  13.7998  13.7998  13.7999
    13.7999  13.7999  13.7999  13.7999  14.2958  14.2959  14.2959  14.2960
    20.2188  20.2188  20.2188  20.2190  36.9555  36.9557  36.9558  36.9558
    39.5835  39.5835  39.5836  39.5836  39.5836  39.5838  39.5838  39.5838
    42.8117  42.8117  42.8118  42.8118  42.8118  42.8120  42.8120  42.8120
    48.7836  48.7837  48.7837  48.7837

          k =-0.0476 0.0000 0.0476 (  1490 PWs)   bands (ev):

     6.1568   9.9375   9.9375  10.0644  10.3982  10.3982  10.4121  11.7610
    12.0972  12.1142  12.9365  12.9861  12.9948  12.9949  13.1707  13.5646
    13.6892  13.6892  13.7595  13.7595  13.8210  16.4068  16.4068  18.8041
    23.9052  25.1040  26.2519  26.2519  28.2992  28.2992  28.9420  28.9421
    30.6614  36.0420  36.1248  37.0339  37.0339  37.3388  40.1232  40.1233
    41.2772  42.6112  43.5379  45.2390  46.3726  49.7969  50.4629  53.1039
    53.6769  55.3578  55.3578  56.3115

          k =-0.0476 0.0000 0.0952 (  1511 PWs)   bands (ev):

     7.1785   9.7460  10.4196  10.4682  10.6800  10.7333  10.7524  11.4799
    11.9878  12.1276  12.2430  12.3605  12.3859  12.8192  13.2407  13.3193
    13.3262  13.3498  13.5022  13.7562  13.7622  14.4399  18.0213  20.5872
    22.0854  24.6138  25.5091  26.5383  27.4067  29.6128  29.9079  29.9609
    31.0212  33.7298  34.4729  37.6861  38.6388  40.3964  40.5751  40.7552
    41.1255  44.0473  45.0406  47.0660  47.7928  48.5966  49.9012  51.3429
    52.9479  53.2684  54.8280  56.2109

          k =-0.0952 0.0000 0.0952 (  1506 PWs)   bands (ev):

     8.1051  10.3336  10.3336  10.6996  10.9482  10.9482  10.9619  11.4100
    11.6572  11.6572  11.8118  12.1302  12.4914  12.7330  13.0247  13.1799
    13.1799  13.3200  13.3200  13.4901  13.7054  15.6861  15.6861  19.3045
    22.1140  25.1645  26.7821  26.7822  27.9016  27.9016  30.9906  31.6466
    31.6466  31.7422  33.6102  36.8447  41.5337  41.8874  41.8874  43.0831
    43.4186  43.7787  43.7787  47.1975  47.3390  48.4835  48.4835  51.6824
    52.1856  52.1985  53.2105  55.3586

          k = 0.0476-0.0476 0.0476 (  1490 PWs)   bands (ev):

     6.5026  10.0984  10.0984  10.0984  10.5127  10.5127  10.5128  11.7261
    12.1338  12.1339  12.6908  12.6908  12.6908  13.0839  13.0839  13.3311
    13.3312  13.3312  13.8751  13.8751  13.8752  17.0340  17.0340  17.0341
    25.3305  25.3305  25.3308  26.5971  26.5972  26.5972  31.1765  31.1768
    31.1768  33.4883  36.1731  36.1733  36.1733  39.2582  41.1451  41.1454
    42.8185  42.8185  42.8188  46.5994  47.6559  47.6561  51.6531  51.6534
    55.1180  55.2363  55.2365  55.2365

          k = 0.0476-0.0476 0.0952 (  1514 PWs)   bands (ev):

     7.4842   9.9047  10.4816  10.4816  10.7985  10.8266  10.8266  11.5165
    11.9782  11.9782  12.1736  12.2131  12.2733  12.9289  12.9995  13.0852
    13.0852  13.3235  13.7778  13.7778  13.8101  14.8017  18.3765  18.3766
    22.7114  22.7116  26.6244  27.2483  27.2484  30.3637  30.3639  30.7508
    30.9533  32.6567  36.6522  37.7823  37.8574  38.7971  38.7974  42.3677
    43.5106  44.4768  47.0284  47.0286  47.8909  49.0909  50.2082  50.2085
    50.7041  53.0247  53.0860  55.6682

          k =-0.0952 0.0476 0.0476 (  1514 PWs)   bands (ev):

     7.4841   9.9047  10.4816  10.4816  10.7985  10.8266  10.8266  11.5165
    11.9782  11.9782  12.1736  12.2131  12.2732  12.9289  12.9995  13.0852
    13.0852  13.3235  13.7778  13.7778  13.8101  14.8018  18.3765  18.3765
    22.7114  22.7114  26.6247  27.2484  27.2484  30.3640  30.3640  30.7508
    30.9532  32.6564  36.6520  37.7822  37.8572  38.7973  38.7973  42.3679
    43.5108  44.4772  47.0283  47.0283  47.8912  49.0908  50.2083  50.2083
    50.7042  53.0245  53.0857  55.6679

          k = 0.0476-0.0476-0.1427 (  1518 PWs)   bands (ev):

     8.8561   8.8572  10.8690  10.8690  10.9269  10.9269  11.1694  11.1712
    11.5842  11.5842  12.0755  12.0774  12.5462  12.5469  12.9175  12.9175
    13.4924  13.4938  13.5995  13.5998  13.7218  13.7218  19.5253  19.5254
    21.1502  21.1504  28.2125  28.2127  28.4512  28.4519  28.9326  28.9328
    34.9438  34.9457  35.4195  35.4233  38.0998  38.1038  42.2108  42.2111
    44.7625  44.7647  45.3771  45.3774  49.4867  49.4897  50.9067  50.9078
    52.1934  52.1938  53.6897  53.6900

          k = 0.0952-0.0476 0.0952 (  1501 PWs)   bands (ev):

     8.3230  10.2225  10.2225  10.5087  11.1140  11.1601  11.1601  11.5616
    11.7742  11.7742  11.9075  12.1323  12.2582  12.7367  12.7367  12.7531
    13.0559  13.6111  13.6804  13.6956  13.6957  15.8167  15.8167  18.6283
    20.8081  23.9083  23.9083  27.9491  28.0583  31.1399  31.1399  32.1265
    32.1265  34.0230  35.2479  36.9153  39.3315  39.3315  40.1603  43.0449
    43.7433  44.7913  46.4708  46.4708  49.2005  49.2005  50.4254  50.6035
    50.9329  51.6269  52.3098  52.9343

          k =-0.0952 0.0476 0.0952 (  1501 PWs)   bands (ev):

     8.3230  10.2225  10.2225  10.5087  11.1140  11.1601  11.1601  11.5616
    11.7742  11.7742  11.9075  12.1323  12.2582  12.7367  12.7367  12.7531
    13.0560  13.6111  13.6804  13.6956  13.6956  15.8168  15.8168  18.6282
    20.8079  23.9083  23.9086  27.9491  28.0584  31.1398  31.1400  32.1264
    32.1265  34.0232  35.2475  36.9155  39.3311  39.3313  40.1604  43.0451
    43.7435  44.7914  46.4706  46.4707  49.2004  49.2006  50.4255  50.6038
    50.9327  51.6272  52.3095  52.9342

          k = 0.0952-0.0476-0.1427 (  1510 PWs)   bands (ev):

     9.4060   9.4067  10.4437  10.4439  11.3275  11.3276  11.4751  11.4765
    11.7808  11.7814  11.9013  11.9025  12.4073  12.4078  12.6182  12.6185
    13.3530  13.3535  13.5807  13.5812  14.2732  14.2734  17.1940  17.1950
    21.8234  21.8243  25.6690  25.6696  29.4408  29.4413  33.0454  33.0458
    33.2590  33.2595  36.9089  36.9134  40.1435  40.1445  40.4524  40.4533
    45.2004  45.2008  45.6915  45.6937  47.7110  47.7121  50.5806  50.5824
    51.7981  51.7991  53.9098  53.9118

          k = 0.0952-0.0952 0.0952 (  1502 PWs)   bands (ev):

     8.8669  10.0575  10.0575  10.0575  11.5186  11.5186  11.5186  12.0327
    12.0936  12.0936  12.0937  12.0991  12.0992  12.3824  12.3824  12.3824
    13.4589  13.4589  13.8239  13.8239  13.8239  16.1949  16.1950  16.1950
    21.4153  21.4154  21.4156  25.1558  32.5058  32.5059  32.5060  35.2505
    35.2508  35.2508  37.2803  37.2805  37.2805  37.7971  39.9590  39.9593
    44.4535  44.4537  47.7818  48.0739  48.0741  48.0741  48.1485  48.1488
    48.1488  52.4577  52.4577  52.4580

          k = 0.0952-0.0952-0.1427 (  1510 PWs)   bands (ev):

     9.4929   9.4931   9.9889   9.9890  11.6385  11.6385  11.9246  11.9256
    12.1418  12.1420  12.2622  12.2623  12.2763  12.2774  12.3769  12.3769
    13.7443  13.7444  13.7522  13.7522  14.1632  14.1633  16.4791  16.4792
    20.3864  20.3866  22.9730  22.9736  33.4214  33.4216  34.6339  34.6341
    36.3352  36.3371  37.2530  37.2540  39.0005  39.0037  39.4461  39.4465
    44.6608  44.6611  44.9108  44.9123  46.0254  46.0259  48.5593  48.5595
    49.6146  49.6152  52.9878  52.9879

 ------ SPIN DOWN ----------


          k = 0.0000 0.0000 0.0000 (  1503 PWs)   bands (ev):

     5.3784  10.1790  10.1790  10.1790  10.8885  10.8885  10.8885  12.8301
    12.8301  12.8302  13.9090  13.9090  14.6609  14.6610  14.6610  14.9463
    14.9463  14.9463  14.9463  14.9463  14.9463  16.9966  16.9966  16.9966
    24.1210  24.1211  24.1211  29.5593  29.5593  29.5593  29.5596  29.5596
    29.5597  34.8170  34.8170  34.8170  38.1417  38.1419  38.1419  38.2951
    42.4489  42.4489  42.4494  46.1520  46.1520  46.1524  48.0213  55.3663
    55.3663  55.3665  58.1472  59.5593

          k = 0.0000 0.0000 0.0476 (  1478 PWs)   bands (ev):

     5.7446  10.1547  10.3733  10.3733  11.0079  11.0124  11.0124  12.6881
    12.9366  12.9366  13.7814  13.9578  14.1026  14.1026  14.4939  14.4939
    14.6090  14.7536  14.7536  14.9466  14.9466  15.5445  18.1411  18.1411
    24.2018  24.2018  26.2666  27.8900  27.8900  28.4770  28.4771  30.1360
    30.1363  34.9205  36.9065  36.9065  37.7267  38.2713  40.0762  40.0764
    40.2988  40.2991  40.8529  47.5197  48.1090  48.1092  49.2291  51.5573
    56.4851  56.4853  56.6081  56.6081

          k = 0.0000 0.0000 0.0952 (  1510 PWs)   bands (ev):

     6.7983   9.7180  10.8348  10.8348  11.3411  11.3902  11.3902  12.3097
    12.9558  12.9558  13.2465  13.2465  13.4606  13.6805  14.0818  14.0819
    14.0924  14.2785  14.2785  14.4683  14.9472  14.9472  20.1822  20.1822
    24.4746  24.4746  25.1884  25.1884  26.7798  26.7799  30.4604  31.7499
    31.7502  35.2459  36.6986  37.1073  37.1076  38.2647  38.8281  40.8753
    40.8753  44.2195  44.2196  44.3714  50.8901  50.9601  50.9603  50.9848
    50.9848  54.9396  56.1893  56.1894

          k =-0.0000-0.0000-0.1427 (  1510 PWs)   bands (ev):

     8.3409   8.3423  11.1266  11.1266  11.8131  11.8151  12.0350  12.0350
    12.0369  12.0369  13.1923  13.1952  13.7220  13.7221  13.7235  13.7236
    13.8121  13.8122  14.2782  14.2793  14.9475  14.9475  22.5630  22.5630
    22.5664  22.5664  24.7980  24.7981  25.8938  25.8939  34.1552  34.1555
    34.1576  34.1578  34.8922  34.8973  35.8300  35.8314  40.4643  40.4723
    45.6234  45.6234  45.6304  45.6304  47.7002  47.7003  52.4886  52.4887
    54.0694  54.0695  54.0756  54.0758

          k = 0.0000 0.0476 0.0476 (  1490 PWs)   bands (ev):

     6.1032  10.3656  10.3656  10.5553  11.1118  11.1223  11.1223  12.6145
    12.9870  12.9915  13.7015  13.7428  13.7429  13.7550  13.9579  14.3554
    14.4815  14.4815  14.7524  14.7524  14.8231  16.7213  16.7213  18.9699
    24.1640  25.2339  26.4407  26.4407  28.3822  28.3822  28.9831  28.9831
    30.6722  36.1166  36.1459  37.1046  37.1046  37.3565  40.2412  40.2413
    41.1962  42.6989  43.5068  45.1825  46.4330  49.9556  50.3886  53.2763
    53.6432  55.3202  55.3202  56.2517

          k = 0.0000 0.0476 0.0952 (  1511 PWs)   bands (ev):

     7.1330   9.9686  10.8820  11.0003  11.3953  11.4280  11.4694  12.3019
    12.6792  12.8484  13.0422  13.0824  13.2626  13.5837  14.0057  14.0913
    14.1613  14.2476  14.2769  14.7495  14.7587  15.1491  18.3600  20.7914
    22.2841  24.8419  25.6607  26.6732  27.5320  29.7213  29.9696  30.0313
    31.1186  33.8081  34.5155  37.7281  38.6766  40.3478  40.5226  40.8751
    41.1252  44.1296  45.2449  47.1329  47.7151  48.5788  49.8855  51.2681
    52.9038  53.1781  55.0480  56.4641

          k =-0.0000 0.0476-0.1427 (  1500 PWs)   bands (ev):

     8.6346   8.6358  11.2702  11.2703  11.8575  11.8595  11.8704  11.8719
    12.0522  12.0541  12.9121  12.9144  13.7255  13.7270  13.8006  13.8008
    13.8013  13.8017  14.5043  14.5044  14.7478  14.7482  20.1708  20.1725
    23.0740  23.0770  25.5876  25.5901  28.4315  28.4324  31.6165  31.6174
    32.0839  32.0844  35.8575  35.8631  38.8361  38.8364  42.3707  42.3757
    43.1137  43.1157  45.8961  45.9027  50.1534  50.1590  50.2935  50.2962
    52.5363  52.5385  53.3792  53.3810

          k = 0.0000 0.0952 0.0952 (  1506 PWs)   bands (ev):

     8.0830  10.6068  10.6068  11.3639  11.4462  11.6840  11.6840  12.2039
    12.3504  12.3504  12.5241  12.9216  13.4067  13.4800  13.7783  13.9173
    13.9173  14.2810  14.2810  14.4709  14.5479  16.2913  16.2913  19.6123
    22.3333  25.3630  26.9490  26.9490  28.0027  28.0027  31.1218  31.7356
    31.7356  31.8099  33.6625  36.8802  41.4701  41.8694  41.8694  43.1177
    43.3011  43.8214  43.8214  47.3186  47.3680  48.5286  48.5286  51.7424
    52.0754  52.1403  53.4140  55.2616

          k =-0.0000 0.0952-0.1427 (  1514 PWs)   bands (ev):

     9.4331   9.4341  11.2236  11.2248  11.8500  11.8501  11.9646  11.9664
    12.0796  12.0814  12.6025  12.6039  13.5729  13.5730  13.6466  13.6469
    13.7723  13.7738  14.3231  14.3240  15.1730  15.1733  17.6811  17.6824
    24.4425  24.4447  26.3832  26.3853  28.8198  28.8208  29.6335  29.6339
    33.0269  33.0276  36.8224  36.8279  40.3699  40.3709  43.0021  43.0030
    43.2420  43.2425  46.6834  46.6887  48.0135  48.0168  50.3818  50.3848
    51.8897  51.8944  53.4852  53.4863

          k =-0.0000-0.1427-0.1427 (  1516 PWs)   bands (ev):

    10.4439  10.4448  10.4449  10.4458  12.0581  12.0598  12.0598  12.0616
    12.2997  12.3003  12.3003  12.3008  13.4300  13.4301  13.4302  13.4304
    13.9543  13.9557  13.9557  13.9572  16.1189  16.1194  16.1195  16.1200
    26.4067  26.4081  26.4082  26.4096  27.7065  27.7078  27.7078  27.7091
    37.9728  37.9742  37.9744  37.9757  38.4706  38.4722  38.4725  38.4740
    47.0654  47.0655  47.0656  47.0657  49.1850  49.1879  49.1882  49.1911
    51.9286  51.9290  51.9292  51.9295

          k = 0.0476 0.0476 0.0476 (  1490 PWs)   bands (ev):

     6.4518  10.5535  10.5536  10.5536  11.2135  11.2135  11.2135  12.5596
    13.0120  13.0120  13.4015  13.4015  13.4015  13.8703  13.8703  14.1623
    14.1623  14.1623  14.8236  14.8236  14.8236  17.3751  17.3751  17.3751
    25.4623  25.4623  25.4623  26.7705  26.7706  26.7706  31.1985  31.1985
    31.1985  33.5553  36.2680  36.2681  36.2681  39.1027  41.1976  41.1976
    42.9029  42.9030  42.9030  46.5120  47.6131  47.6131  51.8199  51.8199
    55.1898  55.1899  55.1899  55.4559

          k = 0.0476 0.0476 0.0952 (  1514 PWs)   bands (ev):

     7.4492  10.1673  11.0132  11.0132  11.4550  11.4550  11.5109  12.3123
    12.6806  12.6806  12.8461  13.0436  13.1337  13.7752  13.8095  13.8722
    13.8722  14.1459  14.7115  14.7412  14.7412  15.4321  18.7034  18.7034
    22.9218  22.9218  26.7688  27.3976  27.3976  30.4386  30.4387  30.8653
    31.0408  32.7030  36.7265  37.6880  37.9343  38.8275  38.8275  42.3753
    43.5913  44.4942  47.0729  47.0730  47.9329  49.0365  50.1974  50.1974
    50.7112  52.9544  53.0461  55.7831

          k = 0.0476 0.0476-0.1427 (  1518 PWs)   bands (ev):

     8.8907   8.8918  11.4409  11.4410  11.5084  11.5084  11.9203  11.9222
    12.2982  12.2982  12.8251  12.8273  13.3969  13.3975  13.6813  13.6813
    14.2971  14.2986  14.4609  14.4610  14.6936  14.6936  19.7827  19.7827
    21.4542  21.4542  28.3276  28.3276  28.5934  28.5940  29.0474  29.0475
    35.0129  35.0149  35.3926  35.3966  38.1769  38.1810  42.1923  42.1923
    44.8497  44.8521  45.3663  45.3663  49.4073  49.4104  50.8609  50.8620
    52.2272  52.2273  53.8698  53.8698

          k = 0.0476 0.0952 0.0952 (  1501 PWs)   bands (ev):

     8.3351  10.6153  10.6153  11.1271  11.6211  11.7620  11.7620  12.2884
    12.4944  12.4944  12.6193  12.9331  13.0825  13.5361  13.5362  13.5383
    13.8994  14.4601  14.6089  14.6089  14.6257  16.3701  16.3701  18.9031
    21.1518  24.1255  24.1255  28.1113  28.1863  31.2037  31.2037  32.2191
    32.2192  34.0777  35.2730  36.9405  39.3460  39.3460  40.0840  43.1585
    43.7349  44.7371  46.4649  46.4649  49.2556  49.2556  50.3573  50.5874
    50.9090  51.6997  52.3757  52.8616

          k = 0.0476 0.0952-0.1427 (  1510 PWs)   bands (ev):

     9.5555   9.5563  10.9786  10.9790  11.8818  11.8820  12.1211  12.1227
    12.4745  12.4752  12.6616  12.6630  13.2116  13.2119  13.3928  13.3931
    14.2182  14.2190  14.5165  14.5172  15.0662  15.0665  17.6051  17.6061
    22.1236  22.1244  25.8692  25.8698  29.5414  29.5421  33.1021  33.1022
    33.3280  33.3287  36.9220  36.9264  40.1278  40.1287  40.4749  40.4757
    45.1876  45.1880  45.6832  45.6855  47.6920  47.6934  50.6191  50.6209
    51.7378  51.7389  53.9875  54.0059

          k = 0.0476-0.1427-0.1427 (  1492 PWs)   bands (ev):

    10.3322  10.3327  10.3328  10.3333  12.2884  12.2891  12.2892  12.2899
    12.5081  12.5091  12.5091  12.5100  13.1558  13.1562  13.1563  13.1567
    14.2469  14.2479  14.2479  14.2489  15.9935  15.9940  15.9941  15.9946
    23.7150  23.7155  23.7156  23.7161  31.0613  31.0617  31.0617  31.0621
    38.2515  38.2527  38.2529  38.2541  38.2992  38.3006  38.3008  38.3021
    46.5947  46.5948  46.5948  46.5949  46.7904  46.7921  46.7923  46.7939
    54.8826  54.8839  54.8842  55.0964

          k = 0.0952 0.0952 0.0952 (  1502 PWs)   bands (ev):

     9.0001  10.5673  10.5673  10.5673  12.0776  12.0776  12.0776  12.5555
    12.7732  12.7732  12.7732  12.9002  12.9002  13.1735  13.1735  13.1735
    14.3399  14.3399  14.7516  14.7516  14.7516  16.6215  16.6216  16.6216
    21.7540  21.7540  21.7540  25.3815  32.5525  32.5526  32.5526  35.3121
    35.3121  35.3121  37.2931  37.2931  37.2931  37.6261  40.0451  40.0451
    44.4627  44.4627  47.7969  48.0227  48.0227  48.0227  48.1501  48.1502
    48.1502  52.4896  52.4896  52.4896

          k = 0.0952 0.0952-0.1427 (  1510 PWs)   bands (ev):

     9.8252   9.8256  10.5271  10.5271  12.2701  12.2701  12.5832  12.5843
    12.8305  12.8318  12.9339  12.9340  12.9767  12.9767  13.0410  13.0410
    14.6532  14.6534  14.6807  14.6807  14.8789  14.8792  16.8108  16.8108
    20.8235  20.8235  23.2626  23.2632  33.4294  33.4295  34.7202  34.7202
    36.2264  36.2284  37.3253  37.3262  39.0808  39.0839  39.4209  39.4209
    44.6874  44.6874  44.8880  44.8897  46.0336  46.0342  48.5195  48.5195
    49.6681  49.6688  53.0972  53.0972

          k = 0.0952-0.1427-0.1427 (  1496 PWs)   bands (ev):

    10.1393  10.1393  10.1394  10.1395  12.6173  12.6175  12.6176  12.6178
    12.8499  12.8502  12.8502  12.8505  13.2635  13.2642  13.2642  13.2649
    14.5900  14.5905  14.5905  14.5910  15.5025  15.5031  15.5031  15.5037
    21.4923  21.4927  21.4928  21.4932  35.1349  35.1353  35.1354  35.1358
    38.1941  38.1948  38.1950  38.1957  39.0159  39.0165  39.0168  39.0174
    44.1341  44.1348  44.1350  44.1358  45.1583  45.1586  45.1586  45.1588
    50.5198  50.5202  50.5202  50.5206

          k =-0.1427-0.1427-0.1427 (  1472 PWs)   bands (ev):

    10.0540  10.0540  10.0540  10.0540  12.7357  12.7358  12.7358  12.7358
    12.7358  12.7358  12.7358  12.7358  14.1965  14.1966  14.1966  14.1967
    14.7233  14.7233  14.7233  14.7233  14.7233  14.7233  14.7233  14.7233
    20.7011  20.7011  20.7011  20.7013  36.7715  36.7717  36.7718  36.7718
    39.6537  39.6537  39.6538  39.6539  39.6539  39.6540  39.6540  39.6541
    42.8420  42.8420  42.8422  42.8422  42.8422  42.8423  42.8424  42.8424
    48.8977  48.8978  48.8978  48.8978

          k =-0.0476 0.0000 0.0476 (  1490 PWs)   bands (ev):

     6.1032  10.3656  10.3656  10.5553  11.1118  11.1223  11.1223  12.6144
    12.9870  12.9914  13.7015  13.7428  13.7429  13.7550  13.9579  14.3554
    14.4815  14.4815  14.7524  14.7524  14.8231  16.7213  16.7214  18.9698
    24.1639  25.2338  26.4407  26.4407  28.3822  28.3823  28.9831  28.9831
    30.6725  36.1165  36.1461  37.1046  37.1046  37.3563  40.2411  40.2412
    41.1964  42.6986  43.5070  45.1826  46.4333  49.9557  50.3884  53.2761
    53.6431  55.3199  55.3199  56.2518

          k =-0.0476 0.0000 0.0952 (  1511 PWs)   bands (ev):

     7.1329   9.9686  10.8820  11.0002  11.3953  11.4280  11.4694  12.3019
    12.6792  12.8484  13.0422  13.0824  13.2627  13.5837  14.0058  14.0913
    14.1613  14.2476  14.2769  14.7495  14.7587  15.1491  18.3600  20.7913
    22.2839  24.8418  25.6608  26.6731  27.5319  29.7214  29.9696  30.0315
    31.1186  33.8079  34.5154  37.7281  38.6768  40.3480  40.5228  40.8750
    41.1251  44.1295  45.2451  47.1325  47.7153  48.5790  49.8853  51.2681
    52.9035  53.1779  55.0482  56.4641

          k =-0.0952 0.0000 0.0952 (  1506 PWs)   bands (ev):

     8.0830  10.6069  10.6069  11.3639  11.4461  11.6840  11.6840  12.2039
    12.3504  12.3504  12.5241  12.9215  13.4068  13.4800  13.7783  13.9173
    13.9173  14.2810  14.2810  14.4709  14.5479  16.2914  16.2914  19.6121
    22.3333  25.3629  26.9490  26.9491  28.0027  28.0028  31.1216  31.7355
    31.7355  31.8098  33.6628  36.8804  41.4703  41.8693  41.8693  43.1178
    43.3013  43.8212  43.8212  47.3189  47.3682  48.5284  48.5284  51.7420
    52.0754  52.1404  53.4142  55.2614

          k = 0.0476-0.0476 0.0476 (  1490 PWs)   bands (ev):

     6.4518  10.5535  10.5536  10.5536  11.2135  11.2135  11.2135  12.5595
    13.0120  13.0121  13.4015  13.4015  13.4015  13.8703  13.8703  14.1623
    14.1623  14.1623  14.8236  14.8236  14.8236  17.3751  17.3751  17.3751
    25.4621  25.4621  25.4623  26.7705  26.7705  26.7705  31.1985  31.1988
    31.1988  33.5549  36.2680  36.2682  36.2683  39.1028  41.1977  41.1980
    42.9026  42.9027  42.9029  46.5121  47.6131  47.6133  51.8199  51.8202
    55.1896  55.1899  55.1899  55.4559

          k = 0.0476-0.0476 0.0952 (  1514 PWs)   bands (ev):

     7.4491  10.1673  11.0132  11.0132  11.4550  11.4550  11.5109  12.3122
    12.6806  12.6806  12.8461  13.0436  13.1337  13.7752  13.8095  13.8722
    13.8722  14.1459  14.7115  14.7412  14.7412  15.4321  18.7034  18.7035
    22.9217  22.9219  26.7687  27.3974  27.3975  30.4386  30.4388  30.8650
    31.0408  32.7032  36.7267  37.6882  37.9346  38.8274  38.8278  42.3753
    43.5909  44.4943  47.0726  47.0728  47.9330  49.0367  50.1972  50.1974
    50.7112  52.9542  53.0461  55.7833

          k =-0.0952 0.0476 0.0476 (  1514 PWs)   bands (ev):

     7.4491  10.1674  11.0132  11.0132  11.4550  11.4550  11.5109  12.3122
    12.6806  12.6806  12.8461  13.0436  13.1337  13.7752  13.8095  13.8722
    13.8722  14.1459  14.7115  14.7412  14.7412  15.4321  18.7035  18.7035
    22.9216  22.9217  26.7689  27.3975  27.3975  30.4389  30.4389  30.8650
    31.0407  32.7029  36.7265  37.6881  37.9344  38.8277  38.8277  42.3755
    43.5911  44.4947  47.0725  47.0725  47.9332  49.0366  50.1972  50.1972
    50.7113  52.9540  53.0459  55.7830

          k = 0.0476-0.0476-0.1427 (  1518 PWs)   bands (ev):

     8.8907   8.8918  11.4409  11.4410  11.5084  11.5084  11.9203  11.9222
    12.2982  12.2983  12.8251  12.8273  13.3970  13.3975  13.6813  13.6813
    14.2971  14.2986  14.4609  14.4610  14.6936  14.6936  19.7827  19.7828
    21.4542  21.4544  28.3275  28.3276  28.5933  28.5938  29.0473  29.0475
    35.0132  35.0151  35.3927  35.3967  38.1770  38.1811  42.1921  42.1925
    44.8494  44.8518  45.3662  45.3664  49.4073  49.4103  50.8611  50.8621
    52.2270  52.2274  53.8697  53.8699

          k = 0.0952-0.0476 0.0952 (  1501 PWs)   bands (ev):

     8.3351  10.6153  10.6153  11.1271  11.6211  11.7620  11.7620  12.2883
    12.4944  12.4944  12.6194  12.9331  13.0825  13.5362  13.5362  13.5383
    13.8994  14.4602  14.6089  14.6089  14.6257  16.3701  16.3701  18.9031
    21.1520  24.1254  24.1254  28.1110  28.1860  31.2037  31.2038  32.2191
    32.2191  34.0777  35.2734  36.9405  39.3463  39.3463  40.0841  43.1586
    43.7351  44.7371  46.4648  46.4648  49.2553  49.2553  50.3571  50.5872
    50.9093  51.6995  52.3756  52.8614

          k =-0.0952 0.0476 0.0952 (  1501 PWs)   bands (ev):

     8.3350  10.6153  10.6153  11.1271  11.6211  11.7620  11.7620  12.2883
    12.4944  12.4944  12.6194  12.9330  13.0825  13.5362  13.5362  13.5384
    13.8994  14.4601  14.6089  14.6089  14.6257  16.3701  16.3702  18.9030
    21.1518  24.1254  24.1256  28.1111  28.1861  31.2036  31.2038  32.2190
    32.2191  34.0779  35.2731  36.9407  39.3459  39.3461  40.0842  43.1588
    43.7352  44.7372  46.4646  46.4647  49.2553  49.2554  50.3572  50.5875
    50.9091  51.6999  52.3752  52.8614

          k = 0.0952-0.0476-0.1427 (  1510 PWs)   bands (ev):

     9.5554   9.5563  10.9786  10.9790  11.8818  11.8820  12.1211  12.1227
    12.4745  12.4753  12.6616  12.6630  13.2116  13.2120  13.3928  13.3931
    14.2182  14.2190  14.5165  14.5172  15.0662  15.0665  17.6051  17.6061
    22.1237  22.1245  25.8691  25.8696  29.5413  29.5420  33.1023  33.1025
    33.3279  33.3286  36.9220  36.9265  40.1278  40.1288  40.4750  40.4759
    45.1877  45.1880  45.6832  45.6855  47.6919  47.6932  50.6189  50.6207
    51.7376  51.7386  53.9885  53.9919

          k = 0.0952-0.0952 0.0952 (  1502 PWs)   bands (ev):

     9.0001  10.5673  10.5673  10.5673  12.0776  12.0776  12.0776  12.5555
    12.7732  12.7732  12.7733  12.9002  12.9002  13.1735  13.1736  13.1736
    14.3399  14.3399  14.7516  14.7516  14.7516  16.6215  16.6216  16.6216
    21.7540  21.7540  21.7542  25.3812  32.5523  32.5524  32.5524  35.3120
    35.3123  35.3123  37.2930  37.2933  37.2933  37.6262  40.0452  40.0454
    44.4628  44.4630  47.7970  48.0224  48.0226  48.0226  48.1499  48.1502
    48.1502  52.4890  52.4891  52.4893

          k = 0.0952-0.0952-0.1427 (  1510 PWs)   bands (ev):

     9.8252   9.8256  10.5270  10.5271  12.2701  12.2701  12.5832  12.5843
    12.8304  12.8318  12.9340  12.9341  12.9767  12.9768  13.0410  13.0411
    14.6532  14.6534  14.6808  14.6808  14.8789  14.8792  16.8107  16.8108
    20.8235  20.8237  23.2625  23.2630  33.4293  33.4294  34.7200  34.7201
    36.2265  36.2285  37.3255  37.3264  39.0808  39.0840  39.4207  39.4212
    44.6873  44.6876  44.8880  44.8896  46.0338  46.0343  48.5192  48.5194
    49.6681  49.6687  53.0969  53.0970

     the Fermi energy is    14.4963 ev

!    total energy              =    -343.63019456 Ry
     Harris-Foulkes estimate   =    -343.63019455 Ry
     estimated scf accuracy    <          3.7E-11 Ry

     The total energy is the sum of the following terms:

     one-electron contribution =      -6.35584581 Ry
     hartree contribution      =      60.34056549 Ry
     xc contribution           =    -120.51470898 Ry
     ewald contribution        =    -277.05177384 Ry
     Dispersion Correction     =      -0.04785648 Ry
     smearing contrib. (-TS)   =      -0.00057493 Ry

     total magnetization       =     2.84 Bohr mag/cell
     absolute magnetization    =     3.25 Bohr mag/cell

     convergence has been achieved in  11 iterations

     Forces acting on atoms (Ry/au):

     atom    1 type  1   force =    -0.00013730   -0.00013730    0.00013691
     atom    2 type  1   force =     0.00013769    0.00013769    0.00013769
     atom    3 type  1   force =    -0.00013730    0.00013691   -0.00013730
     atom    4 type  1   force =     0.00013691   -0.00013730   -0.00013730

     Total force =     0.000476     Total SCF correction =     0.000011


     entering subroutine stress ...

          total   stress  (Ry/bohr**3)                   (kbar)     P=    0.57
   0.00000385   0.00000005   0.00000005          0.57      0.01      0.01
   0.00000005   0.00000385   0.00000005          0.01      0.57      0.01
   0.00000005   0.00000005   0.00000385          0.01      0.01      0.57


     number of scf cycles    =   4
     number of bfgs steps    =   3

     enthalpy old            =    -343.6302088920 Ry
     enthalpy new            =    -343.6301945573 Ry

     CASE: enthalpy_new > enthalpy_old

     new trust radius        =       0.0017290949 bohr
     new conv_thr            =            1.0E-10 Ry

     new unit-cell volume =    290.01444 a.u.^3 (    42.97571 Ang^3 )

CELL_PARAMETERS (alat=  1.88972590)
   3.502738594  -0.000003307  -0.000003307
  -0.000003307   3.502738594  -0.000003307
  -0.000003307  -0.000003307   3.502738594

ATOMIC_POSITIONS (alat)
Ni1      1.756424252   1.756424252   0.002717119
Ni1      0.002717597   0.002717597   0.002717597
Ni1      1.756424252   0.002717119   1.756424252
Ni1      0.002717119   1.756424252   1.756424252



     Writing output data file Ni-ferromag.save
     NEW-OLD atomic charge density approx. for the potential

     Check: negative/imaginary core charge=   -0.000005    0.000000
     extrapolated charge   39.99482, renormalised to   40.00000

     total cpu time spent up to now is     1403.1 secs

     Self-consistent Calculation

     iteration #  1     ecut=    45.00 Ry     beta=0.20
     Davidson diagonalization with overlap
     ethr =  1.00E-06,  avg # of iterations =  2.3

     Threshold (ethr) on eigenvalues was too large:
     Diagonalizing with lowered threshold

     Davidson diagonalization with overlap
     ethr =  2.75E-08,  avg # of iterations =  1.0

     total cpu time spent up to now is     1463.1 secs

     total energy              =    -343.63018455 Ry
     Harris-Foulkes estimate   =    -343.63563683 Ry
     estimated scf accuracy    <       0.00001103 Ry

     total magnetization       =     2.83 Bohr mag/cell
     absolute magnetization    =     3.25 Bohr mag/cell

     iteration #  2     ecut=    45.00 Ry     beta=0.20
     Davidson diagonalization with overlap
     ethr =  2.76E-08,  avg # of iterations =  1.1

     total cpu time spent up to now is     1487.5 secs

     total energy              =    -343.63019004 Ry
     Harris-Foulkes estimate   =    -343.63019073 Ry
     estimated scf accuracy    <       0.00000491 Ry

     total magnetization       =     2.84 Bohr mag/cell
     absolute magnetization    =     3.25 Bohr mag/cell

     iteration #  3     ecut=    45.00 Ry     beta=0.20
     Davidson diagonalization with overlap
     ethr =  1.23E-08,  avg # of iterations =  1.0

     total cpu time spent up to now is     1511.7 secs

     total energy              =    -343.63018924 Ry
     Harris-Foulkes estimate   =    -343.63019016 Ry
     estimated scf accuracy    <       0.00000222 Ry

     total magnetization       =     2.84 Bohr mag/cell
     absolute magnetization    =     3.25 Bohr mag/cell

     iteration #  4     ecut=    45.00 Ry     beta=0.20
     Davidson diagonalization with overlap
     ethr =  5.56E-09,  avg # of iterations =  1.1

     total cpu time spent up to now is     1536.1 secs

     total energy              =    -343.63018994 Ry
     Harris-Foulkes estimate   =    -343.63019047 Ry
     estimated scf accuracy    <       0.00000244 Ry

     total magnetization       =     2.84 Bohr mag/cell
     absolute magnetization    =     3.25 Bohr mag/cell

     iteration #  5     ecut=    45.00 Ry     beta=0.20
     Davidson diagonalization with overlap
     ethr =  5.56E-09,  avg # of iterations =  1.0

     total cpu time spent up to now is     1560.4 secs

     total energy              =    -343.63018971 Ry
     Harris-Foulkes estimate   =    -343.63019004 Ry
     estimated scf accuracy    <       0.00000071 Ry

     total magnetization       =     2.84 Bohr mag/cell
     absolute magnetization    =     3.25 Bohr mag/cell

     iteration #  6     ecut=    45.00 Ry     beta=0.20
     Davidson diagonalization with overlap
     ethr =  1.78E-09,  avg # of iterations =  1.0

     total cpu time spent up to now is     1584.6 secs

     total energy              =    -343.63018990 Ry
     Harris-Foulkes estimate   =    -343.63018990 Ry
     estimated scf accuracy    <       0.00000005 Ry

     total magnetization       =     2.84 Bohr mag/cell
     absolute magnetization    =     3.25 Bohr mag/cell

     iteration #  7     ecut=    45.00 Ry     beta=0.20
     Davidson diagonalization with overlap
     ethr =  1.28E-10,  avg # of iterations =  1.0

     total cpu time spent up to now is     1608.9 secs

     total energy              =    -343.63018988 Ry
     Harris-Foulkes estimate   =    -343.63018990 Ry
     estimated scf accuracy    <       0.00000003 Ry

     total magnetization       =     2.84 Bohr mag/cell
     absolute magnetization    =     3.25 Bohr mag/cell

     iteration #  8     ecut=    45.00 Ry     beta=0.20
     Davidson diagonalization with overlap
     ethr =  6.96E-11,  avg # of iterations =  2.0

     total cpu time spent up to now is     1635.4 secs

     total energy              =    -343.63018990 Ry
     Harris-Foulkes estimate   =    -343.63018991 Ry
     estimated scf accuracy    <       0.00000006 Ry

     total magnetization       =     2.84 Bohr mag/cell
     absolute magnetization    =     3.25 Bohr mag/cell

     iteration #  9     ecut=    45.00 Ry     beta=0.20
     Davidson diagonalization with overlap
     ethr =  6.96E-11,  avg # of iterations =  1.0

     total cpu time spent up to now is     1659.7 secs

     total energy              =    -343.63018991 Ry
     Harris-Foulkes estimate   =    -343.63018991 Ry
     estimated scf accuracy    <       0.00000001 Ry

     total magnetization       =     2.84 Bohr mag/cell
     absolute magnetization    =     3.25 Bohr mag/cell

     iteration # 10     ecut=    45.00 Ry     beta=0.20
     Davidson diagonalization with overlap
     ethr =  3.68E-11,  avg # of iterations =  1.0

     total cpu time spent up to now is     1683.9 secs

     total energy              =    -343.63018990 Ry
     Harris-Foulkes estimate   =    -343.63018991 Ry
     estimated scf accuracy    <       0.00000001 Ry

     total magnetization       =     2.84 Bohr mag/cell
     absolute magnetization    =     3.25 Bohr mag/cell

     iteration # 11     ecut=    45.00 Ry     beta=0.20
     Davidson diagonalization with overlap
     ethr =  2.92E-11,  avg # of iterations =  1.0

     Magnetic moment per site:
     atom:    1    charge:    3.0043    magn:    0.3348    constr:    0.0000
     atom:    2    charge:    3.0025    magn:    0.3346    constr:    0.0000
     atom:    3    charge:    3.0043    magn:    0.3348    constr:    0.0000
     atom:    4    charge:    3.0043    magn:    0.3348    constr:    0.0000

     total cpu time spent up to now is     1708.2 secs

     End of self-consistent calculation

 ------ SPIN UP ------------


          k = 0.0000 0.0000 0.0000 (  1503 PWs)   bands (ev):

     5.4345   9.7186   9.7187   9.7187  10.1720  10.1721  10.1721  11.9519
    11.9519  11.9519  13.1311  13.1311  13.8493  13.8493  13.8493  13.9393
    13.9393  13.9393  13.9394  13.9394  13.9394  17.0779  17.0779  17.0779
    23.8190  23.8190  23.8190  29.5768  29.5769  29.5769  29.5770  29.5770
    29.5770  34.6570  34.6570  34.6570  38.0031  38.0033  38.0033  38.5043
    42.4830  42.4830  42.4832  46.0850  46.0850  46.0852  48.1853  55.1837
    55.1837  55.1837  57.6267  59.0431

          k = 0.0000 0.0000 0.0476 (  1478 PWs)   bands (ev):

     5.8008   9.7408   9.9029   9.9029  10.2826  10.2984  10.2985  11.8231
    12.0543  12.0543  13.0131  13.1778  13.2850  13.2851  13.6958  13.6958
    13.7634  13.7634  13.7998  13.9396  13.9396  15.4770  18.0370  18.0370
    23.9148  23.9149  26.0684  27.8251  27.8251  28.4535  28.4535  30.1373
    30.1374  34.7731  36.8299  36.8299  37.8693  38.1351  39.9605  39.9606
    40.2620  40.2621  40.9272  47.5045  48.1404  48.1404  49.1633  51.5714
    56.2805  56.2806  56.6869  56.6869

          k = 0.0000 0.0000 0.0952 (  1510 PWs)   bands (ev):

     6.8503   9.5116  10.3400  10.3400  10.5904  10.6818  10.6818  11.4789
    12.2286  12.2287  12.3510  12.3510  12.7252  13.3065  13.3124  13.3155
    13.3155  13.3260  13.3260  13.6655  13.9402  13.9402  20.0000  20.0001
    24.2319  24.2319  25.0511  25.0511  26.6855  26.6855  30.3686  31.7171
    31.7172  35.1362  36.7374  37.0405  37.0406  38.3590  38.6872  40.8744
    40.8744  44.1254  44.1255  44.1591  50.9398  51.0600  51.0601  51.0634
    51.0634  55.0493  55.9528  55.9529

          k =-0.0000-0.0000-0.1427 (  1510 PWs)   bands (ev):

     8.3465   8.3532  10.6162  10.6162  11.0205  11.0303  11.3239  11.3239
    11.3336  11.3336  12.5411  12.5549  12.7996  12.7996  12.8069  12.8070
    13.0686  13.0686  13.4819  13.4873  13.9404  13.9404  22.3777  22.3778
    22.3947  22.3948  24.6046  24.6047  25.7404  25.7404  34.0897  34.0898
    34.1016  34.1017  34.9059  34.9311  35.7804  35.7864  40.2616  40.3017
    45.6586  45.6587  45.6936  45.6937  47.6317  47.6317  52.3047  52.3048
    54.1718  54.1718  54.2041  54.2041

          k = 0.0000 0.0476 0.0476 (  1490 PWs)   bands (ev):

     6.1585   9.9392   9.9392  10.0661  10.4000  10.4000  10.4139  11.7631
    12.0993  12.1163  12.9388  12.9862  12.9971  12.9995  13.1731  13.5671
    13.6917  13.6917  13.7620  13.7620  13.8235  16.4095  16.4095  18.8070
    23.9087  25.1078  26.2556  26.2556  28.3029  28.3029  28.9460  28.9460
    30.6652  36.0462  36.1290  37.0383  37.0383  37.3433  40.1284  40.1284
    41.2814  42.6165  43.5425  45.2436  46.3778  49.8029  50.4681  53.1102
    53.6820  55.3634  55.3635  56.3169

          k = 0.0000 0.0476 0.0952 (  1511 PWs)   bands (ev):

     7.1802   9.7478  10.4214  10.4700  10.6819  10.7351  10.7543  11.4820
    11.9900  12.1297  12.2452  12.3627  12.3882  12.8215  13.2431  13.3202
    13.3299  13.3523  13.5047  13.7586  13.7649  14.4425  18.0242  20.5903
    22.0887  24.6175  25.5126  26.5418  27.4107  29.6167  29.9108  29.9654
    31.0254  33.7340  34.4772  37.6905  38.6432  40.4006  40.5794  40.7604
    41.1301  44.0526  45.0464  47.0716  47.7976  48.6016  49.9066  51.3480
    52.9534  53.2737  54.8336  56.2158

          k =-0.0000 0.0476-0.1427 (  1500 PWs)   bands (ev):

     8.6283   8.6345  10.7686  10.7690  11.0724  11.0819  11.1924  11.2004
    11.3385  11.3480  12.1693  12.1795  12.8003  12.8078  13.0318  13.0352
    13.0535  13.0539  13.6682  13.6683  13.7556  13.7571  19.8889  19.8975
    22.8780  22.8932  25.4151  25.4268  28.3168  28.3207  31.5044  31.5094
    32.0285  32.0321  35.8248  35.8537  38.8382  38.8404  42.2134  42.2382
    43.1217  43.1310  45.9357  45.9688  50.0816  50.1111  50.3606  50.3745
    52.6206  52.6316  53.2128  53.2217

          k = 0.0000 0.0952 0.0952 (  1506 PWs)   bands (ev):

     8.1069  10.3355  10.3355  10.7015  10.9500  10.9502  10.9638  11.4121
    11.6592  11.6593  11.8139  12.1325  12.4935  12.7353  13.0271  13.1821
    13.1822  13.3225  13.3225  13.4926  13.7079  15.6888  15.6888  19.3076
    22.1173  25.1682  26.7856  26.7857  27.9054  27.9054  30.9947  31.6502
    31.6508  31.7470  33.6143  36.8489  41.5381  41.8920  41.8920  43.0880
    43.4229  43.7839  43.7840  47.2030  47.3441  48.4889  48.4890  51.6884
    52.1909  52.2035  53.2161  55.3638

          k =-0.0000 0.0952-0.1427 (  1514 PWs)   bands (ev):

     9.3715   9.3767  10.8034  10.8095  11.1992  11.2065  11.2132  11.2140
    11.3575  11.3664  11.8651  11.8717  12.8375  12.8406  12.8410  12.8452
    12.9073  12.9087  13.3552  13.3597  14.3691  14.3703  17.2171  17.2238
    24.2360  24.2476  26.2313  26.2408  28.6591  28.6646  29.5469  29.5481
    32.9583  32.9609  36.7877  36.8159  40.3733  40.3788  43.0586  43.0640
    43.2276  43.2301  46.7392  46.7661  47.9303  47.9465  50.4335  50.4486
    51.7649  51.7890  53.5732  53.5795

          k =-0.0000-0.1427-0.1427 (  1516 PWs)   bands (ev):

    10.2229  10.2273  10.2274  10.2317  11.3154  11.3238  11.3238  11.3322
    11.6307  11.6331  11.6331  11.6355  12.6937  12.6946  12.6946  12.6955
    13.0021  13.0090  13.0090  13.0159  15.4371  15.4403  15.4403  15.4435
    26.2085  26.2165  26.2166  26.2245  27.5824  27.5881  27.5881  27.5940
    37.8968  37.9045  37.9046  37.9125  38.5013  38.5107  38.5108  38.5197
    47.1900  47.1900  47.1900  47.1903  49.1889  49.2040  49.2041  49.2192
    51.8327  51.8340  51.8340  51.8352

          k = 0.0476 0.0476 0.0476 (  1490 PWs)   bands (ev):

     6.5043  10.1002  10.1002  10.1002  10.5145  10.5146  10.5146  11.7282
    12.1360  12.1360  12.6930  12.6930  12.6930  13.0863  13.0863  13.3336
    13.3336  13.3336  13.8777  13.8777  13.8777  17.0368  17.0369  17.0369
    25.3341  25.3341  25.3341  26.6010  26.6010  26.6010  31.1806  31.1807
    31.1807  33.4926  36.1775  36.1775  36.1775  39.2620  41.1500  41.1500
    42.8238  42.8239  42.8239  46.6041  47.6609  47.6609  51.6596  51.6596
    55.1226  55.2420  55.2421  55.2421

          k = 0.0476 0.0476 0.0952 (  1514 PWs)   bands (ev):

     7.4859   9.9065  10.4834  10.4835  10.8003  10.8284  10.8285  11.5186
    11.9804  11.9804  12.1754  12.2157  12.2755  12.9312  13.0017  13.0876
    13.0878  13.3260  13.7803  13.7804  13.8127  14.8044  18.3794  18.3794
    22.7148  22.7148  26.6281  27.2522  27.2522  30.3678  30.3678  30.7549
    30.9573  32.6607  36.6564  37.7862  37.8619  38.8017  38.8017  42.3725
    43.5160  44.4818  47.0338  47.0338  47.8963  49.0959  50.2137  50.2137
    50.7095  53.0300  53.0914  55.6744

          k = 0.0476 0.0476-0.1427 (  1518 PWs)   bands (ev):

     8.8557   8.8612  10.8708  10.8709  10.9288  10.9288  11.1679  11.1767
    11.5863  11.5863  12.0736  12.0836  12.5471  12.5505  12.9198  12.9198
    13.4921  13.4991  13.6014  13.6029  13.7243  13.7243  19.5283  19.5283
    21.1536  21.1536  28.2159  28.2163  28.4536  28.4572  28.9368  28.9374
    34.9440  34.9540  35.4154  35.4352  38.0960  38.1168  42.2156  42.2156
    44.7636  44.7748  45.3822  45.3822  49.4855  49.5011  50.9097  50.9151
    52.1995  52.1995  53.6944  53.6952

          k = 0.0476 0.0952 0.0952 (  1501 PWs)   bands (ev):

     8.3249  10.2243  10.2244  10.5105  11.1159  11.1620  11.1620  11.5637
    11.7763  11.7764  11.9096  12.1345  12.2604  12.7389  12.7389  12.7554
    13.0584  13.6136  13.6827  13.6981  13.6983  15.8195  15.8195  18.6312
    20.8113  23.9119  23.9119  27.9521  28.0632  31.1437  31.1438  32.1307
    32.1308  34.0274  35.2517  36.9197  39.3358  39.3358  40.1646  43.0503
    43.7481  44.7961  46.4758  46.4759  49.2060  49.2061  50.4307  50.6091
    50.9381  51.6330  52.3153  52.9398

          k = 0.0476 0.0952-0.1427 (  1510 PWs)   bands (ev):

     9.4065   9.4099  10.4451  10.4462  11.3293  11.3296  11.4742  11.4814
    11.7817  11.7847  11.9008  11.9074  12.4086  12.4110  12.6199  12.6214
    13.3543  13.3571  13.5820  13.5849  14.2754  14.2765  17.1946  17.2001
    21.8250  21.8293  25.6714  25.6745  29.4437  29.4464  33.0489  33.0501
    33.2623  33.2647  36.9039  36.9270  40.1460  40.1510  40.4554  40.4595
    45.2046  45.2064  45.6920  45.7031  47.7139  47.7198  50.5825  50.5917
    51.8014  51.8068  53.9058  53.9161

          k = 0.0476-0.1427-0.1427 (  1492 PWs)   bands (ev):

     9.9762   9.9777   9.9777   9.9790  11.7185  11.7208  11.7208  11.7231
    11.8032  11.8081  11.8081  11.8131  12.3788  12.3812  12.3812  12.3836
    13.3339  13.3383  13.3383  13.3427  15.3476  15.3511  15.3511  15.3546
    23.4580  23.4613  23.4613  23.4646  30.9819  30.9829  30.9829  30.9840
    38.1783  38.1848  38.1848  38.1921  38.3459  38.3544  38.3545  38.3620
    46.6673  46.6675  46.6675  46.6684  46.7635  46.7720  46.7720  46.7799
    54.8190  54.8254  54.8255  54.8326

          k = 0.0952 0.0952 0.0952 (  1502 PWs)   bands (ev):

     8.8687  10.0593  10.0593  10.0593  11.5206  11.5207  11.5207  12.0348
    12.0946  12.0946  12.0960  12.1025  12.1025  12.3846  12.3846  12.3847
    13.4614  13.4614  13.8264  13.8264  13.8264  16.1976  16.1977  16.1977
    21.4188  21.4188  21.4188  25.1595  32.5100  32.5100  32.5100  35.2550
    35.2551  35.2551  37.2848  37.2848  37.2848  37.8007  39.9639  39.9639
    44.4585  44.4585  47.7868  48.0791  48.0791  48.0793  48.1539  48.1539
    48.1539  52.4638  52.4638  52.4638

          k = 0.0952 0.0952-0.1427 (  1510 PWs)   bands (ev):

     9.4944   9.4953   9.9907   9.9908  11.6405  11.6405  11.9245  11.9299
    12.1436  12.1444  12.2639  12.2645  12.2765  12.2822  12.3791  12.3791
    13.7466  13.7471  13.7547  13.7549  14.1656  14.1659  16.4818  16.4818
    20.3898  20.3898  22.9753  22.9784  33.4255  33.4255  34.6385  34.6386
    36.3351  36.3447  37.2554  37.2605  38.9987  39.0151  39.4507  39.4507
    44.6659  44.6659  44.9123  44.9205  46.0296  46.0318  48.5647  48.5647
    49.6187  49.6221  52.9934  52.9936

          k = 0.0952-0.1427-0.1427 (  1496 PWs)   bands (ev):

     9.6704   9.6704   9.6704   9.6704  11.8853  11.8867  11.8867  11.8881
    12.0750  12.0765  12.0765  12.0781  12.8231  12.8262  12.8262  12.8293
    13.6724  13.6748  13.6748  13.6772  14.9701  14.9741  14.9741  14.9780
    21.1007  21.1033  21.1034  21.1060  35.1639  35.1652  35.1653  35.1666
    38.2257  38.2300  38.2300  38.2343  38.9479  38.9522  38.9523  38.9564
    44.1041  44.1078  44.1079  44.1116  45.1698  45.1708  45.1708  45.1718
    50.4336  50.4352  50.4352  50.4370

          k =-0.1427-0.1427-0.1427 (  1472 PWs)   bands (ev):

     9.5543   9.5544   9.5544   9.5544  11.9649  11.9649  11.9649  11.9649
    11.9649  11.9650  11.9650  11.9650  13.8023  13.8023  13.8023  13.8024
    13.8024  13.8024  13.8024  13.8024  14.2981  14.2982  14.2982  14.2982
    20.2222  20.2222  20.2222  20.2223  36.9592  36.9594  36.9594  36.9594
    39.5885  39.5885  39.5885  39.5886  39.5886  39.5886  39.5886  39.5887
    42.8166  42.8166  42.8167  42.8167  42.8167  42.8167  42.8167  42.8167
    48.7892  48.7892  48.7892  48.7892

          k =-0.0476-0.0000 0.0476 (  1490 PWs)   bands (ev):

     6.1585   9.9392   9.9392  10.0661  10.4000  10.4000  10.4139  11.7631
    12.0993  12.1163  12.9388  12.9862  12.9971  12.9995  13.1731  13.5671
    13.6917  13.6917  13.7620  13.7621  13.8235  16.4095  16.4095  18.8070
    23.9087  25.1077  26.2556  26.2556  28.3029  28.3029  28.9460  28.9460
    30.6653  36.0463  36.1289  37.0383  37.0383  37.3432  40.1283  40.1284
    41.2815  42.6164  43.5426  45.2437  46.3778  49.8030  50.4680  53.1102
    53.6820  55.3633  55.3634  56.3169

          k =-0.0476 0.0000 0.0952 (  1511 PWs)   bands (ev):

     7.1802   9.7478  10.4214  10.4700  10.6819  10.7351  10.7543  11.4820
    11.9900  12.1297  12.2452  12.3627  12.3882  12.8215  13.2431  13.3202
    13.3299  13.3523  13.5047  13.7586  13.7649  14.4425  18.0243  20.5903
    22.0887  24.6175  25.5126  26.5418  27.4107  29.6167  29.9108  29.9655
    31.0254  33.7340  34.4771  37.6904  38.6432  40.4007  40.5795  40.7603
    41.1301  44.0525  45.0465  47.0715  47.7976  48.6017  49.9066  51.3480
    52.9533  53.2736  54.8337  56.2158

          k =-0.0952-0.0000 0.0952 (  1506 PWs)   bands (ev):

     8.1069  10.3355  10.3355  10.7015  10.9500  10.9502  10.9638  11.4121
    11.6592  11.6593  11.8139  12.1325  12.4936  12.7353  13.0271  13.1821
    13.1822  13.3225  13.3225  13.4926  13.7079  15.6888  15.6888  19.3076
    22.1172  25.1682  26.7857  26.7857  27.9054  27.9055  30.9947  31.6501
    31.6508  31.7470  33.6144  36.8490  41.5381  41.8920  41.8920  43.0880
    43.4229  43.7838  43.7839  47.2031  47.3441  48.4889  48.4890  51.6882
    52.1909  52.2035  53.2162  55.3636

          k = 0.0476-0.0476 0.0476 (  1490 PWs)   bands (ev):

     6.5043  10.1002  10.1002  10.1002  10.5145  10.5146  10.5146  11.7282
    12.1360  12.1360  12.6930  12.6930  12.6931  13.0863  13.0863  13.3336
    13.3336  13.3336  13.8777  13.8777  13.8777  17.0369  17.0369  17.0369
    25.3341  25.3341  25.3341  26.6009  26.6010  26.6010  31.1806  31.1807
    31.1807  33.4925  36.1775  36.1776  36.1776  39.2621  41.1500  41.1501
    42.8237  42.8237  42.8238  46.6042  47.6609  47.6610  51.6596  51.6597
    55.1226  55.2419  55.2420  55.2421

          k = 0.0476-0.0476 0.0952 (  1514 PWs)   bands (ev):

     7.4859   9.9065  10.4834  10.4835  10.8003  10.8285  10.8285  11.5186
    11.9804  11.9804  12.1754  12.2157  12.2755  12.9312  13.0017  13.0876
    13.0878  13.3260  13.7804  13.7804  13.8127  14.8044  18.3794  18.3795
    22.7148  22.7149  26.6281  27.2522  27.2522  30.3678  30.3678  30.7548
    30.9573  32.6608  36.6565  37.7862  37.8620  38.8017  38.8018  42.3725
    43.5159  44.4819  47.0337  47.0338  47.8963  49.0959  50.2136  50.2137
    50.7096  53.0299  53.0914  55.6745

          k =-0.0952 0.0476 0.0476 (  1514 PWs)   bands (ev):

     7.4859   9.9065  10.4834  10.4835  10.8003  10.8284  10.8285  11.5186
    11.9804  11.9804  12.1754  12.2157  12.2755  12.9312  13.0017  13.0876
    13.0878  13.3260  13.7804  13.7804  13.8127  14.8044  18.3794  18.3795
    22.7148  22.7148  26.6282  27.2521  27.2522  30.3678  30.3679  30.7548
    30.9573  32.6607  36.6564  37.7862  37.8619  38.8018  38.8018  42.3726
    43.5159  44.4820  47.0337  47.0337  47.8964  49.0959  50.2136  50.2136
    50.7096  53.0299  53.0913  55.6744

          k = 0.0476-0.0476-0.1427 (  1518 PWs)   bands (ev):

     8.8557   8.8612  10.8708  10.8709  10.9288  10.9288  11.1679  11.1767
    11.5863  11.5863  12.0736  12.0836  12.5471  12.5505  12.9198  12.9198
    13.4921  13.4991  13.6014  13.6029  13.7243  13.7243  19.5283  19.5283
    21.1536  21.1536  28.2159  28.2162  28.4536  28.4571  28.9368  28.9373
    34.9441  34.9540  35.4154  35.4352  38.0961  38.1168  42.2155  42.2157
    44.7635  44.7747  45.3821  45.3822  49.4855  49.5010  50.9098  50.9152
    52.1994  52.1996  53.6945  53.6952

          k = 0.0952-0.0476 0.0952 (  1501 PWs)   bands (ev):

     8.3248  10.2243  10.2244  10.5105  11.1159  11.1620  11.1620  11.5637
    11.7763  11.7764  11.9096  12.1345  12.2604  12.7389  12.7390  12.7554
    13.0584  13.6136  13.6827  13.6981  13.6984  15.8195  15.8195  18.6312
    20.8114  23.9119  23.9119  27.9520  28.0631  31.1438  31.1438  32.1307
    32.1308  34.0273  35.2519  36.9197  39.3359  39.3359  40.1646  43.0503
    43.7482  44.7961  46.4758  46.4758  49.2059  49.2060  50.4306  50.6091
    50.9382  51.6330  52.3152  52.9397

          k =-0.0952 0.0476 0.0952 (  1501 PWs)   bands (ev):

     8.3248  10.2243  10.2244  10.5105  11.1159  11.1620  11.1620  11.5637
    11.7763  11.7764  11.9096  12.1345  12.2604  12.7389  12.7389  12.7554
    13.0584  13.6136  13.6827  13.6981  13.6983  15.8195  15.8195  18.6312
    20.8113  23.9119  23.9120  27.9520  28.0632  31.1437  31.1438  32.1307
    32.1308  34.0274  35.2518  36.9197  39.3357  39.3358  40.1647  43.0503
    43.7482  44.7961  46.4757  46.4758  49.2059  49.2060  50.4307  50.6091
    50.9381  51.6331  52.3151  52.9397

          k = 0.0952-0.0476-0.1427 (  1510 PWs)   bands (ev):

     9.4065   9.4099  10.4451  10.4462  11.3293  11.3296  11.4742  11.4814
    11.7817  11.7847  11.9008  11.9074  12.4086  12.4110  12.6199  12.6214
    13.3543  13.3571  13.5820  13.5849  14.2754  14.2765  17.1946  17.2001
    21.8251  21.8294  25.6714  25.6744  29.4437  29.4463  33.0490  33.0501
    33.2623  33.2647  36.9039  36.9270  40.1460  40.1510  40.4554  40.4596
    45.2046  45.2065  45.6920  45.7031  47.7138  47.7198  50.5824  50.5917
    51.8013  51.8067  53.9058  53.9160

          k = 0.0952-0.0952 0.0952 (  1502 PWs)   bands (ev):

     8.8687  10.0593  10.0593  10.0594  11.5206  11.5206  11.5206  12.0347
    12.0946  12.0946  12.0960  12.1025  12.1026  12.3846  12.3846  12.3847
    13.4614  13.4614  13.8264  13.8264  13.8264  16.1977  16.1977  16.1977
    21.4188  21.4188  21.4188  25.1594  32.5099  32.5099  32.5100  35.2550
    35.2551  35.2551  37.2847  37.2848  37.2848  37.8008  39.9640  39.9641
    44.4585  44.4586  47.7869  48.0790  48.0791  48.0793  48.1539  48.1539
    48.1540  52.4636  52.4637  52.4637

          k = 0.0952-0.0952-0.1427 (  1510 PWs)   bands (ev):

     9.4944   9.4953   9.9907   9.9908  11.6405  11.6405  11.9245  11.9299
    12.1437  12.1444  12.2639  12.2645  12.2765  12.2822  12.3791  12.3792
    13.7466  13.7471  13.7547  13.7549  14.1656  14.1659  16.4818  16.4818
    20.3898  20.3899  22.9752  22.9784  33.4254  33.4255  34.6385  34.6385
    36.3351  36.3447  37.2554  37.2606  38.9987  39.0151  39.4506  39.4508
    44.6659  44.6660  44.9123  44.9205  46.0296  46.0318  48.5646  48.5646
    49.6187  49.6221  52.9933  52.9935

 ------ SPIN DOWN ----------


          k = 0.0000 0.0000 0.0000 (  1503 PWs)   bands (ev):

     5.3799  10.1806  10.1806  10.1806  10.8902  10.8903  10.8903  12.8323
    12.8323  12.8323  13.9112  13.9112  14.6634  14.6634  14.6634  14.9488
    14.9488  14.9488  14.9488  14.9488  14.9488  16.9992  16.9992  16.9992
    24.1247  24.1247  24.1247  29.5631  29.5632  29.5632  29.5633  29.5633
    29.5634  34.8212  34.8212  34.8213  38.1466  38.1468  38.1468  38.2988
    42.4537  42.4537  42.4539  46.1574  46.1574  46.1576  48.0259  55.3729
    55.3729  55.3730  58.1499  59.5619

          k = 0.0000 0.0000 0.0476 (  1478 PWs)   bands (ev):

     5.7462  10.1563  10.3749  10.3749  11.0096  11.0141  11.0141  12.6902
    12.9387  12.9387  13.7836  13.9600  14.1050  14.1051  14.4963  14.4963
    14.6115  14.7561  14.7561  14.9491  14.9491  15.5471  18.1439  18.1439
    24.2054  24.2054  26.2703  27.8937  27.8937  28.4808  28.4809  30.1400
    30.1401  34.9248  36.9108  36.9109  37.7306  38.2762  40.0809  40.0811
    40.3039  40.3040  40.8573  47.5250  48.1142  48.1143  49.2349  51.5626
    56.4920  56.4920  56.6136  56.6136

          k = 0.0000 0.0000 0.0952 (  1510 PWs)   bands (ev):

     6.8000   9.7198  10.8365  10.8365  11.3428  11.3920  11.3921  12.3117
    12.9579  12.9580  13.2486  13.2486  13.4626  13.6830  14.0841  14.0842
    14.0947  14.2809  14.2809  14.4707  14.9497  14.9497  20.1853  20.1853
    24.4781  24.4781  25.1919  25.1919  26.7837  26.7837  30.4642  31.7541
    31.7542  35.2501  36.7027  37.1119  37.1120  38.2687  38.8332  40.8798
    40.8798  44.2248  44.2249  44.3774  50.8955  50.9651  50.9652  50.9900
    50.9900  54.9450  56.1945  56.1945

          k =-0.0000-0.0000-0.1427 (  1510 PWs)   bands (ev):

     8.3400   8.3469  11.1283  11.1284  11.8106  11.8211  12.0330  12.0330
    12.0429  12.0430  13.1884  13.2034  13.7210  13.7210  13.7287  13.7287
    13.8149  13.8150  14.2783  14.2840  14.9500  14.9500  22.5593  22.5593
    22.5766  22.5767  24.8014  24.8014  25.8978  25.8978  34.1548  34.1549
    34.1667  34.1668  34.8858  34.9116  35.8313  35.8383  40.4534  40.4942
    45.6138  45.6139  45.6497  45.6497  47.7057  47.7058  52.4942  52.4942
    54.0616  54.0616  54.0939  54.0939

          k = 0.0000 0.0476 0.0476 (  1490 PWs)   bands (ev):

     6.1048  10.3673  10.3673  10.5570  11.1136  11.1240  11.1241  12.6165
    12.9891  12.9936  13.7037  13.7424  13.7452  13.7598  13.9603  14.3578
    14.4839  14.4840  14.7549  14.7549  14.8256  16.7241  16.7241  18.9728
    24.1674  25.2375  26.4444  26.4444  28.3858  28.3859  28.9870  28.9871
    30.6763  36.1206  36.1504  37.1089  37.1090  37.3607  40.2462  40.2463
    41.2007  42.7039  43.5116  45.1873  46.4384  49.9618  50.3936  53.2825
    53.6483  55.3255  55.3256  56.2573

          k = 0.0000 0.0476 0.0952 (  1511 PWs)   bands (ev):

     7.1347   9.9704  10.8837  11.0020  11.3971  11.4297  11.4712  12.3040
    12.6813  12.8505  13.0439  13.0850  13.2648  13.5860  14.0081  14.0935
    14.1636  14.2501  14.2793  14.7519  14.7613  15.1516  18.3629  20.7945
    22.2873  24.8455  25.6643  26.6767  27.5359  29.7252  29.9727  30.0359
    31.1228  33.8121  34.5197  37.7325  38.6811  40.3523  40.5271  40.8802
    41.1297  44.1348  45.2510  47.1381  47.7201  48.5841  49.8908  51.2733
    52.9090  53.1832  55.0539  56.4692

          k =-0.0000 0.0476-0.1427 (  1500 PWs)   bands (ev):

     8.6338   8.6403  11.2716  11.2725  11.8541  11.8641  11.8704  11.8782
    12.0503  12.0601  12.9095  12.9212  13.7243  13.7322  13.8009  13.8024
    13.8047  13.8062  14.5066  14.5070  14.7496  14.7513  20.1703  20.1791
    23.0711  23.0865  25.5862  25.5988  28.4335  28.4381  31.6187  31.6232
    32.0867  32.0897  35.8501  35.8789  38.8398  38.8414  42.3658  42.3914
    43.1143  43.1246  45.8874  45.9212  50.1474  50.1764  50.2930  50.3070
    52.5369  52.5483  53.3811  53.3900

          k = 0.0000 0.0952 0.0952 (  1506 PWs)   bands (ev):

     8.0848  10.6087  10.6087  11.3657  11.4480  11.6857  11.6858  12.2060
    12.3525  12.3525  12.5262  12.9237  13.4089  13.4822  13.7806  13.9196
    13.9196  14.2834  14.2834  14.4734  14.5503  16.2941  16.2941  19.6153
    22.3366  25.3666  26.9525  26.9526  28.0066  28.0066  31.1257  31.7389
    31.7397  31.8146  33.6669  36.8846  41.4747  41.8739  41.8740  43.1227
    43.3056  43.8264  43.8265  47.3244  47.3733  48.5339  48.5340  51.7480
    52.0804  52.1457  53.4199  55.2663

          k =-0.0000 0.0952-0.1427 (  1514 PWs)   bands (ev):

     9.4327   9.4383  11.2231  11.2291  11.8515  11.8521  11.9628  11.9722
    12.0779  12.0872  12.6016  12.6090  13.5751  13.5753  13.6483  13.6494
    13.7715  13.7795  14.3235  14.3284  15.1750  15.1765  17.6814  17.6880
    24.4414  24.4527  26.3827  26.3931  28.8217  28.8266  29.6368  29.6385
    33.0298  33.0330  36.8154  36.8436  40.3725  40.3774  43.0046  43.0097
    43.2461  43.2483  46.6772  46.7046  48.0122  48.0292  50.3807  50.3961
    51.8860  51.9100  53.4881  53.4941

          k =-0.0000-0.1427-0.1427 (  1516 PWs)   bands (ev):

    10.4418  10.4468  10.4468  10.4517  12.0527  12.0617  12.0617  12.0706
    12.2995  12.3023  12.3024  12.3051  13.4314  13.4323  13.4323  13.4333
    13.9508  13.9581  13.9581  13.9654  16.1195  16.1222  16.1222  16.1248
    26.4041  26.4116  26.4117  26.4191  27.7053  27.7117  27.7118  27.7182
    37.9712  37.9787  37.9788  37.9865  38.4680  38.4768  38.4769  38.4852
    47.0697  47.0701  47.0701  47.0708  49.1777  49.1933  49.1934  49.2089
    51.9332  51.9352  51.9352  51.9372

          k = 0.0476 0.0476 0.0476 (  1490 PWs)   bands (ev):

     6.4535  10.5553  10.5553  10.5553  11.2152  11.2153  11.2153  12.5616
    13.0141  13.0141  13.4037  13.4037  13.4037  13.8726  13.8726  14.1647
    14.1647  14.1647  14.8260  14.8260  14.8261  17.3779  17.3779  17.3779
    25.4657  25.4657  25.4657  26.7743  26.7743  26.7743  31.2025  31.2026
    31.2026  33.5592  36.2725  36.2725  36.2725  39.1067  41.2025  41.2025
    42.9079  42.9080  42.9080  46.5169  47.6182  47.6182  51.8264  51.8264
    55.1953  55.1954  55.1954  55.4607

          k = 0.0476 0.0476 0.0952 (  1514 PWs)   bands (ev):

     7.4509  10.1692  11.0150  11.0150  11.4568  11.4569  11.5127  12.3143
    12.6827  12.6827  12.8481  13.0459  13.1359  13.7774  13.8116  13.8744
    13.8748  14.1483  14.7139  14.7437  14.7437  15.4347  18.7064  18.7064
    22.9251  22.9251  26.7724  27.4013  27.4013  30.4427  30.4427  30.8691
    31.0448  32.7072  36.7310  37.6921  37.9391  38.8321  38.8321  42.3801
    43.5964  44.4994  47.0780  47.0781  47.9384  49.0417  50.2026  50.2027
    50.7166  52.9595  53.0515  55.7894

          k = 0.0476 0.0476-0.1427 (  1518 PWs)   bands (ev):

     8.8901   8.8961  11.4427  11.4428  11.5102  11.5103  11.9183  11.9280
    12.3003  12.3003  12.8228  12.8338  13.3980  13.4008  13.6835  13.6835
    14.2965  14.3040  14.4630  14.4638  14.6960  14.6960  19.7857  19.7857
    21.4576  21.4576  28.3309  28.3313  28.5958  28.5989  29.0515  29.0522
    35.0135  35.0233  35.3883  35.4088  38.1733  38.1941  42.1970  42.1970
    44.8501  44.8622  45.3712  45.3712  49.4061  49.4217  50.8640  50.8695
    52.2330  52.2331  53.8741  53.8753

          k = 0.0476 0.0952 0.0952 (  1501 PWs)   bands (ev):

     8.3369  10.6172  10.6172  11.1289  11.6229  11.7638  11.7639  12.2904
    12.4964  12.4965  12.6214  12.9353  13.0847  13.5381  13.5384  13.5408
    13.9018  14.4626  14.6112  14.6114  14.6284  16.3728  16.3729  18.9060
    21.1552  24.1290  24.1290  28.1135  28.1915  31.2076  31.2076  32.2233
    32.2234  34.0821  35.2773  36.9449  39.3506  39.3506  40.0884  43.1639
    43.7399  44.7419  46.4699  46.4699  49.2609  49.2609  50.3624  50.5928
    50.9145  51.7057  52.3811  52.8669

          k = 0.0476 0.0952-0.1427 (  1510 PWs)   bands (ev):

     9.5555   9.5600  10.9796  10.9816  11.8833  11.8842  12.1198  12.1279
    12.4751  12.4788  12.6607  12.6681  13.2130  13.2149  13.3945  13.3958
    14.2189  14.2230  14.5177  14.5209  15.0682  15.0697  17.6058  17.6111
    22.1255  22.1293  25.8718  25.8743  29.5440  29.5473  33.1061  33.1065
    33.3310  33.3341  36.9171  36.9400  40.1305  40.1351  40.4779  40.4823
    45.1920  45.1936  45.6835  45.6952  47.6944  47.7012  50.6208  50.6301
    51.7410  51.7462  53.9862  54.0107

          k = 0.0476-0.1427-0.1427 (  1492 PWs)   bands (ev):

    10.3319  10.3346  10.3346  10.3373  12.2871  12.2911  12.2911  12.2951
    12.5063  12.5112  12.5112  12.5160  13.1563  13.1584  13.1584  13.1605
    14.2453  14.2503  14.2503  14.2553  15.9938  15.9967  15.9967  15.9996
    23.7163  23.7190  23.7191  23.7218  31.0640  31.0657  31.0657  31.0674
    38.2508  38.2559  38.2559  38.2642  38.2973  38.3065  38.3066  38.3124
    46.5993  46.5994  46.5995  46.6000  46.7886  46.7976  46.7976  46.8062
    54.8830  54.8898  54.8899  55.1026

          k = 0.0952 0.0952 0.0952 (  1502 PWs)   bands (ev):

     9.0019  10.5690  10.5691  10.5691  12.0795  12.0796  12.0796  12.5575
    12.7753  12.7753  12.7755  12.9024  12.9024  13.1757  13.1757  13.1757
    14.3423  14.3423  14.7540  14.7540  14.7541  16.6242  16.6243  16.6243
    21.7574  21.7574  21.7575  25.3850  32.5564  32.5564  32.5564  35.3165
    35.3166  35.3166  37.2975  37.2975  37.2975  37.6299  40.0501  40.0501
    44.4678  44.4678  47.8020  48.0276  48.0276  48.0278  48.1554  48.1554
    48.1554  52.4951  52.4951  52.4951

          k = 0.0952 0.0952-0.1427 (  1510 PWs)   bands (ev):

     9.8261   9.8282  10.5288  10.5288  12.2721  12.2721  12.5831  12.5885
    12.8299  12.8367  12.9358  12.9363  12.9789  12.9789  13.0431  13.0432
    14.6553  14.6562  14.6832  14.6833  14.8810  14.8822  16.8134  16.8135
    20.8269  20.8269  23.2650  23.2677  33.4333  33.4334  34.7246  34.7247
    36.2261  36.2364  37.3280  37.3328  39.0791  39.0953  39.4254  39.4254
    44.6924  44.6925  44.8896  44.8979  46.0377  46.0404  48.5246  48.5246
    49.6723  49.6756  53.1026  53.1028

          k = 0.0952-0.1427-0.1427 (  1496 PWs)   bands (ev):

    10.1405  10.1411  10.1411  10.1417  12.6182  12.6196  12.6196  12.6209
    12.8509  12.8523  12.8523  12.8538  13.2628  13.2664  13.2664  13.2701
    14.5903  14.5930  14.5930  14.5957  15.5024  15.5057  15.5057  15.5089
    21.4939  21.4961  21.4962  21.4984  35.1373  35.1393  35.1394  35.1414
    38.1954  38.1992  38.1993  38.2032  39.0174  39.0215  39.0215  39.0254
    44.1357  44.1399  44.1400  44.1441  45.1623  45.1635  45.1635  45.1647
    50.5241  50.5257  50.5257  50.5276

          k =-0.1427-0.1427-0.1427 (  1472 PWs)   bands (ev):

    10.0557  10.0558  10.0558  10.0558  12.7378  12.7378  12.7379  12.7379
    12.7379  12.7379  12.7379  12.7379  14.1988  14.1988  14.1988  14.1989
    14.7257  14.7257  14.7258  14.7258  14.7258  14.7258  14.7258  14.7258
    20.7045  20.7045  20.7045  20.7046  36.7752  36.7754  36.7754  36.7754
    39.6587  39.6587  39.6587  39.6588  39.6588  39.6588  39.6588  39.6589
    42.8470  42.8470  42.8470  42.8471  42.8471  42.8471  42.8471  42.8471
    48.9033  48.9033  48.9033  48.9034

          k =-0.0476-0.0000 0.0476 (  1490 PWs)   bands (ev):

     6.1048  10.3673  10.3673  10.5570  11.1136  11.1240  11.1241  12.6165
    12.9891  12.9936  13.7037  13.7424  13.7452  13.7598  13.9603  14.3578
    14.4839  14.4839  14.7549  14.7549  14.8256  16.7241  16.7241  18.9728
    24.1674  25.2375  26.4443  26.4444  28.3858  28.3859  28.9870  28.9871
    30.6764  36.1205  36.1505  37.1089  37.1089  37.3607  40.2462  40.2463
    41.2008  42.7038  43.5117  45.1873  46.4385  49.9618  50.3935  53.2824
    53.6483  55.3254  55.3255  56.2573

          k =-0.0476 0.0000 0.0952 (  1511 PWs)   bands (ev):

     7.1347   9.9704  10.8837  11.0020  11.3971  11.4297  11.4712  12.3040
    12.6813  12.8505  13.0439  13.0850  13.2648  13.5860  14.0081  14.0935
    14.1636  14.2501  14.2793  14.7519  14.7613  15.1516  18.3629  20.7944
    22.2872  24.8455  25.6643  26.6767  27.5359  29.7253  29.9727  30.0360
    31.1228  33.8121  34.5196  37.7324  38.6812  40.3523  40.5271  40.8802
    41.1297  44.1348  45.2510  47.1380  47.7201  48.5841  49.8907  51.2734
    52.9089  53.1831  55.0540  56.4692

          k =-0.0952-0.0000 0.0952 (  1506 PWs)   bands (ev):

     8.0848  10.6087  10.6087  11.3657  11.4480  11.6857  11.6858  12.2060
    12.3525  12.3525  12.5262  12.9237  13.4089  13.4822  13.7807  13.9195
    13.9196  14.2834  14.2834  14.4734  14.5503  16.2941  16.2941  19.6153
    22.3366  25.3666  26.9526  26.9526  28.0066  28.0067  31.1257  31.7389
    31.7396  31.8146  33.6669  36.8847  41.4747  41.8739  41.8739  43.1227
    43.3056  43.8263  43.8264  47.3245  47.3734  48.5339  48.5339  51.7478
    52.0804  52.1458  53.4199  55.2667

          k = 0.0476-0.0476 0.0476 (  1490 PWs)   bands (ev):

     6.4535  10.5553  10.5553  10.5553  11.2152  11.2153  11.2153  12.5616
    13.0141  13.0142  13.4037  13.4037  13.4037  13.8726  13.8726  14.1647
    14.1647  14.1647  14.8260  14.8261  14.8261  17.3779  17.3779  17.3779
    25.4656  25.4657  25.4657  26.7743  26.7743  26.7743  31.2026  31.2026
    31.2027  33.5591  36.2725  36.2726  36.2726  39.1067  41.2026  41.2027
    42.9078  42.9079  42.9080  46.5169  47.6181  47.6182  51.8264  51.8264
    55.1953  55.1954  55.1954  55.4607

          k = 0.0476-0.0476 0.0952 (  1514 PWs)   bands (ev):

     7.4509  10.1692  11.0150  11.0150  11.4568  11.4569  11.5127  12.3143
    12.6827  12.6827  12.8481  13.0459  13.1359  13.7774  13.8116  13.8745
    13.8747  14.1483  14.7139  14.7437  14.7437  15.4347  18.7064  18.7064
    22.9251  22.9252  26.7724  27.4012  27.4013  30.4427  30.4428  30.8690
    31.0448  32.7073  36.7311  37.6921  37.9392  38.8321  38.8322  42.3801
    43.5962  44.4994  47.0779  47.0780  47.9384  49.0417  50.2026  50.2027
    50.7167  52.9595  53.0516  55.7895

          k =-0.0952 0.0476 0.0476 (  1514 PWs)   bands (ev):

     7.4509  10.1692  11.0150  11.0150  11.4568  11.4569  11.5127  12.3143
    12.6827  12.6827  12.8481  13.0459  13.1359  13.7774  13.8116  13.8745
    13.8748  14.1483  14.7139  14.7437  14.7437  15.4347  18.7064  18.7064
    22.9251  22.9251  26.7724  27.4012  27.4013  30.4428  30.4428  30.8690
    31.0448  32.7072  36.7310  37.6921  37.9391  38.8321  38.8322  42.3801
    43.5963  44.4996  47.0779  47.0779  47.9385  49.0417  50.2026  50.2026
    50.7167  52.9594  53.0515  55.7894

          k = 0.0476-0.0476-0.1427 (  1518 PWs)   bands (ev):

     8.8901   8.8961  11.4428  11.4428  11.5102  11.5103  11.9183  11.9280
    12.3003  12.3003  12.8228  12.8338  13.3980  13.4008  13.6835  13.6836
    14.2965  14.3040  14.4630  14.4638  14.6960  14.6961  19.7857  19.7857
    21.4576  21.4576  28.3309  28.3312  28.5957  28.5989  29.0515  29.0521
    35.0136  35.0234  35.3883  35.4089  38.1733  38.1941  42.1969  42.1971
    44.8500  44.8621  45.3712  45.3713  49.4060  49.4217  50.8641  50.8695
    52.2329  52.2331  53.8741  53.8752

          k = 0.0952-0.0476 0.0952 (  1501 PWs)   bands (ev):

     8.3369  10.6172  10.6172  11.1289  11.6229  11.7638  11.7639  12.2904
    12.4964  12.4965  12.6214  12.9353  13.0847  13.5381  13.5384  13.5408
    13.9018  14.4626  14.6112  14.6114  14.6284  16.3728  16.3728  18.9060
    21.1553  24.1290  24.1290  28.1134  28.1914  31.2076  31.2076  32.2233
    32.2234  34.0821  35.2774  36.9449  39.3507  39.3507  40.0885  43.1640
    43.7399  44.7419  46.4699  46.4699  49.2608  49.2608  50.3623  50.5927
    50.9146  51.7056  52.3810  52.8668

          k =-0.0952 0.0476 0.0952 (  1501 PWs)   bands (ev):

     8.3369  10.6172  10.6172  11.1289  11.6229  11.7638  11.7639  12.2904
    12.4964  12.4965  12.6214  12.9352  13.0847  13.5381  13.5384  13.5408
    13.9018  14.4626  14.6112  14.6114  14.6284  16.3728  16.3729  18.9060
    21.1552  24.1290  24.1290  28.1134  28.1914  31.2075  31.2076  32.2233
    32.2234  34.0822  35.2773  36.9450  39.3506  39.3506  40.0885  43.1640
    43.7400  44.7419  46.4698  46.4698  49.2607  49.2608  50.3623  50.5928
    50.9145  51.7057  52.3809  52.8669

          k = 0.0952-0.0476-0.1427 (  1510 PWs)   bands (ev):

     9.5555   9.5600  10.9796  10.9816  11.8833  11.8842  12.1198  12.1279
    12.4751  12.4788  12.6607  12.6681  13.2130  13.2149  13.3945  13.3958
    14.2189  14.2230  14.5177  14.5209  15.0682  15.0697  17.6058  17.6111
    22.1255  22.1294  25.8717  25.8743  29.5439  29.5473  33.1062  33.1065
    33.3310  33.3341  36.9171  36.9400  40.1305  40.1352  40.4779  40.4824
    45.1920  45.1936  45.6835  45.6952  47.6944  47.7012  50.6208  50.6300
    51.7409  51.7461  53.9864  53.9955

          k = 0.0952-0.0952 0.0952 (  1502 PWs)   bands (ev):

     9.0019  10.5690  10.5691  10.5691  12.0795  12.0796  12.0796  12.5575
    12.7753  12.7753  12.7755  12.9024  12.9024  13.1757  13.1757  13.1757
    14.3423  14.3423  14.7540  14.7541  14.7541  16.6243  16.6243  16.6243
    21.7574  21.7574  21.7575  25.3849  32.5563  32.5564  32.5564  35.3166
    35.3166  35.3167  37.2975  37.2976  37.2976  37.6299  40.0502  40.0502
    44.4678  44.4679  47.8020  48.0275  48.0276  48.0278  48.1553  48.1554
    48.1555  52.4949  52.4950  52.4950

          k = 0.0952-0.0952-0.1427 (  1510 PWs)   bands (ev):

     9.8261   9.8282  10.5288  10.5289  12.2721  12.2721  12.5831  12.5885
    12.8298  12.8366  12.9358  12.9364  12.9789  12.9789  13.0431  13.0432
    14.6553  14.6562  14.6832  14.6833  14.8810  14.8822  16.8134  16.8135
    20.8269  20.8270  23.2649  23.2677  33.4333  33.4333  34.7246  34.7246
    36.2261  36.2364  37.3281  37.3329  39.0791  39.0954  39.4253  39.4255
    44.6924  44.6925  44.8896  44.8979  46.0378  46.0404  48.5245  48.5245
    49.6723  49.6756  53.1025  53.1027

     the Fermi energy is    14.4987 ev

!    total energy              =    -343.63018991 Ry
     Harris-Foulkes estimate   =    -343.63018990 Ry
     estimated scf accuracy    <          3.1E-11 Ry

     The total energy is the sum of the following terms:

     one-electron contribution =      -6.33924042 Ry
     hartree contribution      =      60.33561226 Ry
     xc contribution           =    -120.51504828 Ry
     ewald contribution        =    -277.06307193 Ry
     Dispersion Correction     =      -0.04786520 Ry
     smearing contrib. (-TS)   =      -0.00057633 Ry

     total magnetization       =     2.84 Bohr mag/cell
     absolute magnetization    =     3.25 Bohr mag/cell

     convergence has been achieved in  11 iterations

     Forces acting on atoms (Ry/au):

     atom    1 type  1   force =    -0.00074955   -0.00074955    0.00074940
     atom    2 type  1   force =     0.00074969    0.00074969    0.00074969
     atom    3 type  1   force =    -0.00074955    0.00074940   -0.00074955
     atom    4 type  1   force =     0.00074940   -0.00074955   -0.00074955

     Total force =     0.002597     Total SCF correction =     0.000008


     entering subroutine stress ...

          total   stress  (Ry/bohr**3)                   (kbar)     P=    0.86
   0.00000585   0.00000002   0.00000002          0.86      0.00      0.00
   0.00000002   0.00000585   0.00000002          0.00      0.86      0.00
   0.00000002   0.00000002   0.00000585          0.00      0.00      0.86


     number of scf cycles    =   5
     number of bfgs steps    =   3

     enthalpy old            =    -343.6302088920 Ry
     enthalpy new            =    -343.6301899072 Ry

     CASE: enthalpy_new > enthalpy_old

     new trust radius        =       0.0003544061 bohr
     new conv_thr            =            1.0E-10 Ry

     new unit-cell volume =    289.99768 a.u.^3 (    42.97322 Ang^3 )

CELL_PARAMETERS (alat=  1.88972590)
   3.502671111  -0.000000135  -0.000000135
  -0.000000135   3.502671111  -0.000000135
  -0.000000135  -0.000000135   3.502671111

ATOMIC_POSITIONS (alat)
Ni1      1.756811953   1.756811953   0.002300323
Ni1      0.002297582   0.002297582   0.002297582
Ni1      1.756811953   0.002300323   1.756811953
Ni1      0.002300323   1.756811953   1.756811953



     Writing output data file Ni-ferromag.save
     NEW-OLD atomic charge density approx. for the potential

     Check: negative/imaginary core charge=   -0.000005    0.000000
     extrapolated charge   39.99769, renormalised to   40.00000

     total cpu time spent up to now is     1736.9 secs

     Self-consistent Calculation

     iteration #  1     ecut=    45.00 Ry     beta=0.20
     Davidson diagonalization with overlap
     ethr =  1.00E-06,  avg # of iterations =  2.0

     Threshold (ethr) on eigenvalues was too large:
     Diagonalizing with lowered threshold

     Davidson diagonalization with overlap
     ethr =  5.41E-09,  avg # of iterations =  1.0

     total cpu time spent up to now is     1795.2 secs

     total energy              =    -343.63016841 Ry
     Harris-Foulkes estimate   =    -343.63259958 Ry
     estimated scf accuracy    <       0.00000217 Ry

     total magnetization       =     2.83 Bohr mag/cell
     absolute magnetization    =     3.25 Bohr mag/cell

     iteration #  2     ecut=    45.00 Ry     beta=0.20
     Davidson diagonalization with overlap
     ethr =  5.43E-09,  avg # of iterations =  1.1

     total cpu time spent up to now is     1819.1 secs

     total energy              =    -343.63016950 Ry
     Harris-Foulkes estimate   =    -343.63016964 Ry
     estimated scf accuracy    <       0.00000098 Ry

     total magnetization       =     2.84 Bohr mag/cell
     absolute magnetization    =     3.25 Bohr mag/cell

     iteration #  3     ecut=    45.00 Ry     beta=0.20
     Davidson diagonalization with overlap
     ethr =  2.45E-09,  avg # of iterations =  1.0

     total cpu time spent up to now is     1843.0 secs

     total energy              =    -343.63016934 Ry
     Harris-Foulkes estimate   =    -343.63016952 Ry
     estimated scf accuracy    <       0.00000045 Ry

     total magnetization       =     2.84 Bohr mag/cell
     absolute magnetization    =     3.25 Bohr mag/cell

     iteration #  4     ecut=    45.00 Ry     beta=0.20
     Davidson diagonalization with overlap
     ethr =  1.11E-09,  avg # of iterations =  1.1

     total cpu time spent up to now is     1867.0 secs

     total energy              =    -343.63016938 Ry
     Harris-Foulkes estimate   =    -343.63016958 Ry
     estimated scf accuracy    <       0.00000049 Ry

     total magnetization       =     2.84 Bohr mag/cell
     absolute magnetization    =     3.25 Bohr mag/cell

     iteration #  5     ecut=    45.00 Ry     beta=0.20
     Davidson diagonalization with overlap
     ethr =  1.11E-09,  avg # of iterations =  1.0

     total cpu time spent up to now is     1890.8 secs

     total energy              =    -343.63016947 Ry
     Harris-Foulkes estimate   =    -343.63016947 Ry
     estimated scf accuracy    <          5.3E-09 Ry

     total magnetization       =     2.84 Bohr mag/cell
     absolute magnetization    =     3.25 Bohr mag/cell

     iteration #  6     ecut=    45.00 Ry     beta=0.20
     Davidson diagonalization with overlap
     ethr =  1.32E-11,  avg # of iterations =  1.8

     total cpu time spent up to now is     1915.5 secs

     total energy              =    -343.63016947 Ry
     Harris-Foulkes estimate   =    -343.63016947 Ry
     estimated scf accuracy    <       0.00000001 Ry

     total magnetization       =     2.84 Bohr mag/cell
     absolute magnetization    =     3.25 Bohr mag/cell

     iteration #  7     ecut=    45.00 Ry     beta=0.20
     Davidson diagonalization with overlap
     ethr =  1.32E-11,  avg # of iterations =  1.0

     total cpu time spent up to now is     1939.3 secs

     total energy              =    -343.63016947 Ry
     Harris-Foulkes estimate   =    -343.63016947 Ry
     estimated scf accuracy    <          6.0E-09 Ry

     total magnetization       =     2.84 Bohr mag/cell
     absolute magnetization    =     3.25 Bohr mag/cell

     iteration #  8     ecut=    45.00 Ry     beta=0.20
     Davidson diagonalization with overlap
     ethr =  1.32E-11,  avg # of iterations =  2.0

     total cpu time spent up to now is     1966.7 secs

     total energy              =    -343.63016947 Ry
     Harris-Foulkes estimate   =    -343.63016947 Ry
     estimated scf accuracy    <       0.00000002 Ry

     total magnetization       =     2.84 Bohr mag/cell
     absolute magnetization    =     3.25 Bohr mag/cell

     iteration #  9     ecut=    45.00 Ry     beta=0.20
     Davidson diagonalization with overlap
     ethr =  1.32E-11,  avg # of iterations =  1.0

     total cpu time spent up to now is     1990.5 secs

     total energy              =    -343.63016947 Ry
     Harris-Foulkes estimate   =    -343.63016947 Ry
     estimated scf accuracy    <          3.7E-09 Ry

     total magnetization       =     2.84 Bohr mag/cell
     absolute magnetization    =     3.25 Bohr mag/cell

     iteration # 10     ecut=    45.00 Ry     beta=0.20
     Davidson diagonalization with overlap
     ethr =  9.22E-12,  avg # of iterations =  1.0

     total cpu time spent up to now is     2014.3 secs

     total energy              =    -343.63016947 Ry
     Harris-Foulkes estimate   =    -343.63016947 Ry
     estimated scf accuracy    <          3.3E-09 Ry

     total magnetization       =     2.84 Bohr mag/cell
     absolute magnetization    =     3.25 Bohr mag/cell

     iteration # 11     ecut=    45.00 Ry     beta=0.20
     Davidson diagonalization with overlap
     ethr =  8.17E-12,  avg # of iterations =  1.0

     Magnetic moment per site:
     atom:    1    charge:    3.0042    magn:    0.3347    constr:    0.0000
     atom:    2    charge:    3.0024    magn:    0.3346    constr:    0.0000
     atom:    3    charge:    3.0042    magn:    0.3347    constr:    0.0000
     atom:    4    charge:    3.0042    magn:    0.3347    constr:    0.0000

     total cpu time spent up to now is     2038.1 secs

     End of self-consistent calculation

 ------ SPIN UP ------------


          k = 0.0000 0.0000 0.0000 (  1503 PWs)   bands (ev):

     5.4352   9.7194   9.7194   9.7194  10.1728  10.1729  10.1729  11.9529
    11.9529  11.9529  13.1322  13.1322  13.8504  13.8504  13.8504  13.9405
    13.9405  13.9405  13.9405  13.9405  13.9405  17.0791  17.0791  17.0791
    23.8206  23.8206  23.8206  29.5786  29.5786  29.5786  29.5786  29.5786
    29.5787  34.6589  34.6589  34.6589  38.0053  38.0054  38.0054  38.5060
    42.4852  42.4852  42.4852  46.0874  46.0874  46.0874  48.1873  55.1867
    55.1867  55.1867  57.6279  59.0443

          k = 0.0000 0.0000 0.0476 (  1478 PWs)   bands (ev):

     5.8015   9.7416   9.9037   9.9037  10.2834  10.2992  10.2993  11.8241
    12.0553  12.0553  13.0141  13.1788  13.2862  13.2862  13.6968  13.6968
    13.7645  13.7645  13.8009  13.9408  13.9408  15.4781  18.0382  18.0383
    23.9164  23.9165  26.0700  27.8267  27.8268  28.4551  28.4552  30.1391
    30.1391  34.7750  36.8318  36.8318  37.8710  38.1372  39.9625  39.9626
    40.2644  40.2644  40.9292  47.5068  48.1427  48.1427  49.1659  51.5737
    56.2836  56.2836  56.6894  56.6895

          k = 0.0000 0.0000 0.0952 (  1510 PWs)   bands (ev):

     6.8511   9.5124  10.3408  10.3408  10.5912  10.6825  10.6827  11.4798
    12.2296  12.2297  12.3520  12.3520  12.7262  13.3076  13.3136  13.3156
    13.3156  13.3281  13.3281  13.6667  13.9413  13.9413  20.0014  20.0014
    24.2335  24.2335  25.0527  25.0527  26.6872  26.6872  30.3703  31.7189
    31.7189  35.1380  36.7392  37.0426  37.0426  38.3607  38.6894  40.8764
    40.8764  44.1278  44.1278  44.1618  50.9422  51.0622  51.0623  51.0657
    51.0657  55.0517  55.9550  55.9551

          k =-0.0000-0.0000-0.1427 (  1510 PWs)   bands (ev):

     8.3461   8.3552  10.6170  10.6170  11.0196  11.0329  11.3230  11.3231
    11.3363  11.3363  12.5397  12.5584  12.7993  12.7993  12.8093  12.8093
    13.0698  13.0698  13.4821  13.4894  13.9416  13.9416  22.3761  22.3762
    22.3993  22.3993  24.6061  24.6062  25.7422  25.7422  34.0895  34.0895
    34.1058  34.1058  34.9032  34.9373  35.7812  35.7893  40.2568  40.3114
    45.6545  45.6546  45.7021  45.7021  47.6341  47.6342  52.3071  52.3072
    54.1683  54.1683  54.2122  54.2122

          k = 0.0000 0.0476 0.0476 (  1490 PWs)   bands (ev):

     6.1592   9.9400   9.9400  10.0669  10.4008  10.4009  10.4147  11.7641
    12.1003  12.1173  12.9398  12.9857  12.9982  13.0021  13.1742  13.5682
    13.6928  13.6928  13.7632  13.7632  13.8247  16.4107  16.4107  18.8083
    23.9103  25.1093  26.2573  26.2573  28.3045  28.3045  28.9477  28.9478
    30.6670  36.0482  36.1308  37.0402  37.0403  37.3452  40.1306  40.1306
    41.2834  42.6187  43.5448  45.2458  46.3801  49.8057  50.4703  53.1130
    53.6842  55.3657  55.3659  56.3194

          k = 0.0000 0.0476 0.0952 (  1511 PWs)   bands (ev):

     7.1810   9.7486  10.4222  10.4708  10.6827  10.7360  10.7551  11.4829
    11.9910  12.1306  12.2462  12.3637  12.3893  12.8226  13.2442  13.3203
    13.3319  13.3535  13.5058  13.7597  13.7661  14.4437  18.0256  20.5917
    22.0902  24.6191  25.5142  26.5434  27.4124  29.6185  29.9118  29.9679
    31.0272  33.7359  34.4791  37.6924  38.6452  40.4026  40.5814  40.7626
    41.1322  44.0549  45.0491  47.0739  47.7998  48.6039  49.9090  51.3504
    52.9557  53.2759  54.8362  56.2180

          k =-0.0000 0.0476-0.1427 (  1500 PWs)   bands (ev):

     8.6280   8.6365  10.7694  10.7699  11.0715  11.0843  11.1920  11.2028
    11.3377  11.3506  12.1685  12.1823  12.8000  12.8102  13.0322  13.0367
    13.0546  13.0552  13.6693  13.6694  13.7565  13.7585  19.8887  19.9004
    22.8767  22.8975  25.4146  25.4305  28.3179  28.3232  31.5053  31.5122
    32.0297  32.0345  35.8216  35.8608  38.8398  38.8428  42.2114  42.2451
    43.1222  43.1348  45.9319  45.9769  50.0788  50.1189  50.3604  50.3793
    52.6209  52.6359  53.2136  53.2257

          k = 0.0000 0.0952 0.0952 (  1506 PWs)   bands (ev):

     8.1077  10.3363  10.3363  10.7023  10.9508  10.9510  10.9646  11.4131
    11.6602  11.6602  11.8149  12.1335  12.4945  12.7363  13.0282  13.1831
    13.1832  13.3237  13.3237  13.4938  13.7091  15.6900  15.6900  19.3090
    22.1187  25.1698  26.7872  26.7872  27.9072  27.9073  30.9965  31.6514
    31.6526  31.7493  33.6163  36.8508  41.5401  41.8940  41.8941  43.0902
    43.4249  43.7862  43.7862  47.2056  47.3464  48.4913  48.4914  51.6909
    52.1933  52.2056  53.2187  55.3659

          k =-0.0000 0.0952-0.1427 (  1514 PWs)   bands (ev):

     9.3714   9.3784  10.8032  10.8114  11.1979  11.2071  11.2147  11.2166
    11.3569  11.3689  11.8649  11.8739  12.8369  12.8415  12.8421  12.8473
    12.9085  12.9102  13.3555  13.3617  14.3700  14.3717  17.2172  17.2264
    24.2355  24.2512  26.2312  26.2441  28.6599  28.6674  29.5485  29.5501
    32.9598  32.9632  36.7846  36.8229  40.3743  40.3819  43.0597  43.0670
    43.2293  43.2328  46.7365  46.7731  47.9298  47.9519  50.4331  50.4535
    51.7633  51.7960  53.5744  53.5830

          k =-0.0000-0.1427-0.1427 (  1516 PWs)   bands (ev):

    10.2222  10.2282  10.2282  10.2341  11.3133  11.3247  11.3247  11.3361
    11.6308  11.6340  11.6340  11.6373  12.6944  12.6956  12.6956  12.6968
    13.0007  13.0102  13.0102  13.0196  15.4372  15.4415  15.4415  15.4458
    26.2072  26.2180  26.2181  26.2288  27.5821  27.5899  27.5899  27.5979
    37.8960  37.9066  37.9066  37.9174  38.4999  38.5128  38.5128  38.5249
    47.1920  47.1920  47.1921  47.1924  49.1858  49.2064  49.2064  49.2270
    51.8350  51.8367  51.8368  51.8384

          k = 0.0476 0.0476 0.0476 (  1490 PWs)   bands (ev):

     6.5050  10.1010  10.1010  10.1010  10.5153  10.5154  10.5154  11.7292
    12.1370  12.1370  12.6941  12.6941  12.6941  13.0873  13.0873  13.3347
    13.3347  13.3347  13.8788  13.8788  13.8789  17.0381  17.0381  17.0381
    25.3356  25.3357  25.3357  26.6027  26.6027  26.6027  31.1824  31.1825
    31.1825  33.4943  36.1795  36.1795  36.1795  39.2638  41.1522  41.1522
    42.8260  42.8261  42.8261  46.6063  47.6632  47.6632  51.6625  51.6625
    55.1247  55.2444  55.2446  55.2446

          k = 0.0476 0.0476 0.0952 (  1514 PWs)   bands (ev):

     7.4867   9.9073  10.4842  10.4843  10.8011  10.8293  10.8293  11.5196
    11.9813  11.9813  12.1760  12.2171  12.2766  12.9322  13.0026  13.0886
    13.0890  13.3271  13.7815  13.7815  13.8138  14.8056  18.3808  18.3808
    22.7163  22.7164  26.6297  27.2538  27.2539  30.3696  30.3696  30.7566
    30.9591  32.6626  36.6584  37.7880  37.8640  38.8038  38.8038  42.3747
    43.5182  44.4842  47.0361  47.0361  47.8988  49.0982  50.2160  50.2160
    50.7120  53.0323  53.0938  55.6773

          k = 0.0476 0.0476-0.1427 (  1518 PWs)   bands (ev):

     8.8555   8.8630  10.8716  10.8718  10.9296  10.9297  11.1672  11.1793
    11.5873  11.5873  12.0729  12.0864  12.5475  12.5521  12.9208  12.9209
    13.4919  13.5015  13.6023  13.6043  13.7255  13.7255  19.5296  19.5297
    21.1551  21.1551  28.2172  28.2179  28.4545  28.4595  28.9386  28.9397
    34.9442  34.9578  35.4136  35.4405  38.0944  38.1226  42.2177  42.2177
    44.7639  44.7791  45.3843  45.3844  49.4849  49.5061  50.9111  50.9185
    52.2021  52.2021  53.6960  53.6976

          k = 0.0476 0.0952 0.0952 (  1501 PWs)   bands (ev):

     8.3256  10.2251  10.2252  10.5114  11.1167  11.1628  11.1629  11.5647
    11.7773  11.7773  11.9105  12.1356  12.2614  12.7399  12.7400  12.7564
    13.0595  13.6147  13.6837  13.6993  13.6997  15.8207  15.8207  18.6325
    20.8128  23.9135  23.9135  27.9528  28.0657  31.1455  31.1455  32.1326
    32.1327  34.0293  35.2536  36.9216  39.3378  39.3378  40.1666  43.0527
    43.7503  44.7982  46.4781  46.4781  49.2083  49.2084  50.4330  50.6116
    50.9405  51.6357  52.3177  52.9422

          k = 0.0476 0.0952-0.1427 (  1510 PWs)   bands (ev):

     9.4067   9.4114  10.4458  10.4472  11.3301  11.3305  11.4739  11.4837
    11.7821  11.7862  11.9006  11.9096  12.4091  12.4125  12.6206  12.6227
    13.3549  13.3587  13.5826  13.5865  14.2764  14.2778  17.1949  17.2024
    21.8258  21.8316  25.6725  25.6766  29.4450  29.4486  33.0506  33.0521
    33.2638  33.2671  36.9017  36.9331  40.1471  40.1540  40.4568  40.4624
    45.2064  45.2090  45.6922  45.7074  47.7151  47.7232  50.5832  50.5958
    51.8028  51.8101  53.9039  53.9179

          k = 0.0476-0.1427-0.1427 (  1492 PWs)   bands (ev):

     9.9765   9.9785   9.9785   9.9803  11.7185  11.7217  11.7217  11.7247
    11.8024  11.8091  11.8091  11.8159  12.3790  12.3822  12.3822  12.3855
    13.3335  13.3394  13.3394  13.3454  15.3476  15.3523  15.3523  15.3570
    23.4584  23.4628  23.4628  23.4673  30.9833  30.9847  30.9847  30.9862
    38.1778  38.1865  38.1865  38.1966  38.3449  38.3568  38.3568  38.3668
    46.6692  46.6694  46.6694  46.6708  46.7629  46.7746  46.7746  46.7852
    54.8193  54.8279  54.8279  54.8377

          k = 0.0952 0.0952 0.0952 (  1502 PWs)   bands (ev):

     8.8695  10.0601  10.0602  10.0602  11.5214  11.5215  11.5215  12.0356
    12.0948  12.0948  12.0972  12.1043  12.1043  12.3856  12.3856  12.3857
    13.4625  13.4625  13.8276  13.8276  13.8276  16.1989  16.1989  16.1989
    21.4203  21.4203  21.4203  25.1611  32.5117  32.5117  32.5117  35.2570
    35.2571  35.2571  37.2867  37.2867  37.2868  37.8025  39.9662  39.9662
    44.4607  44.4607  47.7890  48.0813  48.0813  48.0816  48.1562  48.1563
    48.1563  52.4661  52.4663  52.4663

          k = 0.0952 0.0952-0.1427 (  1510 PWs)   bands (ev):

     9.4950   9.4962   9.9915   9.9916  11.6414  11.6415  11.9245  11.9319
    12.1445  12.1455  12.2643  12.2655  12.2767  12.2844  12.3801  12.3802
    13.7475  13.7483  13.7558  13.7561  14.1667  14.1671  16.4830  16.4830
    20.3913  20.3914  22.9762  22.9805  33.4272  33.4272  34.6405  34.6406
    36.3350  36.3481  37.2566  37.2636  38.9979  39.0202  39.4527  39.4527
    44.6681  44.6682  44.9130  44.9242  46.0315  46.0345  48.5669  48.5669
    49.6205  49.6252  52.9957  52.9960

          k = 0.0952-0.1427-0.1427 (  1496 PWs)   bands (ev):

     9.6711   9.6712   9.6712   9.6712  11.8857  11.8877  11.8877  11.8895
    12.0754  12.0775  12.0775  12.0796  12.8230  12.8272  12.8272  12.8315
    13.6727  13.6760  13.6760  13.6792  14.9698  14.9752  14.9752  14.9806
    21.1013  21.1049  21.1049  21.1085  35.1652  35.1670  35.1671  35.1689
    38.2262  38.2319  38.2319  38.2378  38.9485  38.9545  38.9545  38.9600
    44.1049  44.1101  44.1101  44.1152  45.1717  45.1730  45.1730  45.1743
    50.4354  50.4376  50.4376  50.4401

          k =-0.1427-0.1427-0.1427 (  1472 PWs)   bands (ev):

     9.5551   9.5552   9.5552   9.5552  11.9659  11.9659  11.9659  11.9659
    11.9659  11.9660  11.9660  11.9660  13.8033  13.8033  13.8033  13.8035
    13.8035  13.8035  13.8035  13.8035  14.2991  14.2993  14.2993  14.2993
    20.2237  20.2237  20.2238  20.2238  36.9608  36.9610  36.9610  36.9610
    39.5907  39.5907  39.5907  39.5907  39.5907  39.5909  39.5909  39.5909
    42.8188  42.8188  42.8188  42.8188  42.8188  42.8189  42.8189  42.8189
    48.7916  48.7916  48.7916  48.7917

          k =-0.0476-0.0000 0.0476 (  1490 PWs)   bands (ev):

     6.1592   9.9400   9.9400  10.0669  10.4008  10.4009  10.4147  11.7641
    12.1003  12.1173  12.9398  12.9857  12.9982  13.0021  13.1742  13.5682
    13.6928  13.6928  13.7632  13.7632  13.8247  16.4107  16.4107  18.8083
    23.9103  25.1093  26.2572  26.2573  28.3045  28.3045  28.9477  28.9478
    30.6670  36.0482  36.1308  37.0402  37.0403  37.3452  40.1305  40.1307
    41.2834  42.6187  43.5448  45.2458  46.3802  49.8057  50.4703  53.1130
    53.6842  55.3657  55.3659  56.3194

          k =-0.0476 0.0000 0.0952 (  1511 PWs)   bands (ev):

     7.1810   9.7486  10.4222  10.4708  10.6827  10.7360  10.7551  11.4829
    11.9910  12.1306  12.2462  12.3637  12.3893  12.8226  13.2442  13.3203
    13.3319  13.3535  13.5058  13.7597  13.7661  14.4437  18.0256  20.5917
    22.0902  24.6191  25.5142  26.5434  27.4124  29.6185  29.9118  29.9679
    31.0272  33.7359  34.4791  37.6924  38.6452  40.4026  40.5814  40.7626
    41.1322  44.0549  45.0491  47.0739  47.7998  48.6039  49.9090  51.3504
    52.9557  53.2759  54.8362  56.2180

          k =-0.0952-0.0000 0.0952 (  1506 PWs)   bands (ev):

     8.1077  10.3363  10.3363  10.7023  10.9508  10.9510  10.9646  11.4131
    11.6602  11.6602  11.8149  12.1335  12.4945  12.7363  13.0282  13.1831
    13.1832  13.3237  13.3237  13.4938  13.7091  15.6900  15.6901  19.3090
    22.1187  25.1698  26.7872  26.7872  27.9071  27.9073  30.9965  31.6514
    31.6526  31.7493  33.6163  36.8508  41.5401  41.8940  41.8940  43.0902
    43.4249  43.7862  43.7862  47.2056  47.3464  48.4913  48.4914  51.6908
    52.1933  52.2056  53.2187  55.3656

          k = 0.0476-0.0476 0.0476 (  1490 PWs)   bands (ev):

     6.5050  10.1010  10.1010  10.1010  10.5153  10.5154  10.5154  11.7292
    12.1370  12.1370  12.6941  12.6941  12.6941  13.0873  13.0873  13.3347
    13.3347  13.3348  13.8788  13.8788  13.8789  17.0381  17.0381  17.0381
    25.3356  25.3356  25.3357  26.6026  26.6027  26.6027  31.1824  31.1825
    31.1825  33.4943  36.1794  36.1795  36.1796  39.2638  41.1522  41.1522
    42.8260  42.8261  42.8261  46.6063  47.6632  47.6632  51.6625  51.6625
    55.1247  55.2444  55.2446  55.2446

          k = 0.0476-0.0476 0.0952 (  1514 PWs)   bands (ev):

     7.4867   9.9073  10.4842  10.4843  10.8011  10.8293  10.8293  11.5196
    11.9813  11.9813  12.1760  12.2171  12.2766  12.9322  13.0026  13.0886
    13.0890  13.3271  13.7815  13.7815  13.8138  14.8056  18.3808  18.3808
    22.7163  22.7164  26.6297  27.2538  27.2539  30.3696  30.3696  30.7566
    30.9591  32.6626  36.6584  37.7880  37.8640  38.8038  38.8038  42.3747
    43.5182  44.4842  47.0361  47.0361  47.8988  49.0982  50.2160  50.2161
    50.7120  53.0323  53.0938  55.6773

          k =-0.0952 0.0476 0.0476 (  1514 PWs)   bands (ev):

     7.4867   9.9073  10.4842  10.4843  10.8011  10.8293  10.8293  11.5196
    11.9813  11.9813  12.1760  12.2171  12.2766  12.9322  13.0026  13.0886
    13.0890  13.3271  13.7815  13.7815  13.8138  14.8056  18.3808  18.3808
    22.7163  22.7163  26.6297  27.2538  27.2539  30.3696  30.3696  30.7566
    30.9591  32.6626  36.6584  37.7880  37.8640  38.8038  38.8038  42.3747
    43.5182  44.4842  47.0361  47.0361  47.8988  49.0982  50.2160  50.2160
    50.7120  53.0323  53.0938  55.6773

          k = 0.0476-0.0476-0.1427 (  1518 PWs)   bands (ev):

     8.8555   8.8630  10.8715  10.8718  10.9296  10.9296  11.1672  11.1793
    11.5873  11.5873  12.0729  12.0864  12.5475  12.5521  12.9208  12.9209
    13.4919  13.5015  13.6023  13.6043  13.7255  13.7255  19.5296  19.5297
    21.1551  21.1551  28.2172  28.2179  28.4545  28.4595  28.9386  28.9397
    34.9442  34.9578  35.4136  35.4405  38.0944  38.1226  42.2177  42.2177
    44.7639  44.7791  45.3843  45.3844  49.4849  49.5061  50.9111  50.9185
    52.2021  52.2021  53.6961  53.6976

          k = 0.0952-0.0476 0.0952 (  1501 PWs)   bands (ev):

     8.3256  10.2251  10.2252  10.5114  11.1167  11.1628  11.1629  11.5647
    11.7773  11.7773  11.9105  12.1356  12.2614  12.7399  12.7400  12.7564
    13.0595  13.6147  13.6837  13.6993  13.6997  15.8207  15.8207  18.6325
    20.8128  23.9135  23.9135  27.9528  28.0657  31.1455  31.1455  32.1326
    32.1327  34.0293  35.2537  36.9216  39.3378  39.3379  40.1666  43.0527
    43.7503  44.7982  46.4781  46.4781  49.2083  49.2084  50.4330  50.6116
    50.9405  51.6357  52.3177  52.9421

          k =-0.0952 0.0476 0.0952 (  1501 PWs)   bands (ev):

     8.3256  10.2251  10.2252  10.5114  11.1167  11.1628  11.1629  11.5647
    11.7773  11.7773  11.9105  12.1356  12.2614  12.7399  12.7400  12.7564
    13.0595  13.6147  13.6837  13.6993  13.6997  15.8207  15.8207  18.6325
    20.8128  23.9135  23.9135  27.9528  28.0657  31.1455  31.1455  32.1326
    32.1327  34.0293  35.2536  36.9216  39.3378  39.3379  40.1666  43.0527
    43.7503  44.7982  46.4781  46.4781  49.2083  49.2084  50.4330  50.6116
    50.9405  51.6357  52.3177  52.9421

          k = 0.0952-0.0476-0.1427 (  1510 PWs)   bands (ev):

     9.4067   9.4114  10.4458  10.4472  11.3301  11.3305  11.4739  11.4837
    11.7821  11.7862  11.9006  11.9096  12.4091  12.4125  12.6206  12.6227
    13.3549  13.3587  13.5826  13.5865  14.2764  14.2778  17.1949  17.2024
    21.8258  21.8316  25.6725  25.6766  29.4450  29.4486  33.0506  33.0521
    33.2638  33.2671  36.9017  36.9331  40.1471  40.1540  40.4568  40.4624
    45.2064  45.2090  45.6922  45.7074  47.7151  47.7232  50.5832  50.5958
    51.8028  51.8101  53.9039  53.9179

          k = 0.0952-0.0952 0.0952 (  1502 PWs)   bands (ev):

     8.8695  10.0601  10.0602  10.0602  11.5214  11.5215  11.5215  12.0356
    12.0948  12.0948  12.0972  12.1043  12.1043  12.3856  12.3856  12.3857
    13.4625  13.4625  13.8276  13.8276  13.8276  16.1989  16.1989  16.1989
    21.4203  21.4203  21.4203  25.1611  32.5117  32.5117  32.5118  35.2570
    35.2571  35.2571  37.2867  37.2867  37.2868  37.8025  39.9662  39.9662
    44.4607  44.4607  47.7890  48.0813  48.0813  48.0816  48.1562  48.1563
    48.1563  52.4662  52.4663  52.4663

          k = 0.0952-0.0952-0.1427 (  1510 PWs)   bands (ev):

     9.4950   9.4962   9.9915   9.9916  11.6414  11.6415  11.9245  11.9319
    12.1445  12.1455  12.2643  12.2655  12.2767  12.2844  12.3801  12.3802
    13.7475  13.7483  13.7558  13.7561  14.1667  14.1671  16.4830  16.4830
    20.3914  20.3914  22.9762  22.9805  33.4272  33.4272  34.6405  34.6406
    36.3350  36.3481  37.2566  37.2636  38.9979  39.0202  39.4527  39.4527
    44.6681  44.6682  44.9130  44.9242  46.0315  46.0345  48.5669  48.5669
    49.6205  49.6252  52.9957  52.9960

 ------ SPIN DOWN ----------


          k = 0.0000 0.0000 0.0000 (  1503 PWs)   bands (ev):

     5.3807  10.1814  10.1814  10.1814  10.8909  10.8911  10.8911  12.8332
    12.8332  12.8332  13.9122  13.9122  14.6645  14.6646  14.6646  14.9499
    14.9499  14.9499  14.9499  14.9499  14.9499  17.0004  17.0004  17.0004
    24.1263  24.1263  24.1263  29.5649  29.5649  29.5649  29.5650  29.5650
    29.5650  34.8231  34.8231  34.8232  38.1488  38.1490  38.1490  38.3005
    42.4559  42.4559  42.4559  46.1598  46.1598  46.1598  48.0279  55.3759
    55.3759  55.3759  58.1511  59.5631

          k = 0.0000 0.0000 0.0476 (  1478 PWs)   bands (ev):

     5.7469  10.1571  10.3757  10.3757  11.0104  11.0148  11.0149  12.6911
    12.9397  12.9397  13.7845  13.9610  14.1061  14.1062  14.4974  14.4974
    14.6126  14.7572  14.7572  14.9502  14.9502  15.5483  18.1451  18.1452
    24.2070  24.2070  26.2720  27.8954  27.8954  28.4825  28.4825  30.1418
    30.1418  34.9266  36.9128  36.9128  37.7323  38.2784  40.0829  40.0830
    40.3064  40.3064  40.8593  47.5273  48.1165  48.1165  49.2374  51.5650
    56.4951  56.4951  56.6160  56.6161

          k = 0.0000 0.0000 0.0952 (  1510 PWs)   bands (ev):

     6.8008   9.7206  10.8373  10.8373  11.3436  11.3928  11.3929  12.3127
    12.9588  12.9590  13.2496  13.2496  13.4635  13.6843  14.0851  14.0852
    14.0957  14.2821  14.2821  14.4718  14.9508  14.9508  20.1866  20.1866
    24.4797  24.4797  25.1935  25.1935  26.7854  26.7854  30.4659  31.7559
    31.7560  35.2520  36.7045  37.1140  37.1140  38.2705  38.8355  40.8818
    40.8819  44.2272  44.2273  44.3801  50.8978  50.9674  50.9674  50.9923
    50.9923  54.9475  56.1967  56.1968

          k =-0.0000-0.0000-0.1427 (  1510 PWs)   bands (ev):

     8.3395   8.3489  11.1291  11.1292  11.8095  11.8237  12.0321  12.0322
    12.0456  12.0457  13.1867  13.2072  13.7204  13.7204  13.7308  13.7308
    13.8164  13.8164  14.2784  14.2861  14.9511  14.9511  22.5576  22.5576
    22.5812  22.5813  24.8029  24.8029  25.8996  25.8996  34.1547  34.1547
    34.1709  34.1709  34.8829  34.9180  35.8318  35.8415  40.4485  40.5040
    45.6096  45.6096  45.6583  45.6583  47.7081  47.7083  52.4967  52.4967
    54.0581  54.0581  54.1020  54.1020

          k = 0.0000 0.0476 0.0476 (  1490 PWs)   bands (ev):

     6.1056  10.3681  10.3681  10.5578  11.1143  11.1247  11.1249  12.6175
    12.9901  12.9945  13.7047  13.7417  13.7462  13.7626  13.9613  14.3589
    14.4850  14.4850  14.7560  14.7560  14.8268  16.7253  16.7253  18.9741
    24.1690  25.2391  26.4460  26.4460  28.3875  28.3875  28.9888  28.9890
    30.6781  36.1223  36.1525  37.1108  37.1109  37.3627  40.2485  40.2485
    41.2027  42.7062  43.5138  45.1895  46.4408  49.9646  50.3958  53.2852
    53.6506  55.3279  55.3281  56.2598

          k = 0.0000 0.0476 0.0952 (  1511 PWs)   bands (ev):

     7.1355   9.9712  10.8845  11.0028  11.3979  11.4305  11.4720  12.3049
    12.6823  12.8514  13.0445  13.0864  13.2658  13.5870  14.0092  14.0944
    14.1647  14.2512  14.2805  14.7530  14.7625  15.1528  18.3642  20.7958
    22.2887  24.8472  25.6659  26.6783  27.5377  29.7270  29.9738  30.0383
    31.1247  33.8140  34.5215  37.7344  38.6832  40.3543  40.5291  40.8825
    41.1318  44.1371  45.2537  47.1404  47.7223  48.5864  49.8932  51.2757
    52.9114  53.1854  55.0565  56.4714

          k =-0.0000 0.0476-0.1427 (  1500 PWs)   bands (ev):

     8.6334   8.6423  11.2723  11.2734  11.8523  11.8657  11.8708  11.8815
    12.0495  12.0628  12.9084  12.9243  13.7237  13.7343  13.8010  13.8032
    13.8063  13.8082  14.5077  14.5082  14.7505  14.7527  20.1702  20.1821
    23.0698  23.0908  25.5856  25.6026  28.4345  28.4407  31.6197  31.6259
    32.0880  32.0921  35.8468  35.8860  38.8415  38.8437  42.3636  42.3985
    43.1146  43.1285  45.8835  45.9295  50.1447  50.1841  50.2928  50.3119
    52.5371  52.5527  53.3820  53.3940

          k = 0.0000 0.0952 0.0952 (  1506 PWs)   bands (ev):

     8.0856  10.6095  10.6096  11.3665  11.4488  11.6864  11.6867  12.2070
    12.3534  12.3534  12.5271  12.9247  13.4098  13.4832  13.7817  13.9205
    13.9206  14.2845  14.2845  14.4745  14.5514  16.2953  16.2953  19.6167
    22.3380  25.3682  26.9541  26.9541  28.0084  28.0085  31.1275  31.7401
    31.7415  31.8171  33.6688  36.8866  41.4767  41.8759  41.8760  43.1249
    43.3076  43.8286  43.8287  47.3270  47.3757  48.5362  48.5364  51.7505
    52.0826  52.1482  53.4225  55.2680

          k =-0.0000 0.0952-0.1427 (  1514 PWs)   bands (ev):

     9.4325   9.4401  11.2229  11.2310  11.8521  11.8529  11.9620  11.9747
    12.0773  12.0898  12.6012  12.6113  13.5761  13.5763  13.6489  13.6505
    13.7712  13.7821  14.3238  14.3304  15.1759  15.1779  17.6815  17.6905
    24.4409  24.4563  26.3825  26.3965  28.8226  28.8293  29.6383  29.6405
    33.0311  33.0355  36.8123  36.8507  40.3737  40.3804  43.0058  43.0126
    43.2479  43.2510  46.6745  46.7117  48.0116  48.0348  50.3802  50.4012
    51.8843  51.9169  53.4894  53.4975

          k =-0.0000-0.1427-0.1427 (  1516 PWs)   bands (ev):

    10.4409  10.4476  10.4476  10.4543  12.0503  12.0625  12.0625  12.0747
    12.2995  12.3033  12.3033  12.3071  13.4320  13.4333  13.4333  13.4346
    13.9493  13.9592  13.9592  13.9691  16.1197  16.1234  16.1234  16.1270
    26.4030  26.4131  26.4132  26.4233  27.7049  27.7135  27.7136  27.7224
    37.9705  37.9807  37.9807  37.9914  38.4668  38.4790  38.4790  38.4902
    47.0717  47.0721  47.0722  47.0731  49.1745  49.1957  49.1957  49.2168
    51.9352  51.9380  51.9380  51.9407

          k = 0.0476 0.0476 0.0476 (  1490 PWs)   bands (ev):

     6.4543  10.5560  10.5561  10.5561  11.2159  11.2161  11.2161  12.5625
    13.0151  13.0151  13.4047  13.4047  13.4047  13.8736  13.8736  14.1657
    14.1658  14.1658  14.8272  14.8272  14.8272  17.3792  17.3792  17.3792
    25.4672  25.4672  25.4672  26.7760  26.7760  26.7761  31.2043  31.2045
    31.2045  33.5609  36.2745  36.2745  36.2745  39.1085  41.2048  41.2048
    42.9102  42.9103  42.9103  46.5190  47.6204  47.6204  51.8292  51.8292
    55.1977  55.1979  55.1979  55.4628

          k = 0.0476 0.0476 0.0952 (  1514 PWs)   bands (ev):

     7.4517  10.1700  11.0158  11.0158  11.4576  11.4577  11.5135  12.3152
    12.6836  12.6837  12.8490  13.0470  13.1369  13.7784  13.8124  13.8755
    13.8760  14.1495  14.7150  14.7448  14.7449  15.4359  18.7077  18.7078
    22.9266  22.9266  26.7740  27.4029  27.4030  30.4445  30.4446  30.8707
    31.0466  32.7091  36.7330  37.6939  37.9412  38.8341  38.8342  42.3822
    43.5986  44.5017  47.0803  47.0803  47.9409  49.0440  50.2050  50.2050
    50.7191  52.9618  53.0540  55.7922

          k = 0.0476 0.0476-0.1427 (  1518 PWs)   bands (ev):

     8.8898   8.8980  11.4435  11.4436  11.5110  11.5112  11.9175  11.9306
    12.3012  12.3013  12.8218  12.8368  13.3985  13.4023  13.6845  13.6845
    14.2963  14.3065  14.4640  14.4650  14.6972  14.6972  19.7870  19.7871
    21.4591  21.4591  28.3322  28.3329  28.5967  28.6011  29.0533  29.0545
    35.0137  35.0271  35.3864  35.4143  38.1716  38.2000  42.1991  42.1991
    44.8503  44.8668  45.3734  45.3735  49.4055  49.4267  50.8654  50.8728
    52.2356  52.2356  53.8752  53.8777

          k = 0.0476 0.0952 0.0952 (  1501 PWs)   bands (ev):

     8.3377  10.6180  10.6180  11.1297  11.6238  11.7646  11.7647  12.2913
    12.4973  12.4974  12.6224  12.9363  13.0856  13.5389  13.5393  13.5420
    13.9029  14.4637  14.6121  14.6125  14.6297  16.3740  16.3741  18.9073
    21.1567  24.1305  24.1305  28.1138  28.1944  31.2093  31.2093  32.2252
    32.2253  34.0841  35.2792  36.9469  39.3526  39.3527  40.0904  43.1664
    43.7421  44.7440  46.4721  46.4721  49.2632  49.2632  50.3647  50.5953
    50.9169  51.7084  52.3834  52.8693

          k = 0.0476 0.0952-0.1427 (  1510 PWs)   bands (ev):

     9.5555   9.5616  10.9801  10.9828  11.8839  11.8852  12.1192  12.1303
    12.4753  12.4804  12.6604  12.6703  13.2136  13.2162  13.3952  13.3970
    14.2193  14.2248  14.5182  14.5226  15.0691  15.0711  17.6061  17.6133
    22.1263  22.1316  25.8729  25.8764  29.5451  29.5497  33.1079  33.1084
    33.3324  33.3366  36.9150  36.9460  40.1317  40.1380  40.4792  40.4853
    45.1939  45.1960  45.6836  45.6996  47.6955  47.7047  50.6216  50.6341
    51.7425  51.7495  53.9851  54.0132

          k = 0.0476-0.1427-0.1427 (  1492 PWs)   bands (ev):

    10.3317  10.3354  10.3354  10.3391  12.2866  12.2920  12.2920  12.2973
    12.5056  12.5122  12.5122  12.5188  13.1565  13.1593  13.1593  13.1623
    14.2445  14.2514  14.2514  14.2583  15.9940  15.9979  15.9980  16.0019
    23.7169  23.7206  23.7206  23.7244  31.0652  31.0675  31.0675  31.0698
    38.2505  38.2567  38.2567  38.2687  38.2965  38.3099  38.3099  38.3170
    46.6014  46.6014  46.6015  46.6023  46.7878  46.8001  46.8001  46.8117
    54.8831  54.8922  54.8923  55.1054

          k = 0.0952 0.0952 0.0952 (  1502 PWs)   bands (ev):

     9.0027  10.5698  10.5699  10.5699  12.0803  12.0804  12.0804  12.5584
    12.7762  12.7762  12.7765  12.9034  12.9034  13.1766  13.1766  13.1767
    14.3434  14.3434  14.7552  14.7552  14.7552  16.6254  16.6255  16.6255
    21.7589  21.7589  21.7590  25.3865  32.5582  32.5582  32.5582  35.3185
    35.3186  35.3186  37.2995  37.2995  37.2995  37.6316  40.0524  40.0524
    44.4701  44.4701  47.8042  48.0298  48.0298  48.0302  48.1577  48.1578
    48.1578  52.4975  52.4976  52.4976

          k = 0.0952 0.0952-0.1427 (  1510 PWs)   bands (ev):

     9.8265   9.8294  10.5296  10.5296  12.2729  12.2730  12.5830  12.5903
    12.8296  12.8388  12.9367  12.9374  12.9799  12.9799  13.0441  13.0441
    14.6562  14.6574  14.6842  14.6844  14.8819  14.8835  16.8146  16.8147
    20.8284  20.8284  23.2660  23.2697  33.4351  33.4351  34.7266  34.7267
    36.2260  36.2399  37.3293  37.3358  39.0784  39.1004  39.4274  39.4274
    44.6946  44.6947  44.8903  44.9015  46.0396  46.0432  48.5268  48.5268
    49.6741  49.6787  53.1049  53.1052

          k = 0.0952-0.1427-0.1427 (  1496 PWs)   bands (ev):

    10.1411  10.1419  10.1419  10.1426  12.6186  12.6205  12.6205  12.6223
    12.8513  12.8532  12.8532  12.8553  13.2625  13.2674  13.2674  13.2724
    14.5904  14.5941  14.5941  14.5978  15.5024  15.5068  15.5068  15.5112
    21.4946  21.4976  21.4977  21.5007  35.1383  35.1411  35.1412  35.1440
    38.1960  38.2012  38.2012  38.2065  39.0181  39.0237  39.0237  39.0289
    44.1364  44.1422  44.1422  44.1479  45.1641  45.1657  45.1658  45.1674
    50.5259  50.5282  50.5282  50.5307

          k =-0.1427-0.1427-0.1427 (  1472 PWs)   bands (ev):

    10.0564  10.0565  10.0565  10.0566  12.7387  12.7387  12.7387  12.7388
    12.7388  12.7388  12.7389  12.7389  14.1997  14.1998  14.1998  14.2000
    14.7269  14.7269  14.7269  14.7269  14.7269  14.7270  14.7270  14.7270
    20.7060  20.7060  20.7060  20.7061  36.7768  36.7771  36.7771  36.7771
    39.6609  39.6609  39.6609  39.6609  39.6609  39.6611  39.6611  39.6611
    42.8492  42.8492  42.8492  42.8492  42.8492  42.8493  42.8493  42.8493
    48.9057  48.9057  48.9057  48.9058

          k =-0.0476-0.0000 0.0476 (  1490 PWs)   bands (ev):

     6.1056  10.3681  10.3681  10.5578  11.1143  11.1247  11.1249  12.6175
    12.9901  12.9945  13.7047  13.7417  13.7462  13.7626  13.9613  14.3589
    14.4850  14.4850  14.7560  14.7560  14.8268  16.7253  16.7253  18.9741
    24.1690  25.2391  26.4460  26.4461  28.3874  28.3875  28.9888  28.9890
    30.6781  36.1223  36.1525  37.1109  37.1109  37.3627  40.2484  40.2486
    41.2027  42.7062  43.5138  45.1895  46.4408  49.9646  50.3958  53.2852
    53.6506  55.3279  55.3281  56.2598

          k =-0.0476 0.0000 0.0952 (  1511 PWs)   bands (ev):

     7.1355   9.9712  10.8845  11.0028  11.3979  11.4305  11.4720  12.3049
    12.6823  12.8514  13.0445  13.0864  13.2658  13.5870  14.0092  14.0944
    14.1647  14.2512  14.2805  14.7530  14.7625  15.1528  18.3642  20.7958
    22.2887  24.8472  25.6659  26.6783  27.5377  29.7270  29.9738  30.0383
    31.1247  33.8140  34.5215  37.7344  38.6832  40.3543  40.5291  40.8825
    41.1318  44.1371  45.2537  47.1404  47.7223  48.5864  49.8932  51.2757
    52.9114  53.1854  55.0565  56.4714

          k =-0.0952-0.0000 0.0952 (  1506 PWs)   bands (ev):

     8.0856  10.6095  10.6096  11.3665  11.4488  11.6864  11.6867  12.2070
    12.3534  12.3534  12.5271  12.9247  13.4098  13.4832  13.7817  13.9205
    13.9206  14.2845  14.2845  14.4745  14.5514  16.2953  16.2953  19.6167
    22.3380  25.3682  26.9541  26.9542  28.0084  28.0085  31.1275  31.7401
    31.7415  31.8171  33.6688  36.8866  41.4767  41.8759  41.8760  43.1249
    43.3076  43.8286  43.8287  47.3270  47.3757  48.5362  48.5364  51.7505
    52.0826  52.1482  53.4225  55.2689

          k = 0.0476-0.0476 0.0476 (  1490 PWs)   bands (ev):

     6.4543  10.5560  10.5560  10.5561  11.2159  11.2161  11.2161  12.5625
    13.0151  13.0151  13.4047  13.4047  13.4047  13.8736  13.8736  14.1657
    14.1658  14.1658  14.8272  14.8272  14.8272  17.3792  17.3792  17.3792
    25.4672  25.4672  25.4672  26.7760  26.7760  26.7761  31.2044  31.2044
    31.2045  33.5609  36.2744  36.2745  36.2745  39.1085  41.2048  41.2048
    42.9101  42.9102  42.9103  46.5190  47.6204  47.6204  51.8292  51.8292
    55.1977  55.1979  55.1979  55.4628

          k = 0.0476-0.0476 0.0952 (  1514 PWs)   bands (ev):

     7.4517  10.1700  11.0158  11.0158  11.4576  11.4577  11.5135  12.3152
    12.6836  12.6837  12.8490  13.0470  13.1369  13.7784  13.8124  13.8755
    13.8760  14.1495  14.7150  14.7448  14.7449  15.4359  18.7077  18.7077
    22.9266  22.9266  26.7740  27.4029  27.4029  30.4445  30.4446  30.8707
    31.0466  32.7091  36.7330  37.6939  37.9412  38.8341  38.8342  42.3822
    43.5986  44.5017  47.0803  47.0804  47.9409  49.0440  50.2050  50.2050
    50.7191  52.9618  53.0540  55.7922

          k =-0.0952 0.0476 0.0476 (  1514 PWs)   bands (ev):

     7.4517  10.1700  11.0158  11.0158  11.4576  11.4577  11.5135  12.3152
    12.6836  12.6837  12.8490  13.0470  13.1369  13.7784  13.8124  13.8755
    13.8760  14.1495  14.7150  14.7448  14.7449  15.4359  18.7077  18.7078
    22.9266  22.9266  26.7740  27.4029  27.4030  30.4445  30.4446  30.8707
    31.0466  32.7091  36.7330  37.6939  37.9412  38.8341  38.8342  42.3823
    43.5986  44.5017  47.0803  47.0803  47.9409  49.0440  50.2050  50.2050
    50.7191  52.9618  53.0540  55.7922

          k = 0.0476-0.0476-0.1427 (  1518 PWs)   bands (ev):

     8.8898   8.8980  11.4436  11.4436  11.5109  11.5112  11.9175  11.9306
    12.3012  12.3013  12.8218  12.8368  13.3985  13.4023  13.6845  13.6846
    14.2963  14.3065  14.4640  14.4650  14.6972  14.6972  19.7871  19.7871
    21.4591  21.4591  28.3322  28.3328  28.5967  28.6012  29.0533  29.0545
    35.0137  35.0271  35.3864  35.4143  38.1716  38.2000  42.1990  42.1991
    44.8503  44.8668  45.3734  45.3734  49.4055  49.4267  50.8654  50.8728
    52.2356  52.2357  53.8752  53.8777

          k = 0.0952-0.0476 0.0952 (  1501 PWs)   bands (ev):

     8.3377  10.6180  10.6180  11.1297  11.6238  11.7646  11.7647  12.2913
    12.4973  12.4974  12.6224  12.9363  13.0856  13.5389  13.5393  13.5420
    13.9029  14.4637  14.6121  14.6125  14.6297  16.3740  16.3741  18.9073
    21.1567  24.1305  24.1305  28.1138  28.1944  31.2093  31.2093  32.2252
    32.2253  34.0841  35.2792  36.9469  39.3526  39.3527  40.0904  43.1664
    43.7421  44.7440  46.4721  46.4721  49.2631  49.2632  50.3647  50.5953
    50.9169  51.7084  52.3834  52.8692

          k =-0.0952 0.0476 0.0952 (  1501 PWs)   bands (ev):

     8.3377  10.6180  10.6180  11.1297  11.6238  11.7646  11.7647  12.2913
    12.4973  12.4974  12.6224  12.9363  13.0856  13.5389  13.5393  13.5420
    13.9029  14.4637  14.6121  14.6125  14.6297  16.3741  16.3741  18.9073
    21.1567  24.1305  24.1306  28.1138  28.1944  31.2093  31.2094  32.2252
    32.2253  34.0841  35.2792  36.9469  39.3526  39.3527  40.0904  43.1664
    43.7421  44.7440  46.4721  46.4721  49.2631  49.2632  50.3647  50.5953
    50.9169  51.7084  52.3834  52.8693

          k = 0.0952-0.0476-0.1427 (  1510 PWs)   bands (ev):

     9.5555   9.5616  10.9801  10.9828  11.8839  11.8852  12.1192  12.1303
    12.4753  12.4804  12.6604  12.6703  13.2136  13.2162  13.3952  13.3970
    14.2193  14.2248  14.5182  14.5226  15.0691  15.0711  17.6061  17.6133
    22.1263  22.1316  25.8729  25.8764  29.5451  29.5496  33.1079  33.1084
    33.3324  33.3366  36.9150  36.9460  40.1317  40.1380  40.4792  40.4853
    45.1939  45.1960  45.6836  45.6996  47.6955  47.7047  50.6216  50.6341
    51.7425  51.7495  53.9850  53.9976

          k = 0.0952-0.0952 0.0952 (  1502 PWs)   bands (ev):

     9.0027  10.5698  10.5699  10.5699  12.0803  12.0804  12.0804  12.5584
    12.7762  12.7762  12.7765  12.9034  12.9034  13.1766  13.1766  13.1767
    14.3434  14.3434  14.7551  14.7552  14.7552  16.6255  16.6255  16.6255
    21.7589  21.7589  21.7590  25.3865  32.5581  32.5582  32.5583  35.3186
    35.3186  35.3186  37.2994  37.2995  37.2996  37.6316  40.0524  40.0524
    44.4701  44.4701  47.8042  48.0298  48.0298  48.0302  48.1577  48.1578
    48.1578  52.4975  52.4976  52.4976

          k = 0.0952-0.0952-0.1427 (  1510 PWs)   bands (ev):

     9.8265   9.8294  10.5296  10.5297  12.2729  12.2730  12.5830  12.5903
    12.8296  12.8388  12.9367  12.9374  12.9799  12.9799  13.0441  13.0441
    14.6562  14.6574  14.6842  14.6844  14.8819  14.8835  16.8147  16.8147
    20.8284  20.8284  23.2660  23.2697  33.4350  33.4351  34.7266  34.7267
    36.2260  36.2399  37.3293  37.3358  39.0784  39.1004  39.4274  39.4275
    44.6947  44.6947  44.8903  44.9015  46.0396  46.0432  48.5268  48.5268
    49.6741  49.6787  53.1049  53.1053

     the Fermi energy is    14.4999 ev

!    total energy              =    -343.63016947 Ry
     Harris-Foulkes estimate   =    -343.63016947 Ry
     estimated scf accuracy    <          1.7E-12 Ry

     The total energy is the sum of the following terms:

     one-electron contribution =      -6.33230584 Ry
     hartree contribution      =      60.33358833 Ry
     xc contribution           =    -120.51517904 Ry
     ewald contribution        =    -277.06782646 Ry
     Dispersion Correction     =      -0.04786916 Ry
     smearing contrib. (-TS)   =      -0.00057730 Ry

     total magnetization       =     2.84 Bohr mag/cell
     absolute magnetization    =     3.25 Bohr mag/cell

     convergence has been achieved in  11 iterations

     Forces acting on atoms (Ry/au):

     atom    1 type  1   force =    -0.00101956   -0.00101956    0.00101942
     atom    2 type  1   force =     0.00101970    0.00101970    0.00101970
     atom    3 type  1   force =    -0.00101956    0.00101942   -0.00101956
     atom    4 type  1   force =     0.00101942   -0.00101956   -0.00101956

     Total force =     0.003532     Total SCF correction =     0.000003


     entering subroutine stress ...

          total   stress  (Ry/bohr**3)                   (kbar)     P=    0.93
   0.00000635   0.00000001   0.00000001          0.93      0.00      0.00
   0.00000001   0.00000635   0.00000001          0.00      0.93      0.00
   0.00000001   0.00000001   0.00000635          0.00      0.00      0.93


     number of scf cycles    =   6
     number of bfgs steps    =   3

     enthalpy old            =    -343.6302088920 Ry
     enthalpy new            =    -343.6301694715 Ry

     CASE: enthalpy_new > enthalpy_old

     new trust radius        =       0.0000113731 bohr

     trust_radius < trust_radius_min

     resetting bfgs history

     new conv_thr            =            1.0E-10 Ry

     new unit-cell volume =    290.13216 a.u.^3 (    42.99315 Ang^3 )

CELL_PARAMETERS (alat=  1.88972590)
   3.503212444  -0.000004424  -0.000004424
  -0.000004424   3.503212444  -0.000004424
  -0.000004424  -0.000004424   3.503212444

ATOMIC_POSITIONS (alat)
Ni1      1.756612746   1.756612746   0.002764876
Ni1      0.002766562   0.002766562   0.002766562
Ni1      1.756612746   0.002764876   1.756612746
Ni1      0.002764876   1.756612746   1.756612746



     Writing output data file Ni-ferromag.save
     NEW-OLD atomic charge density approx. for the potential

     Check: negative/imaginary core charge=   -0.000005    0.000000
     extrapolated charge   40.01854, renormalised to   40.00000

     total cpu time spent up to now is     2066.3 secs

     Self-consistent Calculation

     iteration #  1     ecut=    45.00 Ry     beta=0.20
     Davidson diagonalization with overlap
     ethr =  1.00E-06,  avg # of iterations =  2.2

     total cpu time spent up to now is     2103.7 secs

     total energy              =    -343.63012464 Ry
     Harris-Foulkes estimate   =    -343.61071489 Ry
     estimated scf accuracy    <       0.00011060 Ry

     total magnetization       =     2.84 Bohr mag/cell
     absolute magnetization    =     3.26 Bohr mag/cell

     iteration #  2     ecut=    45.00 Ry     beta=0.20
     Davidson diagonalization with overlap
     ethr =  2.76E-07,  avg # of iterations =  1.5

     total cpu time spent up to now is     2128.6 secs

     total energy              =    -343.63019508 Ry
     Harris-Foulkes estimate   =    -343.63020354 Ry
     estimated scf accuracy    <       0.00004413 Ry

     total magnetization       =     2.83 Bohr mag/cell
     absolute magnetization    =     3.25 Bohr mag/cell

     iteration #  3     ecut=    45.00 Ry     beta=0.20
     Davidson diagonalization with overlap
     ethr =  1.10E-07,  avg # of iterations =  1.0

     total cpu time spent up to now is     2152.8 secs

     total energy              =    -343.63018564 Ry
     Harris-Foulkes estimate   =    -343.63019652 Ry
     estimated scf accuracy    <       0.00001528 Ry

     total magnetization       =     2.83 Bohr mag/cell
     absolute magnetization    =     3.25 Bohr mag/cell

     iteration #  4     ecut=    45.00 Ry     beta=0.20
     Davidson diagonalization with overlap
     ethr =  3.82E-08,  avg # of iterations =  2.0

     total cpu time spent up to now is     2178.6 secs

     total energy              =    -343.63019518 Ry
     Harris-Foulkes estimate   =    -343.63019752 Ry
     estimated scf accuracy    <       0.00001913 Ry

     total magnetization       =     2.84 Bohr mag/cell
     absolute magnetization    =     3.25 Bohr mag/cell

     iteration #  5     ecut=    45.00 Ry     beta=0.20
     Davidson diagonalization with overlap
     ethr =  3.82E-08,  avg # of iterations =  1.0

     total cpu time spent up to now is     2202.8 secs

     total energy              =    -343.63019387 Ry
     Harris-Foulkes estimate   =    -343.63019542 Ry
     estimated scf accuracy    <       0.00001063 Ry

     total magnetization       =     2.84 Bohr mag/cell
     absolute magnetization    =     3.25 Bohr mag/cell

     iteration #  6     ecut=    45.00 Ry     beta=0.20
     Davidson diagonalization with overlap
     ethr =  2.66E-08,  avg # of iterations =  1.0

     total cpu time spent up to now is     2227.1 secs

     total energy              =    -343.63019187 Ry
     Harris-Foulkes estimate   =    -343.63019405 Ry
     estimated scf accuracy    <       0.00000508 Ry

     total magnetization       =     2.84 Bohr mag/cell
     absolute magnetization    =     3.25 Bohr mag/cell

     iteration #  7     ecut=    45.00 Ry     beta=0.20
     Davidson diagonalization with overlap
     ethr =  1.27E-08,  avg # of iterations =  1.0

     total cpu time spent up to now is     2251.3 secs

     total energy              =    -343.63019280 Ry
     Harris-Foulkes estimate   =    -343.63019280 Ry
     estimated scf accuracy    <          2.9E-09 Ry

     total magnetization       =     2.84 Bohr mag/cell
     absolute magnetization    =     3.25 Bohr mag/cell

     iteration #  8     ecut=    45.00 Ry     beta=0.20
     Davidson diagonalization with overlap
     ethr =  7.24E-12,  avg # of iterations =  2.4

     total cpu time spent up to now is     2281.9 secs

     total energy              =    -343.63019285 Ry
     Harris-Foulkes estimate   =    -343.63019283 Ry
     estimated scf accuracy    <       0.00000013 Ry

     total magnetization       =     2.84 Bohr mag/cell
     absolute magnetization    =     3.25 Bohr mag/cell

     iteration #  9     ecut=    45.00 Ry     beta=0.20
     Davidson diagonalization with overlap
     ethr =  7.24E-12,  avg # of iterations =  1.0

     total cpu time spent up to now is     2306.3 secs

     total energy              =    -343.63019286 Ry
     Harris-Foulkes estimate   =    -343.63019285 Ry
     estimated scf accuracy    <       0.00000019 Ry

     total magnetization       =     2.84 Bohr mag/cell
     absolute magnetization    =     3.25 Bohr mag/cell

     iteration # 10     ecut=    45.00 Ry     beta=0.20
     Davidson diagonalization with overlap
     ethr =  7.24E-12,  avg # of iterations =  1.0

     total cpu time spent up to now is     2330.5 secs

     total energy              =    -343.63019276 Ry
     Harris-Foulkes estimate   =    -343.63019286 Ry
     estimated scf accuracy    <       0.00000023 Ry

     total magnetization       =     2.84 Bohr mag/cell
     absolute magnetization    =     3.25 Bohr mag/cell

     iteration # 11     ecut=    45.00 Ry     beta=0.20
     Davidson diagonalization with overlap
     ethr =  7.24E-12,  avg # of iterations =  2.6

     Magnetic moment per site:
     atom:    1    charge:    3.0055    magn:    0.3350    constr:    0.0000
     atom:    2    charge:    3.0037    magn:    0.3348    constr:    0.0000
     atom:    3    charge:    3.0055    magn:    0.3350    constr:    0.0000
     atom:    4    charge:    3.0055    magn:    0.3350    constr:    0.0000

     total cpu time spent up to now is     2361.5 secs

     End of self-consistent calculation

 ------ SPIN UP ------------


          k = 0.0000 0.0000 0.0000 (  1503 PWs)   bands (ev):

     5.4296   9.7133   9.7133   9.7133  10.1664  10.1664  10.1664  11.9451
    11.9451  11.9451  13.1236  13.1236  13.8413  13.8413  13.8413  13.9313
    13.9313  13.9313  13.9313  13.9313  13.9313  17.0698  17.0699  17.0699
    23.8075  23.8075  23.8075  29.5652  29.5652  29.5652  29.5653  29.5653
    29.5653  34.6437  34.6437  34.6437  37.9874  37.9875  37.9875  38.4930
    42.4684  42.4684  42.4686  46.0683  46.0683  46.0684  48.1706  55.1634
    55.1634  55.1635  57.6180  59.0349

          k = 0.0000 0.0000 0.0476 (  1478 PWs)   bands (ev):

     5.7957   9.7354   9.8974   9.8975  10.2768  10.2927  10.2927  11.8164
    12.0474  12.0474  13.0057  13.1703  13.2775  13.2775  13.6879  13.6879
    13.7554  13.7554  13.7918  13.9316  13.9316  15.4690  18.0284  18.0284
    23.9034  23.9034  26.0568  27.8137  27.8137  28.4417  28.4417  30.1254
    30.1255  34.7599  36.8163  36.8164  37.8575  38.1193  39.9446  39.9446
    40.2472  40.2473  40.9135  47.4879  48.1244  48.1245  49.1451  51.5549
    56.2594  56.2594  56.6699  56.6700

          k = 0.0000 0.0000 0.0952 (  1510 PWs)   bands (ev):

     6.8450   9.5060  10.3343  10.3344  10.5845  10.6758  10.6758  11.4724
    12.2217  12.2218  12.3440  12.3440  12.7180  13.2989  13.3050  13.3081
    13.3081  13.3182  13.3182  13.6577  13.9321  13.9321  19.9906  19.9907
    24.2207  24.2208  25.0403  25.0403  26.6736  26.6736  30.3565  31.7046
    31.7047  35.1231  36.7250  37.0263  37.0264  38.3464  38.6711  40.8601
    40.8602  44.1087  44.1088  44.1408  50.9231  51.0444  51.0445  51.0473
    51.0473  55.0322  55.9371  55.9372

          k =-0.0000-0.0000-0.1427 (  1510 PWs)   bands (ev):

     8.3410   8.3474  10.6104  10.6104  11.0146  11.0240  11.3177  11.3177
    11.3270  11.3270  12.5343  12.5475  12.7925  12.7925  12.7995  12.7995
    13.0611  13.0612  13.4743  13.4795  13.9324  13.9324  22.3679  22.3680
    22.3842  22.3843  24.5941  24.5941  25.7280  25.7280  34.0766  34.0768
    34.0881  34.0882  34.8943  34.9183  35.7678  35.7734  40.2453  40.2838
    45.6443  45.6443  45.6778  45.6778  47.6142  47.6143  52.2874  52.2875
    54.1565  54.1566  54.1874  54.1875

          k = 0.0000 0.0476 0.0476 (  1490 PWs)   bands (ev):

     6.1533   9.9337   9.9337  10.0606  10.3942  10.3942  10.4081  11.7565
    12.0924  12.1095  12.9314  12.9789  12.9898  12.9920  13.1656  13.5593
    13.6838  13.6838  13.7541  13.7541  13.8156  16.4010  16.4010  18.7981
    23.8977  25.0964  26.2441  26.2441  28.2913  28.2913  28.9339  28.9340
    30.6531  36.0325  36.1163  37.0247  37.0248  37.3296  40.1124  40.1124
    41.2678  42.6004  43.5277  45.2287  46.3611  49.7838  50.4523  53.0905
    53.6661  55.3465  55.3466  56.3000

          k = 0.0000 0.0476 0.0952 (  1511 PWs)   bands (ev):

     7.1748   9.7421  10.4157  10.4642  10.6759  10.7291  10.7482  11.4755
    11.9832  12.1228  12.2383  12.3556  12.3812  12.8142  13.2356  13.3127
    13.3222  13.3447  13.4970  13.7507  13.7569  14.4343  18.0151  20.5807
    22.0786  24.6059  25.5016  26.5308  27.3981  29.6047  29.8992  29.9531
    31.0124  33.7212  34.4641  37.6769  38.6291  40.3870  40.5658  40.7442
    41.1159  44.0361  45.0280  47.0547  47.7823  48.5853  49.8903  51.3319
    52.9368  53.2576  54.8155  56.2004

          k =-0.0000 0.0476-0.1427 (  1500 PWs)   bands (ev):

     8.6227   8.6287  10.7627  10.7631  11.0664  11.0755  11.1863  11.1939
    11.3323  11.3414  12.1627  12.1724  12.7932  12.8004  13.0245  13.0277
    13.0460  13.0464  13.6604  13.6604  13.7477  13.7491  19.8794  19.8876
    22.8680  22.8826  25.4039  25.4151  28.3048  28.3085  31.4920  31.4968
    32.0161  32.0195  35.8122  35.8399  38.8247  38.8268  42.1970  42.2207
    43.1070  43.1158  45.9213  45.9529  50.0643  50.0926  50.3450  50.3583
    52.6045  52.6151  53.1961  53.2046

          k = 0.0000 0.0952 0.0952 (  1506 PWs)   bands (ev):

     8.1013  10.3295  10.3295  10.6955  10.9439  10.9440  10.9577  11.4057
    11.6527  11.6527  11.8073  12.1256  12.4864  12.7280  13.0197  13.1747
    13.1747  13.3148  13.3149  13.4848  13.7001  15.6801  15.6801  19.2981
    22.1071  25.1565  26.7743  26.7743  27.8936  27.8937  30.9824  31.6374
    31.6380  31.7344  33.6011  36.8353  41.5243  41.8777  41.8777  43.0725
    43.4091  43.7680  43.7681  47.1851  47.3275  48.4721  48.4722  51.6707
    52.1744  52.1874  53.1984  55.3471

          k =-0.0000 0.0952-0.1427 (  1514 PWs)   bands (ev):

     9.3657   9.3707  10.7974  10.8032  11.1931  11.2002  11.2069  11.2076
    11.3513  11.3598  11.8585  11.8649  12.8303  12.8333  12.8337  12.8377
    12.9000  12.9013  13.3476  13.3519  14.3609  14.3621  17.2081  17.2146
    24.2255  24.2366  26.2199  26.2290  28.6473  28.6526  29.5348  29.5359
    32.9453  32.9478  36.7747  36.8017  40.3591  40.3644  43.0444  43.0496
    43.2122  43.2147  46.7245  46.7503  47.9132  47.9288  50.4176  50.4320
    51.7470  51.7701  53.5568  53.5629

          k =-0.0000-0.1427-0.1427 (  1516 PWs)   bands (ev):

    10.2171  10.2213  10.2213  10.2255  11.3094  11.3174  11.3174  11.3255
    11.6243  11.6266  11.6266  11.6289  12.6866  12.6874  12.6874  12.6883
    12.9949  13.0016  13.0016  13.0082  15.4286  15.4316  15.4316  15.4347
    26.1976  26.2052  26.2053  26.2129  27.5707  27.5762  27.5762  27.5818
    37.8826  37.8900  37.8901  37.8976  38.4883  38.4973  38.4974  38.5059
    47.1753  47.1753  47.1753  47.1756  49.1731  49.1876  49.1877  49.2022
    51.8136  51.8148  51.8149  51.8160

          k = 0.0476 0.0476 0.0476 (  1490 PWs)   bands (ev):

     6.4990  10.0946  10.0946  10.0946  10.5087  10.5087  10.5087  11.7216
    12.1291  12.1291  12.6859  12.6859  12.6859  13.0788  13.0788  13.3259
    13.3260  13.3260  13.8697  13.8697  13.8697  17.0281  17.0281  17.0281
    25.3232  25.3233  25.3233  26.5891  26.5891  26.5891  31.1683  31.1684
    31.1684  33.4798  36.1637  36.1637  36.1637  39.2499  41.1348  41.1348
    42.8077  42.8078  42.8078  46.5892  47.6454  47.6454  51.6395  51.6395
    55.1079  55.2248  55.2249  55.2249

          k = 0.0476 0.0476 0.0952 (  1514 PWs)   bands (ev):

     7.4804   9.9007  10.4776  10.4776  10.7943  10.8224  10.8224  11.5121
    11.9736  11.9736  12.1685  12.2088  12.2685  12.9238  12.9943  13.0801
    13.0803  13.3184  13.7724  13.7724  13.8047  14.7961  18.3702  18.3702
    22.7043  22.7043  26.6167  27.2404  27.2405  30.3553  30.3554  30.7426
    30.9450  32.6479  36.6426  37.7739  37.8474  38.7876  38.7876  42.3575
    43.4998  44.4661  47.0172  47.0172  47.8793  49.0801  50.1972  50.1972
    50.6926  53.0137  53.0744  55.6538

          k = 0.0476 0.0476-0.1427 (  1518 PWs)   bands (ev):

     8.8500   8.8554  10.8647  10.8648  10.9227  10.9228  11.1618  11.1703
    11.5798  11.5798  12.0670  12.0766  12.5400  12.5433  12.9125  12.9125
    13.4845  13.4912  13.5936  13.5951  13.7164  13.7164  19.5190  19.5190
    21.1431  21.1431  28.2045  28.2049  28.4418  28.4452  28.9241  28.9246
    34.9306  34.9402  35.4035  35.4225  38.0818  38.1017  42.2010  42.2011
    44.7471  44.7578  45.3667  45.3667  49.4701  49.4850  50.8934  50.8986
    52.1813  52.1813  53.6777  53.6786

          k = 0.0476 0.0952 0.0952 (  1501 PWs)   bands (ev):

     8.3192  10.2185  10.2185  10.5046  11.1098  11.1557  11.1558  11.5572
    11.7697  11.7697  11.9029  12.1276  12.2535  12.7317  12.7317  12.7481
    13.0509  13.6058  13.6749  13.6903  13.6905  15.8109  15.8109  18.6221
    20.8008  23.9010  23.9010  27.9403  28.0513  31.1318  31.1318  32.1175
    32.1175  34.0141  35.2387  36.9062  39.3216  39.3216  40.1513  43.0337
    43.7330  44.7812  46.4599  46.4599  49.1889  49.1889  50.4144  50.5924
    50.9211  51.6145  52.2980  52.9232

          k = 0.0476 0.0952-0.1427 (  1510 PWs)   bands (ev):

     9.4008   9.4041  10.4392  10.4402  11.3231  11.3234  11.4679  11.4748
    11.7751  11.7780  11.8942  11.9005  12.4016  12.4039  12.6127  12.6142
    13.3467  13.3494  13.5743  13.5770  14.2673  14.2683  17.1858  17.1911
    21.8145  21.8186  25.6601  25.6630  29.4317  29.4343  33.0363  33.0374
    33.2492  33.2515  36.8909  36.9130  40.1320  40.1369  40.4408  40.4448
    45.1891  45.1909  45.6766  45.6872  47.6978  47.7035  50.5653  50.5741
    51.7849  51.7901  53.8886  53.8984

          k = 0.0476-0.1427-0.1427 (  1492 PWs)   bands (ev):

     9.9704   9.9718   9.9718   9.9731  11.7120  11.7142  11.7142  11.7164
    11.7968  11.8015  11.8015  11.8062  12.3719  12.3742  12.3742  12.3765
    13.3264  13.3306  13.3306  13.3348  15.3392  15.3426  15.3426  15.3459
    23.4472  23.4503  23.4503  23.4535  30.9696  30.9706  30.9706  30.9717
    38.1639  38.1702  38.1702  38.1772  38.3331  38.3412  38.3413  38.3485
    46.6521  46.6523  46.6523  46.6532  46.7475  46.7556  46.7557  46.7632
    54.8001  54.8062  54.8062  54.8130

          k = 0.0952 0.0952 0.0952 (  1502 PWs)   bands (ev):

     8.8631  10.0535  10.0535  10.0535  11.5142  11.5143  11.5143  12.0280
    12.0879  12.0879  12.0892  12.0956  12.0956  12.3776  12.3776  12.3776
    13.4537  13.4537  13.8185  13.8185  13.8185  16.1892  16.1892  16.1892
    21.4081  21.4081  21.4082  25.1482  32.4976  32.4976  32.4976  35.2413
    35.2414  35.2414  37.2712  37.2712  37.2712  37.7893  39.9487  39.9487
    44.4429  44.4429  47.7703  48.0634  48.0634  48.0635  48.1375  48.1375
    48.1375  52.4455  52.4456  52.4456

          k = 0.0952 0.0952-0.1427 (  1510 PWs)   bands (ev):

     9.4887   9.4896   9.9850   9.9850  11.6340  11.6340  11.9179  11.9231
    12.1368  12.1375  12.2570  12.2575  12.2697  12.2752  12.3722  12.3722
    13.7387  13.7392  13.7468  13.7469  14.1577  14.1580  16.4734  16.4735
    20.3791  20.3792  22.9644  22.9674  33.4133  33.4134  34.6246  34.6247
    36.3235  36.3328  37.2411  37.2461  38.9840  38.9997  39.4369  39.4369
    44.6501  44.6501  44.8972  44.9051  46.0136  46.0157  48.5486  48.5486
    49.6013  49.6046  52.9756  52.9757

          k = 0.0952-0.1427-0.1427 (  1496 PWs)   bands (ev):

     9.6647   9.6648   9.6648   9.6648  11.8786  11.8800  11.8800  11.8813
    12.0682  12.0697  12.0697  12.0712  12.8161  12.8191  12.8191  12.8221
    13.6647  13.6670  13.6670  13.6693  14.9622  14.9660  14.9660  14.9698
    21.0901  21.0926  21.0927  21.0952  35.1515  35.1528  35.1528  35.1541
    38.2125  38.2166  38.2166  38.2208  38.9332  38.9374  38.9375  38.9413
    44.0885  44.0921  44.0922  44.0957  45.1543  45.1552  45.1552  45.1561
    50.4159  50.4175  50.4175  50.4192

          k =-0.1427-0.1427-0.1427 (  1472 PWs)   bands (ev):

     9.5488   9.5488   9.5488   9.5488  11.9581  11.9581  11.9582  11.9582
    11.9582  11.9582  11.9582  11.9582  13.7943  13.7943  13.7943  13.7944
    13.7944  13.7944  13.7944  13.7944  14.2910  14.2912  14.2912  14.2912
    20.2115  20.2115  20.2115  20.2115  36.9481  36.9482  36.9483  36.9483
    39.5734  39.5734  39.5734  39.5735  39.5735  39.5735  39.5735  39.5736
    42.8013  42.8013  42.8014  42.8014  42.8014  42.8014  42.8014  42.8014
    48.7715  48.7715  48.7715  48.7715

          k =-0.0476 0.0000 0.0476 (  1490 PWs)   bands (ev):

     6.1533   9.9337   9.9337  10.0606  10.3942  10.3942  10.4081  11.7564
    12.0924  12.1094  12.9314  12.9789  12.9898  12.9920  13.1656  13.5593
    13.6838  13.6838  13.7541  13.7541  13.8156  16.4010  16.4010  18.7981
    23.8977  25.0963  26.2440  26.2441  28.2913  28.2913  28.9339  28.9340
    30.6532  36.0325  36.1162  37.0247  37.0248  37.3295  40.1123  40.1125
    41.2679  42.6003  43.5278  45.2288  46.3612  49.7839  50.4522  53.0905
    53.6660  55.3464  55.3465  56.3000

          k =-0.0476 0.0000 0.0952 (  1511 PWs)   bands (ev):

     7.1748   9.7421  10.4157  10.4642  10.6759  10.7291  10.7482  11.4755
    11.9832  12.1228  12.2383  12.3557  12.3812  12.8142  13.2356  13.3127
    13.3222  13.3447  13.4970  13.7507  13.7569  14.4344  18.0151  20.5807
    22.0785  24.6059  25.5016  26.5308  27.3981  29.6047  29.8992  29.9532
    31.0124  33.7212  34.4640  37.6769  38.6292  40.3871  40.5658  40.7442
    41.1159  44.0361  45.0281  47.0545  47.7824  48.5854  49.8902  51.3319
    52.9367  53.2575  54.8156  56.2004

          k =-0.0952 0.0000 0.0952 (  1506 PWs)   bands (ev):

     8.1012  10.3295  10.3295  10.6955  10.9439  10.9440  10.9577  11.4057
    11.6527  11.6527  11.8073  12.1256  12.4864  12.7280  13.0197  13.1747
    13.1747  13.3148  13.3149  13.4848  13.7001  15.6801  15.6802  19.2980
    22.1071  25.1565  26.7743  26.7743  27.8936  27.8937  30.9823  31.6374
    31.6379  31.7343  33.6012  36.8354  41.5243  41.8776  41.8776  43.0725
    43.4092  43.7679  43.7680  47.1852  47.3277  48.4720  48.4721  51.6705
    52.1744  52.1875  53.1985  55.3467

          k = 0.0476-0.0476 0.0476 (  1490 PWs)   bands (ev):

     6.4990  10.0946  10.0946  10.0946  10.5087  10.5087  10.5087  11.7216
    12.1291  12.1291  12.6859  12.6859  12.6859  13.0788  13.0788  13.3259
    13.3260  13.3260  13.8697  13.8697  13.8697  17.0281  17.0281  17.0281
    25.3232  25.3232  25.3233  26.5890  26.5891  26.5891  31.1683  31.1684
    31.1685  33.4797  36.1637  36.1638  36.1638  39.2499  41.1348  41.1350
    42.8076  42.8076  42.8077  46.5892  47.6454  47.6455  51.6395  51.6396
    55.1079  55.2248  55.2249  55.2249

          k = 0.0476-0.0476 0.0952 (  1514 PWs)   bands (ev):

     7.4804   9.9007  10.4776  10.4776  10.7943  10.8224  10.8224  11.5121
    11.9736  11.9736  12.1685  12.2087  12.2685  12.9238  12.9943  13.0801
    13.0803  13.3184  13.7724  13.7724  13.8047  14.7961  18.3702  18.3702
    22.7042  22.7043  26.6167  27.2404  27.2404  30.3553  30.3554  30.7424
    30.9450  32.6480  36.6427  37.7739  37.8475  38.7876  38.7878  42.3575
    43.4996  44.4662  47.0170  47.0171  47.8793  49.0802  50.1971  50.1972
    50.6926  53.0136  53.0744  55.6539

          k =-0.0952 0.0476 0.0476 (  1514 PWs)   bands (ev):

     7.4804   9.9008  10.4776  10.4776  10.7943  10.8224  10.8224  11.5121
    11.9736  11.9736  12.1685  12.2088  12.2685  12.9238  12.9943  13.0801
    13.0803  13.3184  13.7724  13.7724  13.8047  14.7961  18.3702  18.3702
    22.7042  22.7042  26.6168  27.2404  27.2404  30.3554  30.3555  30.7424
    30.9449  32.6478  36.6426  37.7739  37.8474  38.7877  38.7877  42.3576
    43.4997  44.4663  47.0170  47.0170  47.8794  49.0801  50.1971  50.1971
    50.6926  53.0136  53.0743  55.6538

          k = 0.0476-0.0476-0.1427 (  1518 PWs)   bands (ev):

     8.8500   8.8554  10.8647  10.8648  10.9228  10.9228  11.1618  11.1703
    11.5798  11.5798  12.0670  12.0765  12.5400  12.5433  12.9125  12.9125
    13.4845  13.4912  13.5936  13.5951  13.7164  13.7164  19.5190  19.5190
    21.1431  21.1432  28.2045  28.2049  28.4417  28.4452  28.9241  28.9246
    34.9307  34.9403  35.4035  35.4225  38.0819  38.1018  42.2010  42.2011
    44.7470  44.7577  45.3666  45.3668  49.4701  49.4850  50.8935  50.8987
    52.1812  52.1814  53.6778  53.6785

          k = 0.0952-0.0476 0.0952 (  1501 PWs)   bands (ev):

     8.3192  10.2184  10.2185  10.5046  11.1098  11.1558  11.1558  11.5572
    11.7697  11.7697  11.9029  12.1277  12.2535  12.7317  12.7317  12.7481
    13.0509  13.6058  13.6749  13.6903  13.6905  15.8109  15.8109  18.6221
    20.8009  23.9009  23.9009  27.9402  28.0512  31.1318  31.1318  32.1175
    32.1175  34.0140  35.2389  36.9062  39.3218  39.3218  40.1513  43.0337
    43.7331  44.7812  46.4599  46.4599  49.1888  49.1888  50.4143  50.5923
    50.9212  51.6145  52.2980  52.9231

          k =-0.0952 0.0476 0.0952 (  1501 PWs)   bands (ev):

     8.3192  10.2185  10.2185  10.5046  11.1098  11.1558  11.1558  11.5572
    11.7697  11.7697  11.9029  12.1276  12.2535  12.7317  12.7317  12.7481
    13.0509  13.6058  13.6749  13.6903  13.6905  15.8109  15.8109  18.6221
    20.8008  23.9009  23.9010  27.9402  28.0512  31.1317  31.1318  32.1175
    32.1175  34.0141  35.2388  36.9063  39.3216  39.3217  40.1514  43.0338
    43.7331  44.7812  46.4598  46.4598  49.1888  49.1888  50.4144  50.5924
    50.9211  51.6146  52.2978  52.9230

          k = 0.0952-0.0476-0.1427 (  1510 PWs)   bands (ev):

     9.4008   9.4040  10.4392  10.4402  11.3231  11.3233  11.4679  11.4748
    11.7751  11.7781  11.8942  11.9005  12.4016  12.4039  12.6127  12.6142
    13.3467  13.3494  13.5743  13.5770  14.2673  14.2683  17.1858  17.1911
    21.8145  21.8186  25.6601  25.6630  29.4317  29.4342  33.0364  33.0374
    33.2492  33.2515  36.8909  36.9130  40.1320  40.1369  40.4409  40.4449
    45.1891  45.1909  45.6766  45.6873  47.6978  47.7035  50.5652  50.5741
    51.7848  51.7900  53.8886  53.8983

          k = 0.0952-0.0952 0.0952 (  1502 PWs)   bands (ev):

     8.8630  10.0535  10.0535  10.0536  11.5142  11.5142  11.5143  12.0280
    12.0879  12.0879  12.0892  12.0956  12.0956  12.3776  12.3776  12.3777
    13.4537  13.4537  13.8185  13.8185  13.8185  16.1892  16.1892  16.1892
    21.4081  21.4081  21.4082  25.1481  32.4975  32.4975  32.4975  35.2413
    35.2414  35.2415  37.2711  37.2712  37.2713  37.7893  39.9487  39.9488
    44.4429  44.4430  47.7703  48.0632  48.0633  48.0635  48.1374  48.1375
    48.1375  52.4453  52.4454  52.4454

          k = 0.0952-0.0952-0.1427 (  1510 PWs)   bands (ev):

     9.4887   9.4896   9.9850   9.9850  11.6340  11.6340  11.9179  11.9231
    12.1368  12.1375  12.2570  12.2575  12.2697  12.2752  12.3722  12.3723
    13.7387  13.7392  13.7468  13.7470  14.1577  14.1580  16.4734  16.4735
    20.3791  20.3792  22.9643  22.9674  33.4133  33.4134  34.6246  34.6246
    36.3236  36.3328  37.2412  37.2462  38.9840  38.9997  39.4368  39.4370
    44.6500  44.6502  44.8972  44.9051  46.0137  46.0158  48.5485  48.5485
    49.6013  49.6046  52.9755  52.9756

 ------ SPIN DOWN ----------


          k = 0.0000 0.0000 0.0000 (  1503 PWs)   bands (ev):

     5.3750  10.1755  10.1755  10.1755  10.8847  10.8848  10.8848  12.8257
    12.8257  12.8257  13.9040  13.9040  14.6557  14.6557  14.6557  14.9409
    14.9409  14.9409  14.9409  14.9409  14.9410  16.9911  16.9911  16.9911
    24.1132  24.1132  24.1132  29.5514  29.5515  29.5515  29.5516  29.5516
    29.5517  34.8079  34.8079  34.8079  38.1309  38.1311  38.1311  38.2874
    42.4392  42.4392  42.4394  46.1406  46.1406  46.1408  48.0111  55.3525
    55.3525  55.3526  58.1413  59.5539

          k = 0.0000 0.0000 0.0476 (  1478 PWs)   bands (ev):

     5.7411  10.1511  10.3697  10.3697  11.0041  11.0086  11.0086  12.6837
    12.9321  12.9321  13.7764  13.9527  14.0977  14.0978  14.4887  14.4888
    14.6038  14.7483  14.7483  14.9413  14.9413  15.5392  18.1352  18.1352
    24.1940  24.1941  26.2587  27.8823  27.8823  28.4690  28.4691  30.1281
    30.1282  34.9115  36.8972  36.8973  37.7187  38.2604  40.0650  40.0651
    40.2892  40.2893  40.8436  47.5084  48.0982  48.0983  49.2169  51.5457
    56.4707  56.4708  56.5965  56.5965

          k = 0.0000 0.0000 0.0952 (  1510 PWs)   bands (ev):

     6.7946   9.7142  10.8311  10.8311  11.3371  11.3862  11.3863  12.3055
    12.9512  12.9513  13.2418  13.2418  13.4557  13.6758  14.0768  14.0768
    14.0873  14.2735  14.2735  14.4631  14.9419  14.9419  20.1758  20.1758
    24.4670  24.4670  25.1810  25.1810  26.7717  26.7718  30.4521  31.7415
    31.7417  35.2370  36.6902  37.0978  37.0979  38.2560  38.8171  40.8655
    40.8656  44.2081  44.2082  44.3590  50.8787  50.9495  50.9496  50.9738
    50.9738  54.9278  56.1782  56.1783

          k =-0.0000-0.0000-0.1427 (  1510 PWs)   bands (ev):

     8.3344   8.3410  11.1227  11.1228  11.8049  11.8149  12.0270  12.0271
    12.0366  12.0366  13.1819  13.1963  13.7141  13.7141  13.7214  13.7214
    13.8077  13.8077  14.2710  14.2764  14.9422  14.9422  22.5494  22.5494
    22.5661  22.5661  24.7908  24.7908  25.8854  25.8854  34.1418  34.1419
    34.1532  34.1533  34.8741  34.8989  35.8185  35.8253  40.4371  40.4762
    45.5994  45.5995  45.6338  45.6338  47.6882  47.6884  52.4766  52.4766
    54.0462  54.0463  54.0771  54.0772

          k = 0.0000 0.0476 0.0476 (  1490 PWs)   bands (ev):

     6.0996  10.3620  10.3620  10.5517  11.1079  11.1184  11.1184  12.6101
    12.9825  12.9869  13.6966  13.7355  13.7380  13.7525  13.9530  14.3503
    14.4764  14.4764  14.7472  14.7472  14.8179  16.7156  16.7156  18.9637
    24.1565  25.2261  26.4328  26.4328  28.3742  28.3743  28.9750  28.9751
    30.6641  36.1079  36.1366  37.0953  37.0954  37.3471  40.2302  40.2303
    41.1870  42.6878  43.4968  45.1723  46.4216  49.9426  50.3777  53.2629
    53.6319  55.3085  55.3086  56.2403

          k = 0.0000 0.0476 0.0952 (  1511 PWs)   bands (ev):

     7.1292   9.9647  10.8782  10.9965  11.3913  11.4240  11.4654  12.2977
    12.6748  12.8439  13.0371  13.0783  13.2580  13.5789  14.0008  14.0862
    14.1562  14.2426  14.2719  14.7442  14.7536  15.1437  18.3537  20.7848
    22.2771  24.8339  25.6532  26.6657  27.5234  29.7132  29.9610  30.0236
    31.1099  33.7993  34.5066  37.7189  38.6670  40.3385  40.5134  40.8640
    41.1154  44.1183  45.2326  47.1211  47.7048  48.5677  49.8743  51.2571
    52.8923  53.1670  55.0354  56.4532

          k =-0.0000 0.0476-0.1427 (  1500 PWs)   bands (ev):

     8.6281   8.6344  11.2659  11.2667  11.8484  11.8580  11.8644  11.8719
    12.0444  12.0537  12.9031  12.9143  13.7174  13.7249  13.7938  13.7953
    13.7974  13.7989  14.4991  14.4994  14.7420  14.7436  20.1608  20.1692
    23.0610  23.0758  25.5750  25.5871  28.4215  28.4259  31.6062  31.6106
    32.0742  32.0771  35.8375  35.8651  38.8262  38.8278  42.3493  42.3739
    43.0996  43.1094  45.8729  45.9053  50.1300  50.1578  50.2773  50.2907
    52.5207  52.5317  53.3641  53.3725

          k = 0.0000 0.0952 0.0952 (  1506 PWs)   bands (ev):

     8.0791  10.6028  10.6028  11.3599  11.4422  11.6798  11.6799  12.1998
    12.3461  12.3461  12.5197  12.9171  13.4020  13.4753  13.7735  13.9123
    13.9124  14.2760  14.2760  14.4658  14.5427  16.2855  16.2855  19.6057
    22.3264  25.3550  26.9411  26.9411  27.9948  27.9948  31.1133  31.7261
    31.7268  31.8020  33.6537  36.8710  41.4607  41.8595  41.8596  43.1072
    43.2918  43.8105  43.8106  47.3064  47.3568  48.5170  48.5171  51.7302
    52.0643  52.1291  53.4018  55.2493

          k =-0.0000 0.0952-0.1427 (  1514 PWs)   bands (ev):

     9.4269   9.4322  11.2172  11.2229  11.8455  11.8461  11.9569  11.9659
    12.0720  12.0808  12.5953  12.6024  13.5681  13.5682  13.6412  13.6424
    13.7645  13.7722  14.3162  14.3209  15.1670  15.1685  17.6724  17.6788
    24.4308  24.4417  26.3713  26.3812  28.8099  28.8146  29.6247  29.6262
    33.0168  33.0199  36.8023  36.8294  40.3583  40.3630  42.9904  42.9952
    43.2307  43.2329  46.6625  46.6888  47.9951  48.0114  50.3647  50.3795
    51.8679  51.8909  53.4716  53.4773

          k =-0.0000-0.1427-0.1427 (  1516 PWs)   bands (ev):

    10.4360  10.4407  10.4407  10.4454  12.0470  12.0556  12.0556  12.0641
    12.2934  12.2961  12.2961  12.2988  13.4245  13.4254  13.4254  13.4263
    13.9439  13.9509  13.9509  13.9579  16.1111  16.1137  16.1137  16.1163
    26.3931  26.4003  26.4003  26.4074  27.6937  27.6998  27.6998  27.7061
    37.9570  37.9642  37.9643  37.9717  38.4549  38.4634  38.4635  38.4715
    47.0550  47.0554  47.0554  47.0560  49.1620  49.1768  49.1770  49.1918
    51.9141  51.9160  51.9161  51.9179

          k = 0.0476 0.0476 0.0476 (  1490 PWs)   bands (ev):

     6.4482  10.5498  10.5498  10.5498  11.2095  11.2096  11.2096  12.5552
    13.0075  13.0075  13.3967  13.3967  13.3967  13.8654  13.8654  14.1573
    14.1574  14.1574  14.8183  14.8183  14.8183  17.3691  17.3692  17.3692
    25.4548  25.4548  25.4548  26.7624  26.7624  26.7624  31.1902  31.1903
    31.1903  33.5464  36.2587  36.2587  36.2587  39.0945  41.1874  41.1874
    42.8918  42.8919  42.8919  46.5018  47.6025  47.6025  51.8063  51.8063
    55.1781  55.1782  55.1782  55.4456

          k = 0.0476 0.0476 0.0952 (  1514 PWs)   bands (ev):

     7.4454  10.1634  11.0093  11.0094  11.4510  11.4511  11.5069  12.3080
    12.6762  12.6762  12.8414  13.0392  13.1291  13.7703  13.8044  13.8672
    13.8675  14.1410  14.7062  14.7359  14.7360  15.4266  18.6972  18.6972
    22.9145  22.9146  26.7609  27.3895  27.3895  30.4302  30.4303  30.8567
    31.0325  32.6944  36.7171  37.6797  37.9246  38.8179  38.8180  42.3652
    43.5801  44.4836  47.0613  47.0614  47.9213  49.0258  50.1861  50.1861
    50.6996  52.9431  53.0345  55.7687

          k = 0.0476 0.0476-0.1427 (  1518 PWs)   bands (ev):

     8.8844   8.8902  11.4370  11.4370  11.5042  11.5043  11.9125  11.9217
    12.2940  12.2940  12.8164  12.8270  13.3912  13.3938  13.6764  13.6764
    14.2892  14.2964  14.4554  14.4562  14.6883  14.6884  19.7763  19.7764
    21.4471  21.4471  28.3195  28.3198  28.5839  28.5869  29.0388  29.0394
    35.0001  35.0095  35.3764  35.3961  38.1591  38.1791  42.1824  42.1824
    44.8336  44.8452  45.3557  45.3557  49.3906  49.4056  50.8477  50.8529
    52.2148  52.2148  53.8568  53.8582

          k = 0.0476 0.0952 0.0952 (  1501 PWs)   bands (ev):

     8.3312  10.6113  10.6114  11.1232  11.6170  11.7578  11.7579  12.2841
    12.4900  12.4900  12.6149  12.9286  13.0779  13.5311  13.5314  13.5338
    13.8945  14.4550  14.6035  14.6037  14.6207  16.3643  16.3643  18.8969
    21.1447  24.1180  24.1180  28.1017  28.1795  31.1955  31.1956  32.2101
    32.2102  34.0688  35.2643  36.9314  39.3364  39.3364  40.0750  43.1474
    43.7247  44.7270  46.4539  46.4540  49.2436  49.2437  50.3461  50.5761
    50.8975  51.6871  52.3636  52.8502

          k = 0.0476 0.0952-0.1427 (  1510 PWs)   bands (ev):

     9.5497   9.5541  10.9738  10.9758  11.8772  11.8782  12.1137  12.1215
    12.4687  12.4723  12.6544  12.6614  13.2062  13.2080  13.3876  13.3888
    14.2116  14.2155  14.5102  14.5133  15.0603  15.0617  17.5970  17.6021
    22.1149  22.1186  25.8604  25.8629  29.5320  29.5352  33.0934  33.0938
    33.3180  33.3209  36.9041  36.9260  40.1165  40.1209  40.4633  40.4675
    45.1765  45.1780  45.6680  45.6793  47.6784  47.6849  50.6035  50.6124
    51.7245  51.7294  53.9691  53.9922

          k = 0.0476-0.1427-0.1427 (  1492 PWs)   bands (ev):

    10.3261  10.3288  10.3288  10.3313  12.2810  12.2848  12.2848  12.2886
    12.5001  12.5048  12.5048  12.5094  13.1496  13.1516  13.1516  13.1537
    14.2380  14.2429  14.2429  14.2477  15.9856  15.9884  15.9884  15.9912
    23.7054  23.7080  23.7081  23.7107  31.0517  31.0533  31.0533  31.0550
    38.2364  38.2414  38.2415  38.2493  38.2844  38.2931  38.2932  38.2989
    46.5841  46.5842  46.5842  46.5848  46.7726  46.7811  46.7812  46.7894
    54.8640  54.8705  54.8706  55.0835

          k = 0.0952 0.0952 0.0952 (  1502 PWs)   bands (ev):

     8.9962  10.5634  10.5634  10.5634  12.0733  12.0734  12.0734  12.5510
    12.7687  12.7687  12.7688  12.8958  12.8958  13.1689  13.1689  13.1689
    14.3348  14.3348  14.7463  14.7463  14.7463  16.6158  16.6158  16.6158
    21.7467  21.7467  21.7468  25.3736  32.5440  32.5440  32.5440  35.3028
    35.3029  35.3029  37.2839  37.2839  37.2839  37.6183  40.0348  40.0348
    44.4522  44.4522  47.7854  48.0118  48.0118  48.0119  48.1389  48.1390
    48.1390  52.4768  52.4768  52.4768

          k = 0.0952 0.0952-0.1427 (  1510 PWs)   bands (ev):

     9.8205   9.8225  10.5232  10.5232  12.2658  12.2659  12.5767  12.5819
    12.8234  12.8299  12.9292  12.9297  12.9722  12.9722  13.0364  13.0365
    14.6476  14.6485  14.6755  14.6756  14.8732  14.8744  16.8051  16.8051
    20.8162  20.8163  23.2541  23.2567  33.4212  33.4212  34.7107  34.7108
    36.2146  36.2244  37.3138  37.3184  39.0644  39.0799  39.4115  39.4116
    44.6766  44.6766  44.8744  44.8823  46.0218  46.0243  48.5084  48.5084
    49.6548  49.6581  53.0846  53.0847

          k = 0.0952-0.1427-0.1427 (  1496 PWs)   bands (ev):

    10.1350  10.1356  10.1356  10.1361  12.6118  12.6131  12.6131  12.6144
    12.8443  12.8457  12.8457  12.8471  13.2561  13.2596  13.2596  13.2631
    14.5827  14.5853  14.5853  14.5879  15.4946  15.4977  15.4977  15.5007
    21.4832  21.4854  21.4854  21.4876  35.1250  35.1269  35.1270  35.1290
    38.1820  38.1857  38.1857  38.1895  39.0027  39.0066  39.0067  39.0104
    44.1201  44.1242  44.1242  44.1282  45.1467  45.1479  45.1479  45.1491
    50.5063  50.5079  50.5079  50.5097

          k =-0.1427-0.1427-0.1427 (  1472 PWs)   bands (ev):

    10.0503  10.0503  10.0503  10.0503  12.7313  12.7313  12.7313  12.7313
    12.7313  12.7313  12.7314  12.7314  14.1917  14.1917  14.1917  14.1918
    14.7180  14.7180  14.7180  14.7181  14.7181  14.7181  14.7181  14.7181
    20.6938  20.6938  20.6938  20.6939  36.7639  36.7642  36.7642  36.7642
    39.6436  39.6436  39.6436  39.6437  39.6437  39.6437  39.6437  39.6438
    42.8316  42.8316  42.8317  42.8317  42.8317  42.8318  42.8318  42.8318
    48.8855  48.8855  48.8855  48.8856

          k =-0.0476 0.0000 0.0476 (  1490 PWs)   bands (ev):

     6.0996  10.3620  10.3620  10.5517  11.1079  11.1184  11.1184  12.6101
    12.9825  12.9869  13.6967  13.7355  13.7380  13.7525  13.9530  14.3503
    14.4764  14.4764  14.7472  14.7472  14.8179  16.7156  16.7156  18.9637
    24.1565  25.2260  26.4328  26.4328  28.3742  28.3743  28.9750  28.9751
    30.6643  36.1078  36.1367  37.0953  37.0953  37.3470  40.2302  40.2303
    41.1871  42.6877  43.4969  45.1723  46.4218  49.9426  50.3776  53.2628
    53.6319  55.3084  55.3085  56.2404

          k =-0.0476 0.0000 0.0952 (  1511 PWs)   bands (ev):

     7.1292   9.9647  10.8782  10.9965  11.3913  11.4240  11.4654  12.2977
    12.6748  12.8439  13.0371  13.0782  13.2580  13.5789  14.0008  14.0862
    14.1563  14.2426  14.2719  14.7442  14.7536  15.1437  18.3538  20.7848
    22.2771  24.8339  25.6532  26.6657  27.5234  29.7132  29.9610  30.0237
    31.1098  33.7993  34.5065  37.7188  38.6671  40.3386  40.5134  40.8640
    41.1154  44.1183  45.2326  47.1210  47.7048  48.5678  49.8742  51.2572
    52.8922  53.1669  55.0354  56.4532

          k =-0.0952 0.0000 0.0952 (  1506 PWs)   bands (ev):

     8.0791  10.6028  10.6028  11.3599  11.4421  11.6798  11.6799  12.1998
    12.3461  12.3461  12.5197  12.9171  13.4020  13.4753  13.7735  13.9123
    13.9124  14.2759  14.2760  14.4658  14.5427  16.2856  16.2856  19.6057
    22.3264  25.3550  26.9411  26.9412  27.9948  27.9949  31.1133  31.7261
    31.7268  31.8019  33.6538  36.8711  41.4608  41.8595  41.8595  43.1072
    43.2919  43.8104  43.8105  47.3065  47.3569  48.5169  48.5170  51.7300
    52.0643  52.1292  53.4019  55.2498

          k = 0.0476-0.0476 0.0476 (  1490 PWs)   bands (ev):

     6.4482  10.5498  10.5498  10.5498  11.2095  11.2096  11.2096  12.5552
    13.0074  13.0075  13.3967  13.3967  13.3967  13.8654  13.8654  14.1573
    14.1573  14.1574  14.8183  14.8183  14.8183  17.3691  17.3692  17.3692
    25.4547  25.4547  25.4548  26.7624  26.7624  26.7624  31.1903  31.1903
    31.1904  33.5463  36.2587  36.2588  36.2588  39.0945  41.1874  41.1876
    42.8917  42.8917  42.8918  46.5018  47.6025  47.6026  51.8063  51.8064
    55.1781  55.1782  55.1782  55.4456

          k = 0.0476-0.0476 0.0952 (  1514 PWs)   bands (ev):

     7.4454  10.1634  11.0093  11.0093  11.4510  11.4510  11.5069  12.3080
    12.6762  12.6762  12.8414  13.0392  13.1291  13.7703  13.8044  13.8673
    13.8675  14.1410  14.7062  14.7359  14.7360  15.4266  18.6972  18.6972
    22.9145  22.9146  26.7609  27.3894  27.3895  30.4302  30.4303  30.8566
    31.0324  32.6945  36.7172  37.6798  37.9247  38.8179  38.8181  42.3652
    43.5799  44.4836  47.0612  47.0613  47.9213  49.0259  50.1860  50.1861
    50.6996  52.9430  53.0345  55.7688

          k =-0.0952 0.0476 0.0476 (  1514 PWs)   bands (ev):

     7.4454  10.1634  11.0093  11.0094  11.4510  11.4510  11.5069  12.3080
    12.6762  12.6762  12.8414  13.0392  13.1291  13.7703  13.8044  13.8673
    13.8676  14.1410  14.7062  14.7359  14.7360  15.4266  18.6972  18.6972
    22.9145  22.9145  26.7610  27.3894  27.3895  30.4303  30.4304  30.8566
    31.0324  32.6943  36.7171  37.6797  37.9246  38.8180  38.8180  42.3652
    43.5800  44.4838  47.0611  47.0612  47.9214  49.0259  50.1860  50.1860
    50.6996  52.9430  53.0344  55.7687

          k = 0.0476-0.0476-0.1427 (  1518 PWs)   bands (ev):

     8.8844   8.8902  11.4370  11.4370  11.5042  11.5043  11.9125  11.9217
    12.2940  12.2940  12.8164  12.8270  13.3912  13.3938  13.6764  13.6765
    14.2892  14.2964  14.4554  14.4562  14.6884  14.6884  19.7763  19.7764
    21.4471  21.4471  28.3195  28.3198  28.5838  28.5869  29.0388  29.0394
    35.0002  35.0096  35.3765  35.3961  38.1591  38.1791  42.1823  42.1825
    44.8334  44.8451  45.3556  45.3558  49.3906  49.4055  50.8478  50.8530
    52.2147  52.2149  53.8568  53.8582

          k = 0.0952-0.0476 0.0952 (  1501 PWs)   bands (ev):

     8.3312  10.6113  10.6114  11.1231  11.6170  11.7578  11.7579  12.2841
    12.4900  12.4900  12.6149  12.9286  13.0779  13.5311  13.5314  13.5338
    13.8945  14.4550  14.6035  14.6037  14.6207  16.3643  16.3643  18.8969
    21.1448  24.1180  24.1180  28.1016  28.1794  31.1956  31.1956  32.2101
    32.2102  34.0687  35.2644  36.9314  39.3365  39.3366  40.0751  43.1475
    43.7248  44.7270  46.4539  46.4539  49.2435  49.2435  50.3460  50.5760
    50.8976  51.6871  52.3635  52.8501

          k =-0.0952 0.0476 0.0952 (  1501 PWs)   bands (ev):

     8.3312  10.6113  10.6114  11.1231  11.6170  11.7578  11.7579  12.2841
    12.4900  12.4900  12.6149  12.9286  13.0779  13.5311  13.5314  13.5338
    13.8945  14.4550  14.6035  14.6037  14.6207  16.3643  16.3644  18.8969
    21.1447  24.1180  24.1181  28.1016  28.1794  31.1955  31.1956  32.2101
    32.2101  34.0689  35.2643  36.9315  39.3364  39.3365  40.0751  43.1475
    43.7248  44.7270  46.4538  46.4539  49.2435  49.2436  50.3460  50.5761
    50.8975  51.6872  52.3634  52.8501

          k = 0.0952-0.0476-0.1427 (  1510 PWs)   bands (ev):

     9.5497   9.5541  10.9738  10.9757  11.8772  11.8782  12.1137  12.1215
    12.4687  12.4723  12.6544  12.6614  13.2062  13.2080  13.3876  13.3888
    14.2116  14.2155  14.5102  14.5133  15.0603  15.0617  17.5970  17.6021
    22.1150  22.1187  25.8603  25.8628  29.5319  29.5351  33.0935  33.0939
    33.3179  33.3208  36.9041  36.9260  40.1165  40.1210  40.4634  40.4676
    45.1765  45.1780  45.6681  45.6793  47.6783  47.6848  50.6035  50.6123
    51.7244  51.7293  53.9693  53.9779

          k = 0.0952-0.0952 0.0952 (  1502 PWs)   bands (ev):

     8.9962  10.5634  10.5634  10.5634  12.0733  12.0734  12.0734  12.5510
    12.7687  12.7687  12.7689  12.8957  12.8958  13.1689  13.1689  13.1690
    14.3348  14.3349  14.7463  14.7463  14.7464  16.6158  16.6158  16.6159
    21.7467  21.7467  21.7468  25.3735  32.5439  32.5440  32.5440  35.3028
    35.3029  35.3030  37.2838  37.2840  37.2840  37.6184  40.0349  40.0350
    44.4522  44.4523  47.7855  48.0117  48.0118  48.0119  48.1388  48.1389
    48.1390  52.4766  52.4766  52.4767

          k = 0.0952-0.0952-0.1427 (  1510 PWs)   bands (ev):

     9.8205   9.8225  10.5232  10.5232  12.2658  12.2658  12.5767  12.5819
    12.8233  12.8299  12.9292  12.9297  12.9722  12.9722  13.0364  13.0365
    14.6476  14.6485  14.6755  14.6756  14.8732  14.8744  16.8051  16.8051
    20.8163  20.8163  23.2540  23.2566  33.4211  33.4212  34.7106  34.7107
    36.2146  36.2244  37.3139  37.3185  39.0644  39.0800  39.4115  39.4117
    44.6765  44.6767  44.8744  44.8823  46.0218  46.0244  48.5083  48.5084
    49.6548  49.6581  53.0845  53.0847

     the Fermi energy is    14.4911 ev

!    total energy              =    -343.63019280 Ry
     Harris-Foulkes estimate   =    -343.63019280 Ry
     estimated scf accuracy    <          5.2E-12 Ry

     The total energy is the sum of the following terms:

     one-electron contribution =      -6.39507773 Ry
     hartree contribution      =      60.35299448 Ry
     xc contribution           =    -120.51404535 Ry
     ewald contribution        =    -277.02565185 Ry
     Dispersion Correction     =      -0.04783835 Ry
     smearing contrib. (-TS)   =      -0.00057400 Ry

     total magnetization       =     2.84 Bohr mag/cell
     absolute magnetization    =     3.25 Bohr mag/cell

     convergence has been achieved in  11 iterations

     Forces acting on atoms (Ry/au):

     atom    1 type  1   force =    -0.00071876   -0.00071876    0.00071853
     atom    2 type  1   force =     0.00071899    0.00071899    0.00071899
     atom    3 type  1   force =    -0.00071876    0.00071853   -0.00071876
     atom    4 type  1   force =     0.00071853   -0.00071876   -0.00071876

     Total force =     0.002490     Total SCF correction =     0.000015


     entering subroutine stress ...

          total   stress  (Ry/bohr**3)                   (kbar)     P=   -0.02
  -0.00000014   0.00000002   0.00000002         -0.02      0.00      0.00
   0.00000002  -0.00000014   0.00000002          0.00     -0.02      0.00
   0.00000002   0.00000002  -0.00000014          0.00      0.00     -0.02


     bfgs converged in   7 scf cycles and   3 bfgs steps
     (criteria: energy <  1.0E-04, force <  1.0E-03, cell <  5.0E-01)

     End of BFGS Geometry Optimization

     Final enthalpy =    -343.6301928011 Ry
Begin final coordinates
     new unit-cell volume =    290.13216 a.u.^3 (    42.99315 Ang^3 )

CELL_PARAMETERS (alat=  1.88972590)
   3.503212444  -0.000004424  -0.000004424
  -0.000004424   3.503212444  -0.000004424
  -0.000004424  -0.000004424   3.503212444

ATOMIC_POSITIONS (alat)
Ni1      1.756612746   1.756612746   0.002764876
Ni1      0.002766562   0.002766562   0.002766562
Ni1      1.756612746   0.002764876   1.756612746
Ni1      0.002764876   1.756612746   1.756612746
End final coordinates



     A final scf calculation at the relaxed structure.
     The G-vectors are recalculated for the final unit cell
     Results may differ from those at the preceding step.

     G-vector sticks info
     --------------------
     sticks:   dense  smooth     PW     G-vecs:    dense   smooth      PW
     Sum        1389     621    193                39127    11753    2103

     Generating pointlists ...

     Title: 
     Ni-ferro-mag                                                               


     bravais-lattice index     =            0
     lattice parameter (alat)  =       1.8897  a.u.
     unit-cell volume          =     290.1322 (a.u.)^3
     number of atoms/cell      =            4
     number of atomic types    =            1
     number of electrons       =        40.00
     number of Kohn-Sham states=           52
     kinetic-energy cutoff     =      45.0000  Ry
     charge density cutoff     =     400.0000  Ry
     convergence threshold     =      1.0E-10
     mixing beta               =       0.2000
     number of iterations used =            8  plain     mixing
     Exchange-correlation      =  SLA  PW   PBE  PBE ( 1  4  3  4 0 0)

     celldm(1)=   1.889726  celldm(2)=   0.000000  celldm(3)=   0.000000
     celldm(4)=   0.000000  celldm(5)=   0.000000  celldm(6)=   0.000000

     crystal axes: (cart. coord. in units of alat)
               a(1) = (   3.503212  -0.000004  -0.000004 )  
               a(2) = (  -0.000004   3.503212  -0.000004 )  
               a(3) = (  -0.000004  -0.000004   3.503212 )  

     reciprocal axes: (cart. coord. in units 2 pi/alat)
               b(1) = (  0.285452  0.000000  0.000000 )  
               b(2) = (  0.000000  0.285452  0.000000 )  
               b(3) = (  0.000000  0.000000  0.285452 )  


     PseudoPot. # 1 for Ni read from file:
     /home/eliot/pseudo/Ni.pbe-nd-rrkjus.UPF
     MD5 check sum: 8081f0a005c9a5470caab1a58e82ecb2
     Pseudo is Ultrasoft + core correction, Zval = 10.0
     Generated by new atomic code, or converted to UPF format
     Using radial grid of 1203 points,  6 beta functions with: 
                l(1) =   0
                l(2) =   0
                l(3) =   1
                l(4) =   1
                l(5) =   2
                l(6) =   2
     Q(r) pseudized with 0 coefficients 


     atomic species   valence    mass     pseudopotential
        Ni1           10.00    58.69340     Ni( 1.00)

     Starting magnetic structure 
     atomic species   magnetization
        Ni1          0.500

      6 Sym. Ops. (no inversion) found



   Cartesian axes

     site n.     atom                  positions (alat units)
         1           Ni1 tau(   1) = (   1.7566127   1.7566127   0.0027649  )
         2           Ni1 tau(   2) = (   0.0027666   0.0027666   0.0027666  )
         3           Ni1 tau(   3) = (   1.7566127   0.0027649   1.7566127  )
         4           Ni1 tau(   4) = (   0.0027649   1.7566127   1.7566127  )

     number of k points=    32  Methfessel-Paxton smearing, width (Ry)=  0.0500
                       cart. coord. in units 2pi/alat
        k(    1) = (   0.0000000   0.0000000   0.0000000), wk =   0.0046296
        k(    2) = (   0.0000001   0.0000001   0.0475754), wk =   0.0277778
        k(    3) = (   0.0000001   0.0000001   0.0951508), wk =   0.0277778
        k(    4) = (  -0.0000002  -0.0000002  -0.1427261), wk =   0.0138889
        k(    5) = (   0.0000001   0.0475754   0.0475754), wk =   0.0277778
        k(    6) = (   0.0000002   0.0475755   0.0951508), wk =   0.0555556
        k(    7) = (  -0.0000001   0.0475752  -0.1427261), wk =   0.0555556
        k(    8) = (   0.0000002   0.0951509   0.0951509), wk =   0.0277778
        k(    9) = (  -0.0000001   0.0951506  -0.1427260), wk =   0.0555556
        k(   10) = (  -0.0000004  -0.1427263  -0.1427263), wk =   0.0138889
        k(   11) = (   0.0475755   0.0475755   0.0475755), wk =   0.0092593
        k(   12) = (   0.0475756   0.0475756   0.0951509), wk =   0.0277778
        k(   13) = (   0.0475753   0.0475753  -0.1427260), wk =   0.0277778
        k(   14) = (   0.0475756   0.0951509   0.0951509), wk =   0.0277778
        k(   15) = (   0.0475753   0.0951506  -0.1427260), wk =   0.0555556
        k(   16) = (   0.0475750  -0.1427263  -0.1427263), wk =   0.0277778
        k(   17) = (   0.0951510   0.0951510   0.0951510), wk =   0.0092593
        k(   18) = (   0.0951507   0.0951507  -0.1427259), wk =   0.0277778
        k(   19) = (   0.0951504  -0.1427262  -0.1427262), wk =   0.0277778
        k(   20) = (  -0.1427265  -0.1427265  -0.1427265), wk =   0.0046296
        k(   21) = (  -0.0475753   0.0000000   0.0475753), wk =   0.0277778
        k(   22) = (  -0.0475753   0.0000001   0.0951507), wk =   0.0555556
        k(   23) = (  -0.0951506   0.0000000   0.0951506), wk =   0.0277778
        k(   24) = (   0.0475754  -0.0475753   0.0475754), wk =   0.0277778
        k(   25) = (   0.0475754  -0.0475752   0.0951508), wk =   0.0555556
        k(   26) = (  -0.0951506   0.0475753   0.0475753), wk =   0.0277778
        k(   27) = (   0.0475751  -0.0475755  -0.1427261), wk =   0.0277778
        k(   28) = (   0.0951508  -0.0475751   0.0951508), wk =   0.0277778
        k(   29) = (  -0.0951506   0.0475754   0.0951507), wk =   0.0555556
        k(   30) = (   0.0951505  -0.0475754  -0.1427261), wk =   0.0555556
        k(   31) = (   0.0951508  -0.0951505   0.0951508), wk =   0.0277778
        k(   32) = (   0.0951505  -0.0951508  -0.1427261), wk =   0.0277778

     Dense  grid:    39127 G-vectors     FFT dimensions: (  45,  45,  45)

     Smooth grid:    11753 G-vectors     FFT dimensions: (  30,  30,  30)

     Largest allocated arrays     est. size (Mb)     dimensions
        Kohn-Sham Wavefunctions         1.19 Mb     (    1498,   52)
        NL pseudopotentials             1.65 Mb     (    1498,   72)
        Each V/rho on FFT grid          2.78 Mb     (   91125,   2)
        Each G-vector array             0.30 Mb     (   39127)
        G-vector shells                 0.02 Mb     (    2639)
     Largest temporary arrays     est. size (Mb)     dimensions
        Auxiliary wavefunctions         4.75 Mb     (    1498,  208)
        Each subspace H/S matrix        0.66 Mb     (     208,  208)
        Each <psi_i|beta_j> matrix      0.06 Mb     (      72,   52)
        Arrays for rho mixing          11.12 Mb     (   91125,    8)

     Check: negative/imaginary core charge=   -0.000005    0.000000

     Initial potential from superposition of free atoms

     starting charge   39.99816, renormalised to   40.00000
     Starting wfc are   24 randomized atomic wfcs +   28 random wfc

     Writing output data file Ni-ferromag.save

     total cpu time spent up to now is     2394.3 secs

     Self-consistent Calculation

     iteration #  1     ecut=    45.00 Ry     beta=0.20
     Davidson diagonalization with overlap
     c_bands:  4 eigenvalues not converged
     c_bands:  1 eigenvalues not converged
     ethr =  1.00E-06,  avg # of iterations = 12.9

     total cpu time spent up to now is     2508.1 secs

     total energy              =    -342.90487733 Ry
     Harris-Foulkes estimate   =    -343.17837840 Ry
     estimated scf accuracy    <       2.41825997 Ry

     total magnetization       =     6.87 Bohr mag/cell
     absolute magnetization    =     6.88 Bohr mag/cell

     iteration #  2     ecut=    45.00 Ry     beta=0.20
     Davidson diagonalization with overlap
     ethr =  6.05E-03,  avg # of iterations =  1.0

     total cpu time spent up to now is     2531.8 secs

     total energy              =    -343.20661464 Ry
     Harris-Foulkes estimate   =    -343.03978608 Ry
     estimated scf accuracy    <       0.78012676 Ry

     total magnetization       =     5.74 Bohr mag/cell
     absolute magnetization    =     5.83 Bohr mag/cell

     iteration #  3     ecut=    45.00 Ry     beta=0.20
     Davidson diagonalization with overlap
     ethr =  1.95E-03,  avg # of iterations =  1.3

     total cpu time spent up to now is     2555.8 secs

     total energy              =    -343.53916753 Ry
     Harris-Foulkes estimate   =    -343.28051020 Ry
     estimated scf accuracy    <       0.35891097 Ry

     total magnetization       =     4.50 Bohr mag/cell
     absolute magnetization    =     4.82 Bohr mag/cell

     iteration #  4     ecut=    45.00 Ry     beta=0.20
     Davidson diagonalization with overlap
     ethr =  8.97E-04,  avg # of iterations =  1.3

     total cpu time spent up to now is     2579.8 secs

     total energy              =    -343.62369455 Ry
     Harris-Foulkes estimate   =    -343.65290145 Ry
     estimated scf accuracy    <       0.11945133 Ry

     total magnetization       =     2.58 Bohr mag/cell
     absolute magnetization    =     3.20 Bohr mag/cell

     iteration #  5     ecut=    45.00 Ry     beta=0.20
     Davidson diagonalization with overlap
     ethr =  2.99E-04,  avg # of iterations =  1.0

     total cpu time spent up to now is     2603.5 secs

     total energy              =    -343.62378725 Ry
     Harris-Foulkes estimate   =    -343.63067931 Ry
     estimated scf accuracy    <       0.02343553 Ry

     total magnetization       =     2.63 Bohr mag/cell
     absolute magnetization    =     3.23 Bohr mag/cell

     iteration #  6     ecut=    45.00 Ry     beta=0.20
     Davidson diagonalization with overlap
     ethr =  5.86E-05,  avg # of iterations =  2.4

     total cpu time spent up to now is     2628.6 secs

     total energy              =    -343.62658343 Ry
     Harris-Foulkes estimate   =    -343.62727160 Ry
     estimated scf accuracy    <       0.00097913 Ry

     total magnetization       =     2.69 Bohr mag/cell
     absolute magnetization    =     3.28 Bohr mag/cell

     iteration #  7     ecut=    45.00 Ry     beta=0.20
     Davidson diagonalization with overlap
     ethr =  2.45E-06,  avg # of iterations =  4.6

     total cpu time spent up to now is     2657.4 secs

     total energy              =    -343.62972266 Ry
     Harris-Foulkes estimate   =    -343.62851048 Ry
     estimated scf accuracy    <       0.00179763 Ry

     total magnetization       =     3.01 Bohr mag/cell
     absolute magnetization    =     3.48 Bohr mag/cell

     iteration #  8     ecut=    45.00 Ry     beta=0.20
     Davidson diagonalization with overlap
     ethr =  2.45E-06,  avg # of iterations =  1.0

     total cpu time spent up to now is     2681.1 secs

     total energy              =    -343.63008934 Ry
     Harris-Foulkes estimate   =    -343.63002740 Ry
     estimated scf accuracy    <       0.00012709 Ry

     total magnetization       =     2.90 Bohr mag/cell
     absolute magnetization    =     3.35 Bohr mag/cell

     iteration #  9     ecut=    45.00 Ry     beta=0.20
     Davidson diagonalization with overlap
     ethr =  3.18E-07,  avg # of iterations =  1.0

     total cpu time spent up to now is     2704.7 secs

     total energy              =    -343.63014075 Ry
     Harris-Foulkes estimate   =    -343.63009517 Ry
     estimated scf accuracy    <       0.00006204 Ry

     total magnetization       =     2.88 Bohr mag/cell
     absolute magnetization    =     3.33 Bohr mag/cell

     iteration # 10     ecut=    45.00 Ry     beta=0.20
     Davidson diagonalization with overlap
     ethr =  1.55E-07,  avg # of iterations =  1.1

     total cpu time spent up to now is     2728.4 secs

     total energy              =    -343.63017809 Ry
     Harris-Foulkes estimate   =    -343.63016706 Ry
     estimated scf accuracy    <       0.00000608 Ry

     total magnetization       =     2.85 Bohr mag/cell
     absolute magnetization    =     3.28 Bohr mag/cell

     iteration # 11     ecut=    45.00 Ry     beta=0.20
     Davidson diagonalization with overlap
     ethr =  1.52E-08,  avg # of iterations =  1.3

     total cpu time spent up to now is     2752.4 secs

     total energy              =    -343.63018564 Ry
     Harris-Foulkes estimate   =    -343.63018054 Ry
     estimated scf accuracy    <       0.00000190 Ry

     total magnetization       =     2.84 Bohr mag/cell
     absolute magnetization    =     3.26 Bohr mag/cell

     iteration # 12     ecut=    45.00 Ry     beta=0.20
     Davidson diagonalization with overlap
     ethr =  4.74E-09,  avg # of iterations =  1.0

     total cpu time spent up to now is     2776.0 secs

     total energy              =    -343.63018674 Ry
     Harris-Foulkes estimate   =    -343.63018584 Ry
     estimated scf accuracy    <       0.00000064 Ry

     total magnetization       =     2.84 Bohr mag/cell
     absolute magnetization    =     3.26 Bohr mag/cell

     iteration # 13     ecut=    45.00 Ry     beta=0.20
     Davidson diagonalization with overlap
     ethr =  1.61E-09,  avg # of iterations =  2.0

     total cpu time spent up to now is     2802.4 secs

     total energy              =    -343.63019102 Ry
     Harris-Foulkes estimate   =    -343.63018884 Ry
     estimated scf accuracy    <       0.00000042 Ry

     total magnetization       =     2.83 Bohr mag/cell
     absolute magnetization    =     3.25 Bohr mag/cell

     iteration # 14     ecut=    45.00 Ry     beta=0.20
     Davidson diagonalization with overlap
     ethr =  1.06E-09,  avg # of iterations =  1.1

     total cpu time spent up to now is     2826.1 secs

     total energy              =    -343.63019261 Ry
     Harris-Foulkes estimate   =    -343.63019135 Ry
     estimated scf accuracy    <          3.0E-09 Ry

     total magnetization       =     2.84 Bohr mag/cell
     absolute magnetization    =     3.25 Bohr mag/cell

     iteration # 15     ecut=    45.00 Ry     beta=0.20
     Davidson diagonalization with overlap
     ethr =  7.61E-12,  avg # of iterations =  2.3

     total cpu time spent up to now is     2854.2 secs

     total energy              =    -343.63019341 Ry
     Harris-Foulkes estimate   =    -343.63019262 Ry
     estimated scf accuracy    <          2.1E-09 Ry

     total magnetization       =     2.84 Bohr mag/cell
     absolute magnetization    =     3.25 Bohr mag/cell

     iteration # 16     ecut=    45.00 Ry     beta=0.20
     Davidson diagonalization with overlap
     ethr =  5.18E-12,  avg # of iterations =  1.9

     total cpu time spent up to now is     2879.1 secs

     total energy              =    -343.63019393 Ry
     Harris-Foulkes estimate   =    -343.63019342 Ry
     estimated scf accuracy    <          1.0E-10 Ry

     total magnetization       =     2.84 Bohr mag/cell
     absolute magnetization    =     3.25 Bohr mag/cell

     iteration # 17     ecut=    45.00 Ry     beta=0.20
     Davidson diagonalization with overlap
     ethr =  2.56E-13,  avg # of iterations =  2.0

     Magnetic moment per site:
     atom:    1    charge:    3.0535    magn:    0.3402    constr:    0.0000
     atom:    2    charge:    3.0502    magn:    0.3399    constr:    0.0000
     atom:    3    charge:    3.0535    magn:    0.3402    constr:    0.0000
     atom:    4    charge:    3.0535    magn:    0.3402    constr:    0.0000

     total cpu time spent up to now is     2904.6 secs

     End of self-consistent calculation

 ------ SPIN UP ------------


          k = 0.0000 0.0000 0.0000 (  1419 PWs)   bands (ev):

     5.4296   9.7133   9.7133   9.7133  10.1663  10.1664  10.1664  11.9451
    11.9451  11.9451  13.1236  13.1236  13.8413  13.8413  13.8413  13.9313
    13.9313  13.9313  13.9313  13.9313  13.9313  17.0698  17.0699  17.0699
    23.8075  23.8075  23.8075  29.5652  29.5652  29.5652  29.5653  29.5653
    29.5653  34.6438  34.6438  34.6439  37.9874  37.9876  37.9876  38.4930
    42.4684  42.4684  42.4686  46.0682  46.0682  46.0684  48.1706  55.1634
    55.1634  55.1635  57.6180  59.0396

          k = 0.0000 0.0000 0.0476 (  1450 PWs)   bands (ev):

     5.7957   9.7353   9.8974   9.8974  10.2768  10.2927  10.2927  11.8164
    12.0474  12.0474  13.0057  13.1703  13.2775  13.2775  13.6879  13.6879
    13.7554  13.7554  13.7918  13.9316  13.9316  15.4690  18.0284  18.0284
    23.9034  23.9034  26.0568  27.8136  27.8137  28.4417  28.4417  30.1254
    30.1255  34.7599  36.8163  36.8163  37.8575  38.1193  39.9446  39.9446
    40.2472  40.2473  40.9135  47.4879  48.1244  48.1245  49.1451  51.5549
    56.2594  56.2595  56.6699  56.6699

          k = 0.0000 0.0000 0.0952 (  1458 PWs)   bands (ev):

     6.8450   9.5060  10.3343  10.3343  10.5844  10.6758  10.6758  11.4724
    12.2217  12.2218  12.3440  12.3440  12.7179  13.2989  13.3050  13.3080
    13.3080  13.3182  13.3182  13.6577  13.9321  13.9321  19.9906  19.9907
    24.2207  24.2208  25.0403  25.0403  26.6736  26.6736  30.3565  31.7046
    31.7047  35.1232  36.7250  37.0263  37.0264  38.3464  38.6711  40.8602
    40.8602  44.1087  44.1088  44.1408  50.9232  51.0444  51.0445  51.0473
    51.0473  55.0323  55.9376  55.9376

          k =-0.0000-0.0000-0.1427 (  1462 PWs)   bands (ev):

     8.3410   8.3474  10.6104  10.6104  11.0146  11.0239  11.3177  11.3177
    11.3270  11.3270  12.5343  12.5475  12.7924  12.7924  12.7995  12.7995
    13.0611  13.0611  13.4743  13.4795  13.9324  13.9324  22.3679  22.3679
    22.3842  22.3842  24.5940  24.5941  25.7280  25.7280  34.0766  34.0768
    34.0881  34.0882  34.8943  34.9184  35.7678  35.7735  40.2453  40.2838
    45.6443  45.6443  45.6778  45.6778  47.6142  47.6143  52.2874  52.2875
    54.1565  54.1566  54.1875  54.1875

          k = 0.0000 0.0476 0.0476 (  1460 PWs)   bands (ev):

     6.1533   9.9337   9.9337  10.0606  10.3942  10.3942  10.4081  11.7564
    12.0924  12.1094  12.9314  12.9789  12.9897  12.9920  13.1656  13.5593
    13.6838  13.6838  13.7541  13.7541  13.8156  16.4010  16.4010  18.7981
    23.8977  25.0964  26.2441  26.2441  28.2913  28.2913  28.9339  28.9340
    30.6530  36.0325  36.1163  37.0247  37.0248  37.3296  40.1124  40.1124
    41.2678  42.6004  43.5277  45.2287  46.3611  49.7838  50.4523  53.0906
    53.6661  55.3466  55.3467  56.3000

          k = 0.0000 0.0476 0.0952 (  1480 PWs)   bands (ev):

     7.1748   9.7420  10.4156  10.4642  10.6759  10.7291  10.7482  11.4755
    11.9832  12.1228  12.2382  12.3556  12.3811  12.8142  13.2355  13.3127
    13.3222  13.3447  13.4970  13.7507  13.7569  14.4343  18.0150  20.5807
    22.0786  24.6059  25.5015  26.5308  27.3981  29.6046  29.8992  29.9531
    31.0124  33.7212  34.4641  37.6769  38.6291  40.3870  40.5658  40.7442
    41.1159  44.0361  45.0280  47.0547  47.7823  48.5853  49.8903  51.3319
    52.9368  53.2576  54.8157  57.0950

          k =-0.0000 0.0476-0.1427 (  1484 PWs)   bands (ev):

     8.6227   8.6287  10.7627  10.7631  11.0664  11.0755  11.1863  11.1939
    11.3323  11.3414  12.1627  12.1724  12.7932  12.8004  13.0245  13.0277
    13.0460  13.0464  13.6604  13.6604  13.7477  13.7491  19.8794  19.8876
    22.8679  22.8826  25.4039  25.4151  28.3048  28.3085  31.4919  31.4968
    32.0160  32.0194  35.8122  35.8399  38.8247  38.8268  42.1970  42.2207
    43.1070  43.1158  45.9213  45.9529  50.0643  50.0926  50.3449  50.3583
    52.6045  52.6151  53.1961  53.2047

          k = 0.0000 0.0952 0.0952 (  1498 PWs)   bands (ev):

     8.1012  10.3295  10.3295  10.6955  10.9439  10.9440  10.9577  11.4056
    11.6526  11.6527  11.8072  12.1256  12.4864  12.7280  13.0196  13.1746
    13.1747  13.3148  13.3149  13.4848  13.7001  15.6801  15.6801  19.2981
    22.1071  25.1565  26.7742  26.7742  27.8936  27.8936  30.9823  31.6374
    31.6380  31.7343  33.6011  36.8353  41.5243  41.8777  41.8777  43.0724
    43.4091  43.7680  43.7681  47.1851  47.3275  48.4721  48.4722  51.6707
    52.1743  52.1874  53.1984  55.3464

          k =-0.0000 0.0952-0.1427 (  1482 PWs)   bands (ev):

     9.3657   9.3707  10.7974  10.8032  11.1931  11.2002  11.2069  11.2076
    11.3513  11.3598  11.8585  11.8649  12.8303  12.8333  12.8337  12.8377
    12.9000  12.9013  13.3476  13.3519  14.3609  14.3620  17.2081  17.2146
    24.2255  24.2366  26.2199  26.2289  28.6473  28.6526  29.5348  29.5359
    32.9453  32.9477  36.7747  36.8017  40.3591  40.3644  43.0444  43.0496
    43.2122  43.2147  46.7245  46.7503  47.9132  47.9289  50.4176  50.4320
    51.7471  51.7701  53.5568  53.5629

          k =-0.0000-0.1427-0.1427 (  1492 PWs)   bands (ev):

    10.2170  10.2213  10.2213  10.2255  11.3094  11.3174  11.3174  11.3255
    11.6243  11.6266  11.6266  11.6289  12.6866  12.6874  12.6874  12.6883
    12.9949  13.0015  13.0015  13.0082  15.4286  15.4316  15.4316  15.4347
    26.1975  26.2052  26.2053  26.2129  27.5708  27.5762  27.5762  27.5818
    37.8826  37.8900  37.8901  37.8976  38.4883  38.4973  38.4974  38.5060
    47.1753  47.1753  47.1753  47.1755  49.1731  49.1876  49.1877  49.2022
    51.8136  51.8148  51.8149  51.8160

          k = 0.0476 0.0476 0.0476 (  1466 PWs)   bands (ev):

     6.4990  10.0946  10.0946  10.0946  10.5087  10.5087  10.5087  11.7215
    12.1291  12.1291  12.6858  12.6858  12.6858  13.0788  13.0788  13.3259
    13.3260  13.3260  13.8697  13.8697  13.8697  17.0280  17.0281  17.0281
    25.3232  25.3232  25.3232  26.5891  26.5891  26.5891  31.1683  31.1683
    31.1683  33.4798  36.1638  36.1638  36.1638  39.2499  41.1348  41.1348
    42.8077  42.8078  42.8078  46.5891  47.6453  47.6453  51.6395  51.6395
    55.1079  55.2248  55.2249  55.2249

          k = 0.0476 0.0476 0.0952 (  1482 PWs)   bands (ev):

     7.4804   9.9007  10.4776  10.4776  10.7943  10.8224  10.8224  11.5121
    11.9736  11.9736  12.1685  12.2087  12.2685  12.9238  12.9943  13.0801
    13.0803  13.3184  13.7724  13.7724  13.8047  14.7961  18.3702  18.3702
    22.7043  22.7043  26.6167  27.2404  27.2405  30.3553  30.3553  30.7426
    30.9450  32.6478  36.6427  37.7739  37.8474  38.7876  38.7877  42.3575
    43.4998  44.4661  47.0172  47.0172  47.8793  49.0801  50.1972  50.1972
    50.6926  53.0138  53.0744  55.6538

          k = 0.0476 0.0476-0.1427 (  1472 PWs)   bands (ev):

     8.8500   8.8554  10.8647  10.8648  10.9227  10.9228  11.1618  11.1703
    11.5798  11.5798  12.0670  12.0765  12.5400  12.5432  12.9125  12.9125
    13.4845  13.4912  13.5936  13.5951  13.7164  13.7164  19.5190  19.5190
    21.1431  21.1431  28.2045  28.2049  28.4418  28.4452  28.9241  28.9246
    34.9306  34.9402  35.4035  35.4225  38.0818  38.1017  42.2010  42.2011
    44.7471  44.7578  45.3667  45.3667  49.4701  49.4851  50.8934  50.8986
    52.1813  52.1813  53.6782  54.0130

          k = 0.0476 0.0952 0.0952 (  1483 PWs)   bands (ev):

     8.3192  10.2184  10.2185  10.5046  11.1098  11.1557  11.1558  11.5572
    11.7697  11.7697  11.9029  12.1276  12.2535  12.7316  12.7317  12.7481
    13.0509  13.6058  13.6749  13.6903  13.6904  15.8108  15.8109  18.6221
    20.8008  23.9009  23.9009  27.9403  28.0513  31.1317  31.1318  32.1175
    32.1175  34.0140  35.2387  36.9062  39.3216  39.3216  40.1513  43.0337
    43.7331  44.7812  46.4599  46.4599  49.1889  49.1889  50.4144  50.5924
    50.9211  51.6145  52.2981  52.9232

          k = 0.0476 0.0952-0.1427 (  1486 PWs)   bands (ev):

     9.4007   9.4040  10.4392  10.4402  11.3230  11.3233  11.4679  11.4748
    11.7751  11.7780  11.8942  11.9005  12.4016  12.4039  12.6127  12.6142
    13.3467  13.3494  13.5742  13.5770  14.2673  14.2683  17.1858  17.1910
    21.8145  21.8186  25.6601  25.6630  29.4317  29.4343  33.0363  33.0374
    33.2492  33.2515  36.8909  36.9130  40.1320  40.1369  40.4408  40.4448
    45.1891  45.1909  45.6766  45.6872  47.6978  47.7035  50.5653  50.5742
    51.7849  51.7901  53.8952  53.9016

          k = 0.0476-0.1427-0.1427 (  1492 PWs)   bands (ev):

     9.9704   9.9718   9.9718   9.9731  11.7120  11.7142  11.7142  11.7164
    11.7967  11.8015  11.8015  11.8062  12.3719  12.3742  12.3742  12.3765
    13.3264  13.3306  13.3306  13.3348  15.3392  15.3425  15.3426  15.3459
    23.4472  23.4503  23.4503  23.4535  30.9696  30.9706  30.9706  30.9716
    38.1639  38.1701  38.1702  38.1771  38.3330  38.3412  38.3413  38.3485
    46.6521  46.6523  46.6523  46.6532  46.7474  46.7555  46.7556  46.7631
    54.8001  54.8062  54.8063  54.8130

          k = 0.0952 0.0952 0.0952 (  1463 PWs)   bands (ev):

     8.8630  10.0535  10.0535  10.0535  11.5142  11.5142  11.5142  12.0280
    12.0878  12.0878  12.0892  12.0956  12.0956  12.3776  12.3776  12.3776
    13.4536  13.4536  13.8184  13.8184  13.8185  16.1891  16.1892  16.1892
    21.4081  21.4081  21.4081  25.1482  32.4976  32.4976  32.4976  35.2413
    35.2414  35.2414  37.2712  37.2712  37.2712  37.7893  39.9487  39.9487
    44.4429  44.4429  47.7703  48.0634  48.0634  48.0635  48.1375  48.1375
    48.1375  52.4455  52.4456  52.4456

          k = 0.0952 0.0952-0.1427 (  1490 PWs)   bands (ev):

     9.4887   9.4896   9.9850   9.9850  11.6340  11.6340  11.9179  11.9231
    12.1368  12.1375  12.2569  12.2575  12.2697  12.2752  12.3722  12.3722
    13.7386  13.7392  13.7468  13.7469  14.1577  14.1580  16.4734  16.4735
    20.3791  20.3791  22.9644  22.9674  33.4133  33.4134  34.6246  34.6247
    36.3236  36.3328  37.2411  37.2461  38.9839  38.9997  39.4369  39.4369
    44.6501  44.6501  44.8973  44.9051  46.0136  46.0157  48.5486  48.5486
    49.6013  49.6046  52.9756  52.9758

          k = 0.0952-0.1427-0.1427 (  1488 PWs)   bands (ev):

     9.6647   9.6648   9.6648   9.6648  11.8786  11.8800  11.8800  11.8813
    12.0682  12.0697  12.0697  12.0712  12.8161  12.8191  12.8191  12.8221
    13.6647  13.6670  13.6670  13.6693  14.9622  14.9660  14.9660  14.9698
    21.0900  21.0926  21.0926  21.0952  35.1515  35.1528  35.1528  35.1541
    38.2125  38.2165  38.2166  38.2208  38.9332  38.9373  38.9374  38.9413
    44.0885  44.0921  44.0922  44.0957  45.1543  45.1552  45.1552  45.1561
    50.4159  50.4175  50.4175  50.4192

          k =-0.1427-0.1427-0.1427 (  1472 PWs)   bands (ev):

     9.5488   9.5488   9.5488   9.5488  11.9581  11.9581  11.9582  11.9582
    11.9582  11.9582  11.9582  11.9582  13.7943  13.7943  13.7943  13.7944
    13.7944  13.7944  13.7944  13.7944  14.2910  14.2911  14.2911  14.2912
    20.2114  20.2114  20.2115  20.2115  36.9481  36.9482  36.9483  36.9483
    39.5733  39.5733  39.5734  39.5735  39.5735  39.5735  39.5735  39.5736
    42.8013  42.8013  42.8013  42.8014  42.8014  42.8014  42.8014  42.8014
    48.7714  48.7715  48.7715  48.7715

          k =-0.0476 0.0000 0.0476 (  1460 PWs)   bands (ev):

     6.1533   9.9337   9.9337  10.0606  10.3942  10.3942  10.4081  11.7564
    12.0924  12.1094  12.9314  12.9789  12.9897  12.9920  13.1656  13.5593
    13.6838  13.6838  13.7541  13.7541  13.8156  16.4010  16.4010  18.7980
    23.8977  25.0963  26.2440  26.2441  28.2913  28.2913  28.9339  28.9340
    30.6532  36.0326  36.1162  37.0247  37.0248  37.3295  40.1123  40.1125
    41.2679  42.6003  43.5278  45.2288  46.3612  49.7839  50.4522  53.0906
    53.6661  55.3465  55.3466  56.3001

          k =-0.0476 0.0000 0.0952 (  1480 PWs)   bands (ev):

     7.1748   9.7421  10.4156  10.4642  10.6759  10.7291  10.7482  11.4755
    11.9832  12.1228  12.2382  12.3556  12.3811  12.8142  13.2356  13.3127
    13.3222  13.3447  13.4970  13.7507  13.7569  14.4343  18.0151  20.5807
    22.0785  24.6059  25.5016  26.5308  27.3981  29.6047  29.8992  29.9532
    31.0124  33.7212  34.4640  37.6769  38.6292  40.3871  40.5658  40.7442
    41.1159  44.0361  45.0281  47.0545  47.7824  48.5854  49.8902  51.3319
    52.9367  53.2575  54.8158  56.2007

          k =-0.0952 0.0000 0.0952 (  1498 PWs)   bands (ev):

     8.1012  10.3295  10.3295  10.6954  10.9439  10.9440  10.9577  11.4056
    11.6527  11.6527  11.8072  12.1256  12.4864  12.7280  13.0197  13.1746
    13.1747  13.3148  13.3149  13.4848  13.7001  15.6801  15.6801  19.2980
    22.1071  25.1565  26.7743  26.7743  27.8936  27.8937  30.9823  31.6373
    31.6379  31.7343  33.6012  36.8354  41.5243  41.8776  41.8776  43.0725
    43.4092  43.7679  43.7680  47.1852  47.3276  48.4720  48.4721  51.6705
    52.1744  52.1875  53.1984  55.3470

          k = 0.0476-0.0476 0.0476 (  1466 PWs)   bands (ev):

     6.4990  10.0946  10.0946  10.0946  10.5087  10.5087  10.5087  11.7215
    12.1290  12.1291  12.6858  12.6858  12.6859  13.0788  13.0788  13.3259
    13.3260  13.3260  13.8697  13.8697  13.8697  17.0281  17.0281  17.0281
    25.3232  25.3232  25.3233  26.5890  26.5891  26.5891  31.1683  31.1684
    31.1684  33.4797  36.1638  36.1639  36.1639  39.2499  41.1348  41.1350
    42.8076  42.8076  42.8077  46.5892  47.6453  47.6454  51.6395  51.6396
    55.1079  55.2247  55.2248  55.2249

          k = 0.0476-0.0476 0.0952 (  1482 PWs)   bands (ev):

     7.4804   9.9007  10.4776  10.4776  10.7943  10.8224  10.8224  11.5121
    11.9736  11.9736  12.1685  12.2087  12.2685  12.9238  12.9943  13.0801
    13.0803  13.3184  13.7724  13.7724  13.8047  14.7961  18.3702  18.3702
    22.7042  22.7043  26.6167  27.2404  27.2404  30.3553  30.3554  30.7424
    30.9450  32.6479  36.6427  37.7740  37.8475  38.7876  38.7878  42.3575
    43.4996  44.4662  47.0170  47.0171  47.8793  49.0801  50.1971  50.1973
    50.6927  53.0137  53.0744  55.6539

          k =-0.0952 0.0476 0.0476 (  1482 PWs)   bands (ev):

     7.4804   9.9007  10.4776  10.4776  10.7943  10.8224  10.8224  11.5121
    11.9736  11.9736  12.1685  12.2087  12.2685  12.9238  12.9943  13.0801
    13.0803  13.3184  13.7724  13.7724  13.8047  14.7961  18.3702  18.3702
    22.7042  22.7042  26.6168  27.2404  27.2404  30.3554  30.3554  30.7424
    30.9449  32.6478  36.6426  37.7739  37.8474  38.7877  38.7877  42.3576
    43.4997  44.4663  47.0170  47.0170  47.8794  49.0801  50.1972  50.1972
    50.6927  53.0136  53.0743  55.6537

          k = 0.0476-0.0476-0.1427 (  1472 PWs)   bands (ev):

     8.8500   8.8554  10.8646  10.8648  10.9227  10.9228  11.1618  11.1703
    11.5798  11.5798  12.0670  12.0765  12.5400  12.5432  12.9125  12.9125
    13.4845  13.4912  13.5936  13.5951  13.7164  13.7164  19.5190  19.5190
    21.1431  21.1432  28.2046  28.2049  28.4417  28.4452  28.9241  28.9246
    34.9307  34.9403  35.4036  35.4226  38.0819  38.1018  42.2010  42.2011
    44.7470  44.7577  45.3667  45.3668  49.4701  49.4850  50.8935  50.8987
    52.1812  52.1814  53.6782  54.0132

          k = 0.0952-0.0476 0.0952 (  1483 PWs)   bands (ev):

     8.3192  10.2184  10.2185  10.5046  11.1098  11.1557  11.1558  11.5572
    11.7697  11.7697  11.9029  12.1276  12.2534  12.7317  12.7317  12.7481
    13.0509  13.6058  13.6749  13.6903  13.6904  15.8108  15.8109  18.6221
    20.8008  23.9009  23.9009  27.9402  28.0512  31.1318  31.1318  32.1175
    32.1175  34.0140  35.2389  36.9062  39.3217  39.3218  40.1513  43.0337
    43.7331  44.7812  46.4598  46.4599  49.1888  49.1888  50.4143  50.5923
    50.9212  51.6145  52.2980  52.9231

          k =-0.0952 0.0476 0.0952 (  1483 PWs)   bands (ev):

     8.3192  10.2184  10.2185  10.5046  11.1098  11.1557  11.1558  11.5572
    11.7697  11.7697  11.9029  12.1276  12.2535  12.7317  12.7317  12.7481
    13.0509  13.6058  13.6749  13.6903  13.6904  15.8109  15.8109  18.6221
    20.8008  23.9009  23.9010  27.9402  28.0512  31.1317  31.1318  32.1174
    32.1175  34.0141  35.2388  36.9063  39.3216  39.3217  40.1514  43.0338
    43.7332  44.7813  46.4598  46.4598  49.1887  49.1888  50.4144  50.5925
    50.9211  51.6146  52.2979  52.9230

          k = 0.0952-0.0476-0.1427 (  1486 PWs)   bands (ev):

     9.4007   9.4040  10.4392  10.4402  11.3230  11.3233  11.4679  11.4748
    11.7751  11.7780  11.8942  11.9005  12.4016  12.4039  12.6127  12.6142
    13.3467  13.3494  13.5742  13.5770  14.2673  14.2683  17.1858  17.1911
    21.8145  21.8186  25.6600  25.6630  29.4317  29.4342  33.0364  33.0374
    33.2492  33.2515  36.8909  36.9130  40.1320  40.1369  40.4409  40.4448
    45.1891  45.1910  45.6766  45.6873  47.6978  47.7035  50.5652  50.5741
    51.7848  51.7900  53.8954  53.9023

          k = 0.0952-0.0952 0.0952 (  1463 PWs)   bands (ev):

     8.8630  10.0535  10.0535  10.0535  11.5142  11.5142  11.5142  12.0280
    12.0878  12.0878  12.0892  12.0956  12.0956  12.3776  12.3776  12.3776
    13.4536  13.4536  13.8184  13.8185  13.8185  16.1892  16.1892  16.1892
    21.4081  21.4081  21.4082  25.1481  32.4975  32.4975  32.4976  35.2413
    35.2414  35.2415  37.2711  37.2712  37.2713  37.7893  39.9487  39.9488
    44.4429  44.4430  47.7703  48.0633  48.0634  48.0635  48.1374  48.1375
    48.1375  52.4453  52.4454  52.4455

          k = 0.0952-0.0952-0.1427 (  1490 PWs)   bands (ev):

     9.4887   9.4896   9.9850   9.9850  11.6340  11.6340  11.9179  11.9231
    12.1368  12.1375  12.2570  12.2575  12.2697  12.2752  12.3722  12.3722
    13.7387  13.7392  13.7468  13.7469  14.1577  14.1580  16.4734  16.4735
    20.3791  20.3792  22.9643  22.9674  33.4133  33.4133  34.6245  34.6246
    36.3236  36.3328  37.2412  37.2462  38.9840  38.9997  39.4368  39.4370
    44.6500  44.6502  44.8973  44.9051  46.0137  46.0158  48.5485  48.5485
    49.6013  49.6046  52.9755  52.9757

 ------ SPIN DOWN ----------


          k = 0.0000 0.0000 0.0000 (  1419 PWs)   bands (ev):

     5.3750  10.1755  10.1755  10.1755  10.8847  10.8848  10.8848  12.8257
    12.8257  12.8257  13.9040  13.9040  14.6557  14.6558  14.6558  14.9409
    14.9409  14.9409  14.9410  14.9410  14.9410  16.9911  16.9911  16.9911
    24.1132  24.1133  24.1133  29.5514  29.5515  29.5515  29.5516  29.5516
    29.5517  34.8080  34.8080  34.8080  38.1309  38.1311  38.1311  38.2874
    42.4392  42.4392  42.4394  46.1406  46.1406  46.1408  48.0111  55.3525
    55.3525  55.3526  58.1413  59.4752

          k = 0.0000 0.0000 0.0476 (  1450 PWs)   bands (ev):

     5.7411  10.1511  10.3697  10.3697  11.0041  11.0086  11.0086  12.6837
    12.9321  12.9321  13.7764  13.9527  14.0977  14.0978  14.4887  14.4888
    14.6038  14.7483  14.7483  14.9413  14.9413  15.5392  18.1352  18.1352
    24.1940  24.1941  26.2587  27.8823  27.8823  28.4690  28.4691  30.1281
    30.1282  34.9115  36.8972  36.8972  37.7187  38.2604  40.0650  40.0651
    40.2892  40.2893  40.8436  47.5084  48.0982  48.0983  49.2169  51.5457
    56.4707  56.4708  56.5965  56.5965

          k = 0.0000 0.0000 0.0952 (  1458 PWs)   bands (ev):

     6.7946   9.7142  10.8311  10.8311  11.3371  11.3862  11.3863  12.3055
    12.9512  12.9513  13.2418  13.2418  13.4557  13.6758  14.0768  14.0768
    14.0874  14.2735  14.2735  14.4631  14.9419  14.9419  20.1758  20.1758
    24.4670  24.4670  25.1810  25.1810  26.7717  26.7718  30.4522  31.7416
    31.7417  35.2370  36.6902  37.0978  37.0979  38.2561  38.8172  40.8656
    40.8656  44.2081  44.2082  44.3591  50.8787  50.9495  50.9496  50.9738
    50.9738  54.9279  56.1787  56.1788

          k =-0.0000-0.0000-0.1427 (  1462 PWs)   bands (ev):

     8.3344   8.3411  11.1227  11.1228  11.8049  11.8149  12.0270  12.0271
    12.0366  12.0366  13.1819  13.1963  13.7141  13.7141  13.7214  13.7214
    13.8077  13.8077  14.2710  14.2764  14.9422  14.9422  22.5494  22.5494
    22.5661  22.5661  24.7908  24.7908  25.8854  25.8855  34.1418  34.1419
    34.1532  34.1533  34.8741  34.8989  35.8186  35.8254  40.4372  40.4763
    45.5994  45.5995  45.6338  45.6338  47.6883  47.6884  52.4766  52.4766
    54.0462  54.0463  54.0772  54.0772

          k = 0.0000 0.0476 0.0476 (  1460 PWs)   bands (ev):

     6.0996  10.3620  10.3620  10.5517  11.1080  11.1184  11.1185  12.6101
    12.9825  12.9869  13.6966  13.7355  13.7380  13.7525  13.9530  14.3503
    14.4764  14.4764  14.7472  14.7472  14.8179  16.7156  16.7156  18.9637
    24.1565  25.2261  26.4328  26.4328  28.3742  28.3743  28.9750  28.9751
    30.6641  36.1079  36.1366  37.0953  37.0954  37.3471  40.2303  40.2303
    41.1870  42.6878  43.4968  45.1723  46.4217  49.9426  50.3777  53.2629
    53.6321  55.3086  55.3087  56.2404

          k = 0.0000 0.0476 0.0952 (  1480 PWs)   bands (ev):

     7.1292   9.9647  10.8782  10.9965  11.3913  11.4240  11.4654  12.2977
    12.6748  12.8439  13.0371  13.0783  13.2580  13.5789  14.0008  14.0862
    14.1562  14.2426  14.2719  14.7442  14.7536  15.1437  18.3538  20.7848
    22.2772  24.8339  25.6532  26.6657  27.5234  29.7132  29.9610  30.0236
    31.1099  33.7993  34.5066  37.7189  38.6670  40.3386  40.5134  40.8641
    41.1155  44.1184  45.2326  47.1212  47.7048  48.5677  49.8744  51.2571
    52.8924  53.1670  55.0356  56.9870

          k =-0.0000 0.0476-0.1427 (  1484 PWs)   bands (ev):

     8.6281   8.6344  11.2659  11.2667  11.8484  11.8580  11.8644  11.8719
    12.0444  12.0537  12.9031  12.9143  13.7174  13.7249  13.7938  13.7953
    13.7974  13.7989  14.4991  14.4994  14.7420  14.7436  20.1608  20.1692
    23.0610  23.0758  25.5750  25.5871  28.4215  28.4259  31.6062  31.6106
    32.0742  32.0771  35.8375  35.8651  38.8262  38.8278  42.3493  42.3739
    43.0996  43.1094  45.8729  45.9053  50.1301  50.1579  50.2773  50.2907
    52.5207  52.5317  53.3641  53.3726

          k = 0.0000 0.0952 0.0952 (  1498 PWs)   bands (ev):

     8.0791  10.6028  10.6028  11.3599  11.4422  11.6798  11.6799  12.1998
    12.3461  12.3461  12.5197  12.9171  13.4020  13.4753  13.7735  13.9123
    13.9124  14.2760  14.2760  14.4658  14.5427  16.2855  16.2855  19.6058
    22.3264  25.3550  26.9411  26.9411  27.9948  27.9949  31.1133  31.7261
    31.7268  31.8020  33.6537  36.8711  41.4607  41.8595  41.8596  43.1072
    43.2918  43.8105  43.8106  47.3064  47.3568  48.5170  48.5171  51.7302
    52.0643  52.1291  53.4018  55.2492

          k =-0.0000 0.0952-0.1427 (  1482 PWs)   bands (ev):

     9.4269   9.4323  11.2172  11.2229  11.8455  11.8461  11.9569  11.9659
    12.0720  12.0808  12.5953  12.6024  13.5681  13.5682  13.6412  13.6424
    13.7645  13.7722  14.3162  14.3209  15.1671  15.1685  17.6724  17.6788
    24.4308  24.4417  26.3713  26.3812  28.8099  28.8146  29.6247  29.6263
    33.0169  33.0199  36.8023  36.8294  40.3583  40.3631  42.9904  42.9952
    43.2307  43.2329  46.6625  46.6888  47.9951  48.0115  50.3648  50.3795
    51.8680  51.8910  53.4716  53.4774

          k =-0.0000-0.1427-0.1427 (  1492 PWs)   bands (ev):

    10.4360  10.4407  10.4407  10.4454  12.0470  12.0556  12.0556  12.0641
    12.2934  12.2961  12.2961  12.2988  13.4245  13.4254  13.4254  13.4263
    13.9439  13.9509  13.9509  13.9579  16.1111  16.1137  16.1137  16.1163
    26.3931  26.4003  26.4003  26.4075  27.6937  27.6998  27.6999  27.7061
    37.9570  37.9642  37.9643  37.9717  38.4549  38.4634  38.4635  38.4715
    47.0550  47.0554  47.0554  47.0560  49.1620  49.1768  49.1770  49.1918
    51.9141  51.9160  51.9161  51.9180

          k = 0.0476 0.0476 0.0476 (  1466 PWs)   bands (ev):

     6.4482  10.5498  10.5498  10.5498  11.2095  11.2096  11.2096  12.5552
    13.0075  13.0075  13.3967  13.3967  13.3967  13.8654  13.8654  14.1573
    14.1574  14.1574  14.8183  14.8183  14.8183  17.3691  17.3692  17.3692
    25.4548  25.4548  25.4548  26.7624  26.7624  26.7625  31.1902  31.1903
    31.1903  33.5464  36.2587  36.2587  36.2587  39.0945  41.1874  41.1874
    42.8918  42.8919  42.8919  46.5018  47.6025  47.6025  51.8063  51.8063
    55.1781  55.1782  55.1782  56.0479

          k = 0.0476 0.0476 0.0952 (  1482 PWs)   bands (ev):

     7.4454  10.1634  11.0093  11.0094  11.4510  11.4511  11.5069  12.3080
    12.6762  12.6762  12.8414  13.0392  13.1291  13.7703  13.8044  13.8673
    13.8675  14.1410  14.7062  14.7359  14.7360  15.4266  18.6972  18.6972
    22.9145  22.9146  26.7610  27.3895  27.3895  30.4302  30.4303  30.8567
    31.0325  32.6944  36.7172  37.6797  37.9246  38.8179  38.8180  42.3652
    43.5801  44.4836  47.0614  47.0614  47.9213  49.0258  50.1861  50.1861
    50.6996  52.9432  53.0346  55.7689

          k = 0.0476 0.0476-0.1427 (  1472 PWs)   bands (ev):

     8.8844   8.8902  11.4370  11.4370  11.5042  11.5043  11.9125  11.9217
    12.2940  12.2940  12.8164  12.8270  13.3912  13.3938  13.6764  13.6764
    14.2892  14.2964  14.4554  14.4562  14.6884  14.6884  19.7763  19.7764
    21.4471  21.4471  28.3195  28.3199  28.5839  28.5870  29.0388  29.0394
    35.0001  35.0095  35.3765  35.3961  38.1591  38.1791  42.1824  42.1824
    44.8336  44.8452  45.3557  45.3557  49.3906  49.4056  50.8477  50.8530
    52.2148  52.2149  53.8573  54.0584

          k = 0.0476 0.0952 0.0952 (  1483 PWs)   bands (ev):

     8.3312  10.6113  10.6114  11.1232  11.6170  11.7578  11.7579  12.2841
    12.4900  12.4900  12.6149  12.9286  13.0779  13.5311  13.5314  13.5338
    13.8945  14.4550  14.6035  14.6037  14.6207  16.3643  16.3643  18.8969
    21.1447  24.1180  24.1180  28.1018  28.1795  31.1955  31.1956  32.2101
    32.2102  34.0688  35.2643  36.9314  39.3364  39.3364  40.0750  43.1474
    43.7248  44.7270  46.4539  46.4540  49.2436  49.2437  50.3461  50.5761
    50.8975  51.6872  52.3637  52.8502

          k = 0.0476 0.0952-0.1427 (  1486 PWs)   bands (ev):

     9.5497   9.5541  10.9738  10.9758  11.8772  11.8782  12.1137  12.1216
    12.4687  12.4723  12.6544  12.6614  13.2062  13.2080  13.3876  13.3888
    14.2116  14.2155  14.5102  14.5133  15.0603  15.0617  17.5970  17.6021
    22.1149  22.1186  25.8604  25.8629  29.5320  29.5352  33.0934  33.0938
    33.3180  33.3209  36.9041  36.9260  40.1165  40.1210  40.4633  40.4675
    45.1765  45.1780  45.6680  45.6793  47.6784  47.6849  50.6036  50.6124
    51.7245  51.7294  53.9691  53.9778

          k = 0.0476-0.1427-0.1427 (  1492 PWs)   bands (ev):

    10.3261  10.3288  10.3288  10.3313  12.2810  12.2848  12.2848  12.2886
    12.5001  12.5048  12.5048  12.5094  13.1496  13.1516  13.1516  13.1537
    14.2380  14.2429  14.2429  14.2477  15.9856  15.9884  15.9884  15.9912
    23.7054  23.7080  23.7081  23.7107  31.0517  31.0533  31.0533  31.0550
    38.2364  38.2414  38.2415  38.2493  38.2844  38.2931  38.2932  38.2989
    46.5840  46.5842  46.5842  46.5847  46.7726  46.7811  46.7812  46.7894
    54.8640  54.8705  54.8706  54.8779

          k = 0.0952 0.0952 0.0952 (  1463 PWs)   bands (ev):

     8.9962  10.5634  10.5634  10.5634  12.0733  12.0734  12.0734  12.5510
    12.7687  12.7687  12.7688  12.8958  12.8958  13.1689  13.1689  13.1689
    14.3348  14.3348  14.7463  14.7463  14.7463  16.6158  16.6159  16.6159
    21.7468  21.7468  21.7468  25.3736  32.5441  32.5441  32.5441  35.3028
    35.3029  35.3029  37.2839  37.2839  37.2839  37.6183  40.0349  40.0349
    44.4522  44.4522  47.7854  48.0118  48.0118  48.0120  48.1389  48.1390
    48.1390  52.4768  52.4769  52.4769

          k = 0.0952 0.0952-0.1427 (  1490 PWs)   bands (ev):

     9.8205   9.8225  10.5232  10.5232  12.2658  12.2659  12.5767  12.5819
    12.8234  12.8299  12.9292  12.9297  12.9722  12.9722  13.0364  13.0365
    14.6476  14.6485  14.6755  14.6756  14.8732  14.8744  16.8051  16.8051
    20.8162  20.8163  23.2541  23.2567  33.4212  33.4212  34.7107  34.7108
    36.2146  36.2244  37.3138  37.3184  39.0644  39.0800  39.4115  39.4116
    44.6766  44.6766  44.8744  44.8824  46.0218  46.0243  48.5085  48.5085
    49.6548  49.6581  53.0847  53.0848

          k = 0.0952-0.1427-0.1427 (  1488 PWs)   bands (ev):

    10.1350  10.1356  10.1356  10.1361  12.6118  12.6131  12.6131  12.6144
    12.8443  12.8457  12.8457  12.8471  13.2561  13.2596  13.2596  13.2631
    14.5827  14.5853  14.5853  14.5879  15.4946  15.4977  15.4977  15.5007
    21.4832  21.4854  21.4854  21.4876  35.1250  35.1269  35.1270  35.1289
    38.1820  38.1857  38.1857  38.1895  39.0027  39.0066  39.0067  39.0104
    44.1201  44.1242  44.1242  44.1282  45.1467  45.1479  45.1479  45.1490
    50.5063  50.5080  50.5080  50.5097

          k =-0.1427-0.1427-0.1427 (  1472 PWs)   bands (ev):

    10.0503  10.0503  10.0503  10.0503  12.7313  12.7313  12.7313  12.7313
    12.7313  12.7313  12.7314  12.7314  14.1917  14.1917  14.1917  14.1918
    14.7180  14.7180  14.7180  14.7181  14.7181  14.7181  14.7181  14.7181
    20.6938  20.6938  20.6938  20.6939  36.7639  36.7642  36.7642  36.7642
    39.6436  39.6436  39.6436  39.6437  39.6437  39.6437  39.6437  39.6438
    42.8316  42.8316  42.8317  42.8317  42.8317  42.8318  42.8318  42.8318
    48.8855  48.8855  48.8855  48.8856

          k =-0.0476 0.0000 0.0476 (  1460 PWs)   bands (ev):

     6.0996  10.3620  10.3620  10.5517  11.1079  11.1184  11.1185  12.6101
    12.9825  12.9869  13.6967  13.7355  13.7380  13.7525  13.9530  14.3503
    14.4764  14.4764  14.7472  14.7472  14.8179  16.7156  16.7156  18.9637
    24.1565  25.2260  26.4328  26.4329  28.3742  28.3743  28.9750  28.9751
    30.6643  36.1078  36.1367  37.0953  37.0954  37.3470  40.2302  40.2304
    41.1871  42.6877  43.4970  45.1723  46.4218  49.9426  50.3776  53.2629
    53.6320  55.3085  55.3086  56.2404

          k =-0.0476 0.0000 0.0952 (  1480 PWs)   bands (ev):

     7.1292   9.9647  10.8782  10.9965  11.3913  11.4240  11.4654  12.2977
    12.6748  12.8439  13.0371  13.0782  13.2580  13.5789  14.0008  14.0862
    14.1563  14.2426  14.2719  14.7442  14.7536  15.1437  18.3538  20.7848
    22.2771  24.8339  25.6533  26.6657  27.5234  29.7132  29.9611  30.0237
    31.1099  33.7993  34.5065  37.7189  38.6671  40.3386  40.5134  40.8640
    41.1155  44.1183  45.2327  47.1210  47.7048  48.5679  49.8743  51.2572
    52.8923  53.1669  55.0357  56.9869

          k =-0.0952 0.0000 0.0952 (  1498 PWs)   bands (ev):

     8.0791  10.6028  10.6029  11.3599  11.4421  11.6798  11.6799  12.1998
    12.3461  12.3461  12.5197  12.9171  13.4020  13.4753  13.7735  13.9123
    13.9124  14.2759  14.2760  14.4658  14.5427  16.2856  16.2856  19.6057
    22.3264  25.3550  26.9411  26.9412  27.9948  27.9949  31.1133  31.7261
    31.7268  31.8019  33.6538  36.8711  41.4608  41.8595  41.8595  43.1072
    43.2919  43.8104  43.8105  47.3065  47.3569  48.5169  48.5170  51.7301
    52.0643  52.1292  53.4019  55.2496

          k = 0.0476-0.0476 0.0476 (  1466 PWs)   bands (ev):

     6.4482  10.5498  10.5498  10.5498  11.2095  11.2096  11.2096  12.5552
    13.0074  13.0075  13.3967  13.3967  13.3968  13.8654  13.8654  14.1573
    14.1573  14.1574  14.8183  14.8183  14.8183  17.3691  17.3692  17.3692
    25.4547  25.4547  25.4548  26.7624  26.7624  26.7624  31.1903  31.1904
    31.1904  33.5463  36.2587  36.2588  36.2588  39.0945  41.1874  41.1876
    42.8917  42.8918  42.8919  46.5018  47.6025  47.6026  51.8063  51.8064
    55.1781  55.1782  55.1782  55.4456

          k = 0.0476-0.0476 0.0952 (  1482 PWs)   bands (ev):

     7.4454  10.1634  11.0093  11.0093  11.4510  11.4510  11.5069  12.3080
    12.6762  12.6762  12.8414  13.0392  13.1291  13.7703  13.8044  13.8673
    13.8675  14.1410  14.7062  14.7359  14.7360  15.4266  18.6972  18.6972
    22.9145  22.9146  26.7609  27.3895  27.3895  30.4303  30.4303  30.8566
    31.0325  32.6945  36.7172  37.6798  37.9247  38.8179  38.8181  42.3652
    43.5799  44.4836  47.0612  47.0613  47.9214  49.0259  50.1860  50.1861
    50.6997  52.9431  53.0346  55.7690

          k =-0.0952 0.0476 0.0476 (  1482 PWs)   bands (ev):

     7.4454  10.1634  11.0093  11.0094  11.4510  11.4510  11.5069  12.3080
    12.6762  12.6762  12.8414  13.0392  13.1291  13.7703  13.8044  13.8673
    13.8676  14.1410  14.7062  14.7359  14.7360  15.4266  18.6972  18.6972
    22.9145  22.9145  26.7610  27.3895  27.3895  30.4303  30.4304  30.8566
    31.0324  32.6944  36.7172  37.6797  37.9246  38.8180  38.8181  42.3652
    43.5800  44.4838  47.0612  47.0612  47.9215  49.0259  50.1860  50.1861
    50.6997  52.9430  53.0345  55.7689

          k = 0.0476-0.0476-0.1427 (  1472 PWs)   bands (ev):

     8.8844   8.8902  11.4370  11.4370  11.5042  11.5043  11.9125  11.9217
    12.2940  12.2940  12.8164  12.8270  13.3912  13.3938  13.6764  13.6765
    14.2892  14.2964  14.4554  14.4562  14.6884  14.6884  19.7763  19.7764
    21.4471  21.4472  28.3195  28.3198  28.5838  28.5869  29.0388  29.0394
    35.0002  35.0096  35.3765  35.3962  38.1591  38.1791  42.1823  42.1825
    44.8335  44.8451  45.3557  45.3558  49.3906  49.4056  50.8478  50.8530
    52.2147  52.2149  53.8573  54.0584

          k = 0.0952-0.0476 0.0952 (  1483 PWs)   bands (ev):

     8.3312  10.6113  10.6114  11.1232  11.6170  11.7578  11.7579  12.2841
    12.4900  12.4900  12.6149  12.9286  13.0779  13.5311  13.5314  13.5338
    13.8945  14.4550  14.6035  14.6037  14.6207  16.3643  16.3643  18.8969
    21.1448  24.1180  24.1180  28.1016  28.1794  31.1956  31.1956  32.2101
    32.2102  34.0687  35.2645  36.9314  39.3365  39.3366  40.0751  43.1475
    43.7248  44.7270  46.4539  46.4539  49.2435  49.2435  50.3460  50.5760
    50.8976  51.6871  52.3636  52.8502

          k =-0.0952 0.0476 0.0952 (  1483 PWs)   bands (ev):

     8.3312  10.6113  10.6114  11.1231  11.6170  11.7578  11.7579  12.2841
    12.4900  12.4900  12.6149  12.9286  13.0779  13.5311  13.5314  13.5338
    13.8946  14.4550  14.6035  14.6037  14.6207  16.3643  16.3644  18.8969
    21.1447  24.1180  24.1181  28.1016  28.1794  31.1955  31.1956  32.2101
    32.2101  34.0689  35.2643  36.9315  39.3364  39.3365  40.0751  43.1476
    43.7249  44.7270  46.4538  46.4539  49.2435  49.2436  50.3460  50.5761
    50.8975  51.6872  52.3635  52.8500

          k = 0.0952-0.0476-0.1427 (  1486 PWs)   bands (ev):

     9.5497   9.5541  10.9738  10.9758  11.8772  11.8782  12.1137  12.1215
    12.4687  12.4723  12.6544  12.6614  13.2062  13.2080  13.3876  13.3888
    14.2116  14.2155  14.5102  14.5133  15.0603  15.0617  17.5970  17.6021
    22.1150  22.1187  25.8603  25.8628  29.5320  29.5351  33.0935  33.0939
    33.3180  33.3209  36.9041  36.9260  40.1165  40.1210  40.4634  40.4676
    45.1765  45.1781  45.6681  45.6793  47.6783  47.6848  50.6035  50.6124
    51.7244  51.7293  53.9691  53.9778

          k = 0.0952-0.0952 0.0952 (  1463 PWs)   bands (ev):

     8.9962  10.5634  10.5634  10.5634  12.0733  12.0734  12.0734  12.5510
    12.7687  12.7687  12.7689  12.8957  12.8958  13.1689  13.1689  13.1690
    14.3348  14.3349  14.7463  14.7463  14.7464  16.6158  16.6158  16.6159
    21.7467  21.7468  21.7468  25.3735  32.5439  32.5440  32.5440  35.3029
    35.3030  35.3030  37.2838  37.2840  37.2840  37.6184  40.0349  40.0350
    44.4522  44.4523  47.7855  48.0117  48.0118  48.0120  48.1389  48.1390
    48.1390  52.4766  52.4767  52.4768

          k = 0.0952-0.0952-0.1427 (  1490 PWs)   bands (ev):

     9.8205   9.8225  10.5232  10.5232  12.2658  12.2658  12.5767  12.5819
    12.8233  12.8299  12.9292  12.9297  12.9722  12.9722  13.0364  13.0365
    14.6476  14.6485  14.6755  14.6756  14.8732  14.8744  16.8051  16.8051
    20.8163  20.8163  23.2540  23.2566  33.4211  33.4212  34.7107  34.7107
    36.2146  36.2244  37.3139  37.3185  39.0644  39.0800  39.4115  39.4117
    44.6765  44.6767  44.8744  44.8824  46.0219  46.0244  48.5083  48.5084
    49.6548  49.6581  53.0845  53.0847

     the Fermi energy is    14.4911 ev

!    total energy              =    -343.63019484 Ry
     Harris-Foulkes estimate   =    -343.63019393 Ry
     estimated scf accuracy    <          4.0E-12 Ry

     The total energy is the sum of the following terms:

     one-electron contribution =      -6.39507281 Ry
     hartree contribution      =      60.35298617 Ry
     xc contribution           =    -120.51404406 Ry
     ewald contribution        =    -277.02565185 Ry
     Dispersion Correction     =      -0.04783835 Ry
     smearing contrib. (-TS)   =      -0.00057394 Ry

     total magnetization       =     2.84 Bohr mag/cell
     absolute magnetization    =     3.25 Bohr mag/cell

     convergence has been achieved in  17 iterations

     Forces acting on atoms (Ry/au):

     atom    1 type  1   force =    -0.00072008   -0.00072008    0.00072031
     atom    2 type  1   force =     0.00071985    0.00071985    0.00071985
     atom    3 type  1   force =    -0.00072008    0.00072031   -0.00072008
     atom    4 type  1   force =     0.00072031   -0.00072008   -0.00072008

     Total force =     0.002494     Total SCF correction =     0.000001


     entering subroutine stress ...

          total   stress  (Ry/bohr**3)                   (kbar)     P=   -0.04
  -0.00000025   0.00000001   0.00000001         -0.04      0.00      0.00
   0.00000001  -0.00000025   0.00000001          0.00     -0.04      0.00
   0.00000001   0.00000001  -0.00000025          0.00      0.00     -0.04


     Writing output data file Ni-ferromag.save

     init_run     :     22.61s CPU     23.26s WALL (       2 calls)
     electrons    :   2604.27s CPU   2688.75s WALL (       8 calls)
     update_pot   :     33.18s CPU     33.29s WALL (       6 calls)
     forces       :     56.33s CPU     56.73s WALL (       8 calls)
     stress       :    109.88s CPU    111.40s WALL (       8 calls)

     Called by init_run:
     wfcinit      :     16.31s CPU     16.87s WALL (       2 calls)
     potinit      :      1.80s CPU      1.83s WALL (       2 calls)

     Called by electrons:
     c_bands      :   2206.51s CPU   2273.82s WALL (      99 calls)
     sum_band     :    340.92s CPU    354.26s WALL (      99 calls)
     v_of_rho     :     29.38s CPU     30.52s WALL (     104 calls)
     newd         :     29.23s CPU     31.68s WALL (     104 calls)
     mix_rho      :      1.68s CPU      2.01s WALL (      99 calls)

     Called by c_bands:
     init_us_2    :     16.06s CPU     17.63s WALL (   13824 calls)
     cegterg      :   2149.92s CPU   2216.35s WALL (    6336 calls)

     Called by sum_band:
     sum_band:bec :      1.08s CPU      1.06s WALL (    6336 calls)
     addusdens    :     43.76s CPU     46.19s WALL (      99 calls)

     Called by *egterg:
     h_psi        :   1153.60s CPU   1196.64s WALL (   17432 calls)
     s_psi        :    159.07s CPU    159.31s WALL (   17432 calls)
     g_psi        :      6.86s CPU      6.86s WALL (   10968 calls)
     cdiaghg      :    165.11s CPU    165.16s WALL (   16728 calls)

     Called by h_psi:
     add_vuspsi   :    159.34s CPU    159.49s WALL (   17432 calls)

     General routines
     calbec       :    283.34s CPU    283.61s WALL (   26328 calls)
     fft          :     10.19s CPU     11.21s WALL (    3520 calls)
     ffts         :      0.32s CPU      0.36s WALL (     406 calls)
     fftw         :    865.47s CPU    918.54s WALL ( 1784326 calls)
     interpolate  :      1.60s CPU      2.00s WALL (     406 calls)

     Parallel routines
     fft_scatter  :     48.52s CPU     62.68s WALL ( 1788252 calls)

     PWSCF        : 47m 9.63s CPU    48m37.13s WALL


   This run was terminated on:   2:48:18  27May2016            

=------------------------------------------------------------------------------=
   JOB DONE.
=------------------------------------------------------------------------------=
