
     Program PWSCF v.5.3.0 (svn rev. 11974) starts on 27May2016 at  2:48:18 

     This program is part of the open-source Quantum ESPRESSO suite
     for quantum simulation of materials; please cite
         "P. Giannozzi et al., J. Phys.:Condens. Matter 21 395502 (2009);
          URL http://www.quantum-espresso.org", 
     in publications or presentations arising from this work. More details at
     http://www.quantum-espresso.org/quote

     Parallel version (MPI), running on     1 processors
     Waiting for input...
     Reading input from standard input
     Message from routine read_cards :
     DEPRECATED: no units specified in CELL_PARAMETERS card

     Current dimensions of program PWSCF are:
     Max number of different atomic species (ntypx) = 10
     Max number of k-points (npk) =  40000
     Max angular momentum in pseudopotentials (lmaxx) =  3
               file Ni.pbe-nd-rrkjus.UPF: wavefunction(s)  4S renormalized

     -------------------------------------
     Parameters for Dispersion Correction:
     -------------------------------------
       atom      VdW radius       C_6     

        Ni1        3.014        159.927

     Subspace diagonalization in iterative solution of the eigenvalue problem:
     a serial algorithm will be used


     G-vector sticks info
     --------------------
     sticks:   dense  smooth     PW     G-vecs:    dense   smooth      PW
     Sum        1413     697    221                39847    13997    2469

     Generating pointlists ...
     new r_m :   0.4125 (alat units)  0.7795 (a.u.) for type    1

     Title: 
     Ni-ferro-mag                                                               


     bravais-lattice index     =            0
     lattice parameter (alat)  =       1.8897  a.u.
     unit-cell volume          =     295.0010 (a.u.)^3
     number of atoms/cell      =            4
     number of atomic types    =            1
     number of electrons       =        40.00
     number of Kohn-Sham states=           52
     kinetic-energy cutoff     =      50.0000  Ry
     charge density cutoff     =     400.0000  Ry
     convergence threshold     =      1.0E-08
     mixing beta               =       0.2000
     number of iterations used =            8  plain     mixing
     Exchange-correlation      =  SLA  PW   PBE  PBE ( 1  4  3  4 0 0)
     nstep                     =           50


     celldm(1)=   1.889726  celldm(2)=   0.000000  celldm(3)=   0.000000
     celldm(4)=   0.000000  celldm(5)=   0.000000  celldm(6)=   0.000000

     crystal axes: (cart. coord. in units of alat)
               a(1) = (   3.522700   0.000000   0.000000 )  
               a(2) = (   0.000000   3.522700   0.000000 )  
               a(3) = (   0.000000   0.000000   3.522700 )  

     reciprocal axes: (cart. coord. in units 2 pi/alat)
               b(1) = (  0.283873  0.000000  0.000000 )  
               b(2) = (  0.000000  0.283873  0.000000 )  
               b(3) = (  0.000000  0.000000  0.283873 )  


     PseudoPot. # 1 for Ni read from file:
     /home/eliot/pseudo/Ni.pbe-nd-rrkjus.UPF
     MD5 check sum: 8081f0a005c9a5470caab1a58e82ecb2
     Pseudo is Ultrasoft + core correction, Zval = 10.0
     Generated by new atomic code, or converted to UPF format
     Using radial grid of 1203 points,  6 beta functions with: 
                l(1) =   0
                l(2) =   0
                l(3) =   1
                l(4) =   1
                l(5) =   2
                l(6) =   2
     Q(r) pseudized with 0 coefficients 


     atomic species   valence    mass     pseudopotential
        Ni1           10.00    58.69340     Ni( 1.00)

     Starting magnetic structure 
     atomic species   magnetization
        Ni1          0.500

      6 Sym. Ops. (no inversion) found



   Cartesian axes

     site n.     atom                  positions (alat units)
         1           Ni1 tau(   1) = (   1.7691699   1.7691699   0.0000000  )
         2           Ni1 tau(   2) = (   0.0000000   0.0000000   0.0000000  )
         3           Ni1 tau(   3) = (   1.7691699   0.0000000   1.7691699  )
         4           Ni1 tau(   4) = (   0.0000000   1.7691699   1.7691699  )

     number of k points=    32  Methfessel-Paxton smearing, width (Ry)=  0.0500
                       cart. coord. in units 2pi/alat
        k(    1) = (   0.0000000   0.0000000   0.0000000), wk =   0.0046296
        k(    2) = (   0.0000000   0.0000000   0.0473122), wk =   0.0277778
        k(    3) = (   0.0000000   0.0000000   0.0946244), wk =   0.0277778
        k(    4) = (   0.0000000   0.0000000  -0.1419366), wk =   0.0138889
        k(    5) = (   0.0000000   0.0473122   0.0473122), wk =   0.0277778
        k(    6) = (   0.0000000   0.0473122   0.0946244), wk =   0.0555556
        k(    7) = (   0.0000000   0.0473122  -0.1419366), wk =   0.0555556
        k(    8) = (   0.0000000   0.0946244   0.0946244), wk =   0.0277778
        k(    9) = (   0.0000000   0.0946244  -0.1419366), wk =   0.0555556
        k(   10) = (   0.0000000  -0.1419366  -0.1419366), wk =   0.0138889
        k(   11) = (   0.0473122   0.0473122   0.0473122), wk =   0.0092593
        k(   12) = (   0.0473122   0.0473122   0.0946244), wk =   0.0277778
        k(   13) = (   0.0473122   0.0473122  -0.1419366), wk =   0.0277778
        k(   14) = (   0.0473122   0.0946244   0.0946244), wk =   0.0277778
        k(   15) = (   0.0473122   0.0946244  -0.1419366), wk =   0.0555556
        k(   16) = (   0.0473122  -0.1419366  -0.1419366), wk =   0.0277778
        k(   17) = (   0.0946244   0.0946244   0.0946244), wk =   0.0092593
        k(   18) = (   0.0946244   0.0946244  -0.1419366), wk =   0.0277778
        k(   19) = (   0.0946244  -0.1419366  -0.1419366), wk =   0.0277778
        k(   20) = (  -0.1419366  -0.1419366  -0.1419366), wk =   0.0046296
        k(   21) = (  -0.0473122   0.0000000   0.0473122), wk =   0.0277778
        k(   22) = (  -0.0473122   0.0000000   0.0946244), wk =   0.0555556
        k(   23) = (  -0.0946244   0.0000000   0.0946244), wk =   0.0277778
        k(   24) = (   0.0473122  -0.0473122   0.0473122), wk =   0.0277778
        k(   25) = (   0.0473122  -0.0473122   0.0946244), wk =   0.0555556
        k(   26) = (  -0.0946244   0.0473122   0.0473122), wk =   0.0277778
        k(   27) = (   0.0473122  -0.0473122  -0.1419366), wk =   0.0277778
        k(   28) = (   0.0946244  -0.0473122   0.0946244), wk =   0.0277778
        k(   29) = (  -0.0946244   0.0473122   0.0946244), wk =   0.0555556
        k(   30) = (   0.0946244  -0.0473122  -0.1419366), wk =   0.0555556
        k(   31) = (   0.0946244  -0.0946244   0.0946244), wk =   0.0277778
        k(   32) = (   0.0946244  -0.0946244  -0.1419366), wk =   0.0277778

     Dense  grid:    39847 G-vectors     FFT dimensions: (  45,  45,  45)

     Smooth grid:    13997 G-vectors     FFT dimensions: (  30,  30,  30)

     Largest allocated arrays     est. size (Mb)     dimensions
        Kohn-Sham Wavefunctions         1.42 Mb     (    1791,   52)
        NL pseudopotentials             1.97 Mb     (    1791,   72)
        Each V/rho on FFT grid          2.78 Mb     (   91125,   2)
        Each G-vector array             0.30 Mb     (   39847)
        G-vector shells                 0.30 Mb     (   39847)
     Largest temporary arrays     est. size (Mb)     dimensions
        Auxiliary wavefunctions         5.68 Mb     (    1791,  208)
        Each subspace H/S matrix        0.66 Mb     (     208,  208)
        Each <psi_i|beta_j> matrix      0.06 Mb     (      72,   52)
        Arrays for rho mixing          11.12 Mb     (   91125,    8)

     Check: negative/imaginary core charge=   -0.000005    0.000000

     Initial potential from superposition of free atoms

     starting charge   39.99816, renormalised to   40.00000
     Starting wfc are   24 randomized atomic wfcs +   28 random wfc

     total cpu time spent up to now is       14.5 secs

     Self-consistent Calculation

     iteration #  1     ecut=    50.00 Ry     beta=0.20
     Davidson diagonalization with overlap
     ethr =  1.00E-02,  avg # of iterations =  6.2

     total cpu time spent up to now is       81.8 secs

     total energy              =    -342.90142592 Ry
     Harris-Foulkes estimate   =    -343.18543020 Ry
     estimated scf accuracy    <       2.43731603 Ry

     total magnetization       =     6.91 Bohr mag/cell
     absolute magnetization    =     6.92 Bohr mag/cell

     iteration #  2     ecut=    50.00 Ry     beta=0.20
     Davidson diagonalization with overlap
     ethr =  6.09E-03,  avg # of iterations =  1.0

     total cpu time spent up to now is      108.3 secs

     total energy              =    -343.20634523 Ry
     Harris-Foulkes estimate   =    -343.04080458 Ry
     estimated scf accuracy    <       0.77203828 Ry

     total magnetization       =     5.77 Bohr mag/cell
     absolute magnetization    =     5.87 Bohr mag/cell

     iteration #  3     ecut=    50.00 Ry     beta=0.20
     Davidson diagonalization with overlap
     ethr =  1.93E-03,  avg # of iterations =  1.6

     total cpu time spent up to now is      135.4 secs

     total energy              =    -343.53583656 Ry
     Harris-Foulkes estimate   =    -343.27843781 Ry
     estimated scf accuracy    <       0.36092792 Ry

     total magnetization       =     4.53 Bohr mag/cell
     absolute magnetization    =     4.85 Bohr mag/cell

     iteration #  4     ecut=    50.00 Ry     beta=0.20
     Davidson diagonalization with overlap
     ethr =  9.02E-04,  avg # of iterations =  1.7

     total cpu time spent up to now is      162.7 secs

     total energy              =    -343.61667764 Ry
     Harris-Foulkes estimate   =    -343.65304370 Ry
     estimated scf accuracy    <       0.12758544 Ry

     total magnetization       =     2.54 Bohr mag/cell
     absolute magnetization    =     3.17 Bohr mag/cell

     iteration #  5     ecut=    50.00 Ry     beta=0.20
     Davidson diagonalization with overlap
     ethr =  3.19E-04,  avg # of iterations =  1.1

     total cpu time spent up to now is      189.3 secs

     total energy              =    -343.62339569 Ry
     Harris-Foulkes estimate   =    -343.62750971 Ry
     estimated scf accuracy    <       0.01428937 Ry

     total magnetization       =     2.62 Bohr mag/cell
     absolute magnetization    =     3.23 Bohr mag/cell

     iteration #  6     ecut=    50.00 Ry     beta=0.20
     Davidson diagonalization with overlap
     ethr =  3.57E-05,  avg # of iterations =  4.0

     total cpu time spent up to now is      219.8 secs

     total energy              =    -343.62623572 Ry
     Harris-Foulkes estimate   =    -343.62729081 Ry
     estimated scf accuracy    <       0.00208972 Ry

     total magnetization       =     2.72 Bohr mag/cell
     absolute magnetization    =     3.31 Bohr mag/cell

     iteration #  7     ecut=    50.00 Ry     beta=0.20
     Davidson diagonalization with overlap
     ethr =  5.22E-06,  avg # of iterations =  3.0

     total cpu time spent up to now is      248.8 secs

     total energy              =    -343.62914023 Ry
     Harris-Foulkes estimate   =    -343.62806551 Ry
     estimated scf accuracy    <       0.00169413 Ry

     total magnetization       =     3.03 Bohr mag/cell
     absolute magnetization    =     3.52 Bohr mag/cell

     iteration #  8     ecut=    50.00 Ry     beta=0.20
     Davidson diagonalization with overlap
     ethr =  4.24E-06,  avg # of iterations =  1.3

     total cpu time spent up to now is      275.6 secs

     total energy              =    -343.62951818 Ry
     Harris-Foulkes estimate   =    -343.62948703 Ry
     estimated scf accuracy    <       0.00007149 Ry

     total magnetization       =     2.91 Bohr mag/cell
     absolute magnetization    =     3.37 Bohr mag/cell

     iteration #  9     ecut=    50.00 Ry     beta=0.20
     Davidson diagonalization with overlap
     ethr =  1.79E-07,  avg # of iterations =  1.6

     total cpu time spent up to now is      302.8 secs

     total energy              =    -343.62953257 Ry
     Harris-Foulkes estimate   =    -343.62955054 Ry
     estimated scf accuracy    <       0.00004010 Ry

     total magnetization       =     2.87 Bohr mag/cell
     absolute magnetization    =     3.32 Bohr mag/cell

     iteration # 10     ecut=    50.00 Ry     beta=0.20
     Davidson diagonalization with overlap
     ethr =  1.00E-07,  avg # of iterations =  1.0

     total cpu time spent up to now is      329.3 secs

     total energy              =    -343.62955685 Ry
     Harris-Foulkes estimate   =    -343.62954633 Ry
     estimated scf accuracy    <       0.00001623 Ry

     total magnetization       =     2.89 Bohr mag/cell
     absolute magnetization    =     3.33 Bohr mag/cell

     iteration # 11     ecut=    50.00 Ry     beta=0.20
     Davidson diagonalization with overlap
     ethr =  4.06E-08,  avg # of iterations =  1.0

     total cpu time spent up to now is      355.8 secs

     total energy              =    -343.62956499 Ry
     Harris-Foulkes estimate   =    -343.62956340 Ry
     estimated scf accuracy    <       0.00000230 Ry

     total magnetization       =     2.88 Bohr mag/cell
     absolute magnetization    =     3.31 Bohr mag/cell

     iteration # 12     ecut=    50.00 Ry     beta=0.20
     Davidson diagonalization with overlap
     ethr =  5.76E-09,  avg # of iterations =  1.0

     total cpu time spent up to now is      382.2 secs

     total energy              =    -343.62956655 Ry
     Harris-Foulkes estimate   =    -343.62956626 Ry
     estimated scf accuracy    <       0.00000033 Ry

     total magnetization       =     2.87 Bohr mag/cell
     absolute magnetization    =     3.30 Bohr mag/cell

     iteration # 13     ecut=    50.00 Ry     beta=0.20
     Davidson diagonalization with overlap
     ethr =  8.16E-10,  avg # of iterations =  1.7

     Magnetic moment per site:
     atom:    1    charge:    3.0544    magn:    0.3439    constr:    0.0000
     atom:    2    charge:    3.0527    magn:    0.3438    constr:    0.0000
     atom:    3    charge:    3.0544    magn:    0.3439    constr:    0.0000
     atom:    4    charge:    3.0544    magn:    0.3439    constr:    0.0000

     total cpu time spent up to now is      409.4 secs

     End of self-consistent calculation

 ------ SPIN UP ------------


          k = 0.0000 0.0000 0.0000 (  1791 PWs)   bands (ev):

     5.2289   9.4938   9.4938   9.4938   9.9342   9.9348   9.9348  11.6679
    11.6679  11.6679  12.8176  12.8176  13.5175  13.5175  13.5175  13.6031
    13.6031  13.6031  13.6034  13.6034  13.6034  16.7428  16.7430  16.7430
    23.3391  23.3391  23.3391  29.0912  29.0913  29.0913  29.0915  29.0915
    29.0915  34.1022  34.1022  34.1026  37.3461  37.3462  37.3462  38.0317
    41.8749  41.8749  41.8749  45.3843  45.3843  45.3843  47.5696  54.3401
    54.3401  54.3401  57.2511  58.5603

          k = 0.0000 0.0000 0.0473 (  1779 PWs)   bands (ev):

     5.5905   9.5131   9.6742   9.6742  10.0424  10.0575  10.0579  11.5429
    11.7677  11.7677  12.7024  12.8626  12.9703  12.9705  13.3677  13.3677
    13.4327  13.4327  13.4693  13.6036  13.6037  15.1468  17.6790  17.6792
    23.4380  23.4380  25.5828  27.3493  27.3496  27.9635  27.9635  29.6428
    29.6428  34.2206  36.2638  36.2641  37.3770  37.4766  39.2927  39.2928
    39.6488  39.6488  40.3560  46.8133  47.4737  47.4737  48.4057  50.8790
    55.3996  55.3997  55.9780  55.9785

          k = 0.0000 0.0000 0.0946 (  1783 PWs)   bands (ev):

     6.6279   9.2772  10.1020  10.1020  10.3424  10.4308  10.4315  11.2085
    11.9400  11.9408  12.0568  12.0568  12.4235  12.9886  12.9904  12.9904
    13.0033  13.0152  13.0152  13.3387  13.6042  13.6042  19.6089  19.6091
    23.7663  23.7664  24.5997  24.5998  26.1891  26.1891  29.8637  31.1978
    31.1978  34.5905  36.2204  36.4515  36.4515  37.8321  38.0185  40.2804
    40.2808  43.3967  43.4276  43.4277  50.2427  50.3924  50.3925  50.4108
    50.4108  54.3350  55.2820  55.2821

          k = 0.0000 0.0000-0.1419 (  1750 PWs)   bands (ev):

     8.1033   8.1260  10.3724  10.3724  10.7501  10.7818  11.0468  11.0470
    11.0784  11.0786  12.2294  12.2739  12.4850  12.4850  12.5088  12.5088
    12.7599  12.7600  13.1535  13.1711  13.6044  13.6044  21.9356  21.9357
    21.9918  21.9919  24.1632  24.1632  25.2228  25.2228  33.5226  33.5226
    33.5627  33.5627  34.3680  34.4502  35.2402  35.2587  39.5038  39.6344
    44.9897  44.9899  45.1029  45.1032  46.9029  46.9029  51.5762  51.5763
    53.4701  53.4701  53.5753  53.5753

          k = 0.0000 0.0473 0.0473 (  1773 PWs)   bands (ev):

     5.9439   9.7076   9.7076   9.8336  10.1565  10.1570  10.1703  11.4848
    11.8116  11.8283  12.6328  12.6670  12.6893  12.7016  12.8591  13.2434
    13.3643  13.3643  13.4310  13.4313  13.4911  16.0554  16.0554  18.4343
    23.4483  24.6343  25.7737  25.7740  27.8190  27.8190  28.4465  28.4471
    30.1618  35.4708  35.5993  36.4726  36.4730  36.7722  39.4617  39.4623
    40.7142  41.9449  42.9235  44.6227  45.6814  49.0068  49.8075  52.2842
    53.0109  54.6584  54.6595  55.6131

          k = 0.0000 0.0473 0.0946 (  1759 PWs)   bands (ev):

     6.9541   9.5095  10.1802  10.2280  10.4314  10.4838  10.5018  11.2117
    11.7070  11.8432  11.9548  12.0681  12.0956  12.5174  12.9285  12.9945
    13.0177  13.0349  13.1836  13.4269  13.4347  14.1033  17.6424  20.1896
    21.6671  24.1311  25.0543  26.0847  26.8878  29.1159  29.4125  29.4656
    30.4855  33.2005  33.9304  37.1249  38.0549  39.8312  40.0106  40.0864
    40.5354  43.3647  44.2796  46.3631  47.1624  47.9218  49.2232  50.6749
    52.2586  52.6004  54.0646  55.5560

          k = 0.0000 0.0473-0.1419 (  1760 PWs)   bands (ev):

     8.3824   8.4037  10.5203  10.5218  10.8001  10.8308  10.9206  10.9465
    11.0615  11.0923  11.8706  11.9034  12.4855  12.5098  12.7171  12.7278
    12.7451  12.7466  13.3412  13.3415  13.4231  13.4280  19.4747  19.5034
    22.4302  22.4809  24.9250  24.9621  27.8058  27.8175  30.9771  30.9948
    31.5015  31.5142  35.2393  35.3347  38.2677  38.2755  41.4786  41.5582
    42.4883  42.5169  45.2673  45.3744  49.3008  49.3983  49.6799  49.7252
    51.9267  51.9616  52.4871  52.5169

          k = 0.0000 0.0946 0.0946 (  1746 PWs)   bands (ev):

     7.8714  10.0873  10.0875  10.4492  10.6917  10.6931  10.7105  11.1444
    11.3846  11.3848  11.5358  11.8465  12.1953  12.4335  12.7185  12.8682
    12.8687  13.0039  13.0043  13.1695  13.3800  15.3280  15.3280  18.9092
    21.6946  24.6821  26.3096  26.3096  27.4157  27.4163  30.4796  31.1096
    31.1159  31.2277  33.0657  36.2833  40.9617  41.2942  41.2945  42.4389
    42.8503  43.1211  43.1212  46.4565  46.6556  47.7844  47.7853  50.9483
    51.5038  51.5321  52.4696  54.6636

          k = 0.0000 0.0946-0.1419 (  1746 PWs)   bands (ev):

     9.1196   9.1371  10.5390  10.5589  10.9223  10.9416  10.9571  10.9642
    11.0811  11.1098  11.5792  11.6007  12.5196  12.5356  12.5371  12.5434
    12.6039  12.6070  13.0304  13.0451  14.0252  14.0290  16.8297  16.8522
    23.7740  23.8127  25.7334  25.7634  28.1577  28.1767  29.0387  29.0417
    32.4126  32.4198  36.1866  36.2791  39.7706  39.7898  42.4551  42.4734
    42.5827  42.5914  46.0742  46.1615  47.1860  47.2385  49.7385  49.7868
    50.9656  51.0461  52.8759  52.8974

          k = 0.0000-0.1419-0.1419 (  1740 PWs)   bands (ev):

     9.9596   9.9747   9.9747   9.9893  11.0300  11.0573  11.0574  11.0844
    11.3546  11.3625  11.3625  11.3701  12.3911  12.3935  12.3935  12.3966
    12.6762  12.6988  12.6988  12.7211  15.0694  15.0800  15.0800  15.0907
    25.7171  25.7443  25.7443  25.7710  27.0760  27.0936  27.0936  27.1121
    37.2714  37.2972  37.2972  37.3242  37.9212  37.9544  37.9544  37.9831
    46.5750  46.5750  46.5764  46.5768  48.4728  48.5216  48.5216  48.5699
    51.0312  51.0346  51.0347  51.0373

          k = 0.0473 0.0473 0.0473 (  1791 PWs)   bands (ev):

     6.2857   9.8649   9.8650   9.8650  10.2682  10.2690  10.2690  11.4511
    11.8473  11.8473  12.3931  12.3931  12.3933  12.7743  12.7743  13.0154
    13.0159  13.0159  13.5440  13.5440  13.5441  16.6710  16.6712  16.6712
    24.8802  24.8804  24.8804  26.1046  26.1046  26.1049  30.6689  30.6693
    30.6693  32.9599  35.6027  35.6027  35.6031  38.7559  40.5185  40.5185
    42.1514  42.1514  42.1514  45.9790  47.0120  47.0120  50.8233  50.8233
    54.4876  54.5256  54.5267  54.5268

          k = 0.0473 0.0473 0.0946 (  1762 PWs)   bands (ev):

     7.2569   9.6658  10.2384  10.2387  10.5470  10.5761  10.5764  11.2477
    11.6975  11.6976  11.8834  11.9303  11.9842  12.6229  12.6907  12.7763
    12.7784  13.0083  13.4491  13.4491  13.4812  14.4607  17.9949  17.9950
    22.2750  22.2750  26.1513  26.7613  26.7615  29.8504  29.8506  30.2391
    30.4436  32.1272  36.0789  37.2597  37.2726  38.2142  38.2142  41.7457
    42.8377  43.8282  46.3357  46.3358  47.1852  48.4372  49.5258  49.5259
    50.0029  52.3484  52.3818  54.8116

          k = 0.0473 0.0473-0.1419 (  1752 PWs)   bands (ev):

     8.6092   8.6281  10.6123  10.6136  10.6770  10.6773  10.8958  10.9245
    11.3141  11.3142  11.7777  11.8099  12.2447  12.2557  12.6130  12.6135
    13.1632  13.1858  13.2741  13.2790  13.3947  13.3947  19.1396  19.1397
    20.7160  20.7161  27.7373  27.7418  27.9500  27.9661  28.4074  28.4142
    34.3666  34.4003  34.8812  34.9463  37.4629  37.5309  41.6081  41.6081
    44.0545  44.0897  44.7347  44.7350  48.8120  48.8625  50.2185  50.2363
    51.4399  51.4401  52.9818  52.9923

          k = 0.0473 0.0946 0.0946 (  1759 PWs)   bands (ev):

     8.0890   9.9782   9.9785  10.2612  10.8590  10.9017  10.9022  11.2919
    11.4982  11.4985  11.6291  11.8483  11.9697  12.4358  12.4363  12.4529
    12.7481  13.2880  13.3527  13.3698  13.3717  15.4604  15.4605  18.2542
    20.3729  23.4551  23.4551  27.4484  27.5769  30.6439  30.6441  31.5791
    31.5796  33.4735  34.7091  36.3567  38.7462  38.7465  39.6113  42.3606
    43.1192  44.1745  45.8098  45.8098  48.4884  48.4889  49.7493  49.9113
    50.2279  50.8628  51.5912  52.2449

          k = 0.0473 0.0946-0.1419 (  1754 PWs)   bands (ev):

     9.1598   9.1717  10.1939  10.1974  11.0663  11.0674  11.1971  11.2204
    11.5014  11.5110  11.6139  11.6351  12.1114  12.1194  12.3190  12.3241
    13.0326  13.0416  13.2534  13.2627  13.9351  13.9385  16.8167  16.8351
    21.3770  21.3916  25.1924  25.2032  28.9394  28.9470  32.5181  32.5230
    32.7135  32.7203  36.3141  36.3906  39.5533  39.5706  39.8413  39.8542
    44.5557  44.5623  45.0260  45.0615  47.0323  47.0508  49.8447  49.8749
    51.1005  51.1187  53.1411  53.1694

          k = 0.0473-0.1419-0.1419 (  1752 PWs)   bands (ev):

     9.7274   9.7328   9.7328   9.7374  11.4378  11.4456  11.4457  11.4527
    11.5177  11.5331  11.5331  11.5489  12.0803  12.0881  12.0881  12.0959
    13.0054  13.0195  13.0195  13.0337  14.9847  14.9963  14.9963  15.0081
    22.9925  23.0040  23.0041  23.0155  30.4663  30.4686  30.4686  30.4713
    37.5520  37.5727  37.5727  37.5986  37.7771  37.8082  37.8082  37.8312
    46.0263  46.0263  46.0304  46.0341  46.0626  46.0938  46.0938  46.1137
    54.0021  54.0201  54.0201  54.0449

          k = 0.0946 0.0946 0.0946 (  1757 PWs)   bands (ev):

     8.6327   9.8166   9.8172   9.8172  11.2526  11.2532  11.2532  11.7524
    11.8039  11.8039  11.8138  11.8228  11.8228  12.0911  12.0911  12.0916
    13.1395  13.1395  13.4942  13.4942  13.4944  15.8440  15.8441  15.8441
    20.9744  20.9744  20.9745  24.6863  31.9919  31.9919  31.9923  34.6849
    34.6853  34.6853  36.7186  36.7186  36.7191  37.3226  39.3291  39.3291
    43.8086  43.8086  47.0936  47.4191  47.4191  47.4208  47.4666  47.4669
    47.4669  51.6986  51.6993  51.6994

          k = 0.0946 0.0946-0.1419 (  1748 PWs)   bands (ev):

     9.2559   9.2593   9.7498   9.7502  11.3684  11.3688  11.6378  11.6554
    11.8554  11.8579  11.9697  11.9745  11.9871  12.0046  12.0912  12.0918
    13.4155  13.4173  13.4243  13.4258  13.8342  13.8356  16.1347  16.1348
    19.9444  19.9445  22.5147  22.5257  32.9197  32.9198  34.0588  34.0594
    35.8359  35.8672  36.6520  36.6702  38.3530  38.4070  38.8755  38.8756
    44.0040  44.0042  44.2654  44.2918  45.3596  45.3655  47.8931  47.8931
    48.8845  48.8961  52.2405  52.2423

          k = 0.0946-0.1419-0.1419 (  1764 PWs)   bands (ev):

     9.4337   9.4344   9.4344   9.4344  11.6020  11.6068  11.6068  11.6111
    11.7862  11.7910  11.7910  11.7962  12.5211  12.5310  12.5310  12.5411
    13.3392  13.3469  13.3469  13.3546  14.6263  14.6396  14.6396  14.6528
    20.6466  20.6558  20.6558  20.6651  34.6424  34.6456  34.6456  34.6491
    37.6578  37.6718  37.6718  37.6867  38.3185  38.3343  38.3343  38.3474
    43.4395  43.4511  43.4512  43.4622  44.5172  44.5199  44.5199  44.5221
    49.6874  49.6924  49.6924  49.6986

          k =-0.1419-0.1419-0.1419 (  1736 PWs)   bands (ev):

     9.3210   9.3216   9.3216   9.3217  11.6820  11.6820  11.6820  11.6822
    11.6822  11.6827  11.6827  11.6827  13.4699  13.4699  13.4699  13.4708
    13.4708  13.4710  13.4710  13.4710  14.0047  14.0054  14.0055  14.0055
    19.7740  19.7740  19.7740  19.7742  36.4959  36.4960  36.4960  36.4961
    38.9595  38.9595  38.9596  38.9597  38.9597  38.9605  38.9605  38.9605
    42.1766  42.1766  42.1769  42.1769  42.1769  42.1773  42.1773  42.1773
    48.0456  48.0456  48.0456  48.0460

          k =-0.0473 0.0000 0.0473 (  1773 PWs)   bands (ev):

     5.9439   9.7076   9.7076   9.8336  10.1565  10.1570  10.1703  11.4848
    11.8116  11.8283  12.6328  12.6670  12.6893  12.7016  12.8591  13.2434
    13.3642  13.3643  13.4310  13.4313  13.4911  16.0554  16.0554  18.4343
    23.4483  24.6343  25.7737  25.7740  27.8189  27.8190  28.4465  28.4471
    30.1618  35.4708  35.5993  36.4726  36.4730  36.7722  39.4617  39.4623
    40.7142  41.9449  42.9235  44.6227  45.6814  49.0068  49.8075  52.2842
    53.0109  54.6584  54.6595  55.6131

          k =-0.0473 0.0000 0.0946 (  1759 PWs)   bands (ev):

     6.9541   9.5095  10.1802  10.2280  10.4314  10.4838  10.5018  11.2117
    11.7070  11.8432  11.9548  12.0681  12.0956  12.5174  12.9285  12.9945
    13.0177  13.0349  13.1836  13.4269  13.4347  14.1033  17.6424  20.1896
    21.6671  24.1311  25.0543  26.0847  26.8878  29.1159  29.4125  29.4656
    30.4855  33.2005  33.9304  37.1249  38.0549  39.8312  40.0106  40.0864
    40.5354  43.3647  44.2796  46.3631  47.1624  47.9218  49.2232  50.6749
    52.2586  52.6004  54.0646  55.5560

          k =-0.0946 0.0000 0.0946 (  1746 PWs)   bands (ev):

     7.8714  10.0873  10.0874  10.4492  10.6917  10.6931  10.7105  11.1444
    11.3847  11.3848  11.5358  11.8465  12.1953  12.4335  12.7185  12.8682
    12.8687  13.0039  13.0043  13.1695  13.3800  15.3280  15.3280  18.9092
    21.6946  24.6821  26.3095  26.3097  27.4157  27.4163  30.4796  31.1096
    31.1159  31.2277  33.0657  36.2833  40.9617  41.2942  41.2945  42.4389
    42.8503  43.1211  43.1212  46.4565  46.6556  47.7844  47.7853  50.9483
    51.5038  51.5321  52.4696  54.6523

          k = 0.0473-0.0473 0.0473 (  1791 PWs)   bands (ev):

     6.2857   9.8649   9.8650   9.8650  10.2682  10.2690  10.2690  11.4511
    11.8473  11.8473  12.3931  12.3931  12.3933  12.7743  12.7743  13.0154
    13.0159  13.0159  13.5440  13.5440  13.5441  16.6710  16.6711  16.6712
    24.8802  24.8804  24.8804  26.1046  26.1046  26.1049  30.6690  30.6693
    30.6693  32.9599  35.6027  35.6027  35.6031  38.7559  40.5185  40.5185
    42.1514  42.1514  42.1515  45.9790  47.0120  47.0120  50.8233  50.8233
    54.4875  54.5257  54.5267  54.5268

          k = 0.0473-0.0473 0.0946 (  1762 PWs)   bands (ev):

     7.2569   9.6658  10.2384  10.2387  10.5470  10.5761  10.5764  11.2477
    11.6975  11.6976  11.8834  11.9303  11.9842  12.6229  12.6907  12.7763
    12.7784  13.0083  13.4491  13.4491  13.4812  14.4607  17.9949  17.9950
    22.2750  22.2750  26.1513  26.7614  26.7614  29.8504  29.8506  30.2391
    30.4436  32.1272  36.0789  37.2597  37.2726  38.2142  38.2142  41.7457
    42.8377  43.8282  46.3357  46.3358  47.1852  48.4372  49.5258  49.5260
    50.0029  52.3484  52.3818  54.8120

          k =-0.0946 0.0473 0.0473 (  1762 PWs)   bands (ev):

     7.2569   9.6658  10.2384  10.2387  10.5470  10.5761  10.5764  11.2477
    11.6975  11.6976  11.8834  11.9303  11.9842  12.6229  12.6907  12.7763
    12.7784  13.0083  13.4491  13.4491  13.4812  14.4607  17.9949  17.9950
    22.2750  22.2750  26.1513  26.7613  26.7615  29.8504  29.8506  30.2391
    30.4436  32.1272  36.0789  37.2597  37.2726  38.2142  38.2142  41.7457
    42.8377  43.8282  46.3357  46.3358  47.1852  48.4372  49.5258  49.5259
    50.0029  52.3484  52.3818  54.8116

          k = 0.0473-0.0473-0.1419 (  1752 PWs)   bands (ev):

     8.6092   8.6281  10.6123  10.6136  10.6770  10.6773  10.8958  10.9245
    11.3141  11.3142  11.7777  11.8099  12.2447  12.2557  12.6130  12.6134
    13.1632  13.1858  13.2741  13.2790  13.3947  13.3947  19.1396  19.1397
    20.7160  20.7161  27.7373  27.7417  27.9500  27.9661  28.4074  28.4142
    34.3666  34.4003  34.8812  34.9463  37.4629  37.5309  41.6080  41.6082
    44.0545  44.0897  44.7347  44.7350  48.8120  48.8625  50.2185  50.2363
    51.4399  51.4401  52.9817  52.9922

          k = 0.0946-0.0473 0.0946 (  1759 PWs)   bands (ev):

     8.0890   9.9782   9.9785  10.2612  10.8590  10.9017  10.9022  11.2919
    11.4982  11.4985  11.6291  11.8483  11.9697  12.4358  12.4363  12.4529
    12.7481  13.2880  13.3527  13.3698  13.3717  15.4604  15.4605  18.2542
    20.3729  23.4551  23.4551  27.4484  27.5769  30.6439  30.6441  31.5791
    31.5796  33.4735  34.7091  36.3567  38.7462  38.7465  39.6113  42.3606
    43.1192  44.1745  45.8098  45.8098  48.4884  48.4889  49.7493  49.9113
    50.2279  50.8628  51.5912  52.2451

          k =-0.0946 0.0473 0.0946 (  1759 PWs)   bands (ev):

     8.0890   9.9782   9.9785  10.2612  10.8590  10.9017  10.9022  11.2919
    11.4982  11.4985  11.6291  11.8483  11.9697  12.4358  12.4363  12.4529
    12.7481  13.2880  13.3527  13.3698  13.3717  15.4604  15.4604  18.2542
    20.3729  23.4551  23.4551  27.4484  27.5769  30.6439  30.6441  31.5791
    31.5796  33.4735  34.7091  36.3567  38.7462  38.7465  39.6113  42.3606
    43.1192  44.1745  45.8098  45.8098  48.4884  48.4889  49.7493  49.9113
    50.2279  50.8628  51.5912  52.2448

          k = 0.0946-0.0473-0.1419 (  1754 PWs)   bands (ev):

     9.1598   9.1717  10.1939  10.1974  11.0663  11.0674  11.1971  11.2204
    11.5014  11.5110  11.6139  11.6351  12.1114  12.1194  12.3190  12.3241
    13.0326  13.0416  13.2534  13.2627  13.9351  13.9385  16.8167  16.8351
    21.3770  21.3916  25.1924  25.2032  28.9394  28.9470  32.5181  32.5230
    32.7135  32.7203  36.3141  36.3906  39.5533  39.5706  39.8413  39.8542
    44.5557  44.5623  45.0260  45.0615  47.0323  47.0508  49.8447  49.8749
    51.1005  51.1187  53.1379  53.1665

          k = 0.0946-0.0946 0.0946 (  1757 PWs)   bands (ev):

     8.6327   9.8166   9.8172   9.8172  11.2526  11.2532  11.2532  11.7524
    11.8039  11.8039  11.8139  11.8228  11.8228  12.0911  12.0911  12.0916
    13.1395  13.1395  13.4942  13.4942  13.4943  15.8440  15.8441  15.8441
    20.9744  20.9744  20.9745  24.6863  31.9919  31.9919  31.9924  34.6849
    34.6852  34.6853  36.7185  36.7186  36.7192  37.3226  39.3291  39.3291
    43.8086  43.8086  47.0936  47.4191  47.4191  47.4209  47.4666  47.4669
    47.4669  51.6986  51.6993  51.6995

          k = 0.0946-0.0946-0.1419 (  1748 PWs)   bands (ev):

     9.2559   9.2593   9.7498   9.7502  11.3684  11.3688  11.6378  11.6554
    11.8554  11.8579  11.9697  11.9745  11.9871  12.0046  12.0912  12.0918
    13.4155  13.4173  13.4243  13.4258  13.8342  13.8356  16.1347  16.1348
    19.9444  19.9445  22.5147  22.5257  32.9197  32.9199  34.0588  34.0594
    35.8359  35.8672  36.6520  36.6702  38.3530  38.4070  38.8755  38.8756
    44.0039  44.0043  44.2654  44.2918  45.3596  45.3655  47.8931  47.8932
    48.8845  48.8961  52.2405  52.2423

 ------ SPIN DOWN ----------


          k = 0.0000 0.0000 0.0000 (  1791 PWs)   bands (ev):

     5.1726   9.9643   9.9643   9.9643  10.6613  10.6621  10.6621  12.5575
    12.5575  12.5575  13.6083  13.6083  14.3424  14.3425  14.3425  14.6216
    14.6216  14.6216  14.6220  14.6220  14.6220  16.6616  16.6619  16.6619
    23.6463  23.6464  23.6464  29.0764  29.0764  29.0764  29.0767  29.0767
    29.0768  34.2641  34.2641  34.2644  37.4884  37.4886  37.4886  37.8216
    41.8475  41.8475  41.8475  45.4553  45.4553  45.4553  47.4057  54.5236
    54.5236  54.5236  57.7757  58.5886

          k = 0.0000 0.0000 0.0473 (  1779 PWs)   bands (ev):

     5.5342   9.9358  10.1550  10.1550  10.7785  10.7821  10.7826  12.4192
    12.6614  12.6614  13.4834  13.6551  13.8007  13.8012  14.1796  14.1796
    14.2918  14.4341  14.4341  14.6222  14.6222  15.2181  17.7822  17.7824
    23.7300  23.7300  25.7844  27.4167  27.4170  27.9901  27.9902  29.6444
    29.6444  34.3699  36.3426  36.3428  37.2353  37.6164  39.4109  39.4109
    39.6924  39.6924  40.2868  46.8307  47.4457  47.4457  48.4829  50.8552
    55.6066  55.6066  55.9016  55.9022

          k = 0.0000 0.0000 0.0946 (  1783 PWs)   bands (ev):

     6.5758   9.4862  10.6078  10.6078  11.1040  11.1498  11.1507  12.0507
    12.6785  12.6794  12.9636  12.9636  13.1700  13.3836  13.7776  13.7776
    13.7875  13.9718  13.9718  14.1547  14.6228  14.6228  19.7915  19.7918
    24.0132  24.0133  24.7388  24.7389  26.2868  26.2869  29.9588  31.2337
    31.2337  34.7020  36.1833  36.5227  36.5227  37.7405  38.1621  40.2839
    40.2843  43.5252  43.5253  43.6141  50.1945  50.3127  50.3127  50.3168
    50.3168  54.2239  55.5015  55.5016

          k = 0.0000 0.0000-0.1419 (  1750 PWs)   bands (ev):

     8.0946   8.1181  10.8942  10.8942  11.5481  11.5822  11.7645  11.7652
    11.7970  11.7976  12.8861  12.9348  13.4136  13.4136  13.4385  13.4385
    13.5204  13.5204  13.9605  13.9787  14.6231  14.6231  22.1147  22.1149
    22.1722  22.1723  24.3587  24.3588  25.3814  25.3814  33.5869  33.5869
    33.6269  33.6269  34.3455  34.4301  35.2871  35.3096  39.6936  39.8265
    44.9419  44.9422  45.0580  45.0583  46.9761  46.9762  51.7542  51.7542
    53.3562  53.3562  53.4614  53.4614

          k = 0.0000 0.0473 0.0473 (  1773 PWs)   bands (ev):

     5.8885  10.1431  10.1432  10.3336  10.8788  10.8895  10.8901  12.3475
    12.7106  12.7147  13.4076  13.4314  13.4473  13.4742  13.6570  14.0450
    14.1678  14.1678  14.4328  14.4329  14.5023  16.3700  16.3700  18.5967
    23.7097  24.7614  25.9621  25.9625  27.9005  27.9005  28.4867  28.4874
    30.1718  35.5723  35.5921  36.5411  36.5416  36.7907  39.5779  39.5785
    40.6301  42.0301  42.8948  44.5616  45.7405  49.1620  49.7294  52.4593
    52.9600  54.6147  54.6159  55.5504

          k = 0.0000 0.0473 0.0946 (  1759 PWs)   bands (ev):

     6.9068   9.7335  10.6508  10.7699  11.1538  11.1884  11.2276  12.0431
    12.4073  12.5736  12.7564  12.8083  12.9794  13.2925  13.7043  13.7861
    13.8549  13.9405  13.9701  14.4294  14.4402  14.8199  17.9815  20.3913
    21.8644  24.3600  25.2042  26.2180  27.0134  29.2228  29.4743  29.5334
    30.5833  33.2775  33.9733  37.1649  38.0915  39.7811  39.9556  40.2036
    40.5331  43.4458  44.4849  46.4270  47.0813  47.9016  49.2041  50.5980
    52.2108  52.5058  54.2690  55.7850

          k = 0.0000 0.0473-0.1419 (  1760 PWs)   bands (ev):

     8.3859   8.4081  11.0321  11.0350  11.5835  11.6137  11.6141  11.6416
    11.7822  11.8139  12.6192  12.6571  13.4167  13.4412  13.4964  13.5025
    13.5106  13.5134  14.1896  14.1907  14.4261  14.4316  19.7556  19.7848
    22.6212  22.6723  25.0947  25.1348  27.9212  27.9351  31.0903  31.1063
    31.5600  31.5711  35.2636  35.3589  38.2684  38.2742  41.6279  41.7103
    42.4786  42.5106  45.2161  45.3259  49.3653  49.4610  49.6097  49.6554
    51.8393  51.8757  52.6426  52.6722

          k = 0.0000 0.0946 0.0946 (  1746 PWs)   bands (ev):

     7.8476  10.3635  10.3636  11.1217  11.2038  11.4363  11.4378  11.9476
    12.0876  12.0877  12.2571  12.6477  13.1196  13.1913  13.4831  13.6169
    13.6175  13.9736  13.9738  14.1594  14.2325  15.9387  15.9388  19.2171
    21.9117  24.8808  26.4744  26.4745  27.5163  27.5169  30.6089  31.1971
    31.2041  31.2959  33.1175  36.3176  40.8950  41.2744  41.2747  42.4759
    42.7306  43.1631  43.1631  46.5745  46.6832  47.8253  47.8263  51.0032
    51.4072  51.4562  52.6593  54.5631

          k = 0.0000 0.0946-0.1419 (  1746 PWs)   bands (ev):

     9.1792   9.1983  10.9650  10.9849  11.5986  11.6002  11.6985  11.7286
    11.8106  11.8406  12.3250  12.3489  13.2812  13.2819  13.3505  13.3539
    13.4669  13.4926  14.0075  14.0233  14.8401  14.8449  17.2968  17.3188
    23.9775  24.0154  25.8834  25.9162  28.3191  28.3361  29.1276  29.1322
    32.4826  32.4919  36.2136  36.3065  39.7692  39.7863  42.4001  42.4171
    42.6007  42.6085  46.0098  46.0989  47.2637  47.3187  49.6824  49.7321
    51.0817  51.1617  52.7884  52.8087

          k = 0.0000-0.1419-0.1419 (  1740 PWs)   bands (ev):

    10.1784  10.1954  10.1954  10.2119  11.7747  11.8040  11.8040  11.8328
    12.0330  12.0421  12.0421  12.0510  13.1395  13.1423  13.1423  13.1457
    13.6331  13.6568  13.6568  13.6804  15.7598  15.7689  15.7689  15.7778
    25.9116  25.9372  25.9372  25.9622  27.1971  27.2168  27.2168  27.2375
    37.3460  37.3708  37.3708  37.3976  37.8874  37.9189  37.9190  37.9453
    46.4529  46.4529  46.4530  46.4561  48.4588  48.5087  48.5088  48.5585
    51.1291  51.1351  51.1352  51.1403

          k = 0.0473 0.0473 0.0473 (  1791 PWs)   bands (ev):

     6.2332  10.3278  10.3279  10.3279  10.9775  10.9785  10.9785  12.2939
    12.7346  12.7346  13.1133  13.1133  13.1133  13.5714  13.5714  13.8569
    13.8574  13.8574  14.5018  14.5018  14.5022  17.0125  17.0127  17.0127
    25.0100  25.0103  25.0103  26.2780  26.2780  26.2784  30.6897  30.6902
    30.6902  33.0259  35.6962  35.6962  35.6966  38.5974  40.5721  40.5721
    42.2333  42.2333  42.2333  45.8878  46.9659  46.9659  50.9896  50.9896
    54.4769  54.4781  54.4781  54.8099

          k = 0.0473 0.0473 0.0946 (  1762 PWs)   bands (ev):

     7.2201   9.9302  10.7790  10.7792  11.2121  11.2129  11.2689  12.0527
    12.4090  12.4090  12.5686  12.7674  12.8540  13.4790  13.5099  13.5737
    13.5769  13.8412  14.3921  14.4217  14.4223  15.0979  18.3221  18.3223
    22.4841  22.4842  26.2941  26.9098  26.9099  29.9243  29.9246  30.3520
    30.5306  32.1728  36.1519  37.1769  37.3366  38.2432  38.2432  41.7559
    42.9156  43.8421  46.3784  46.3784  47.2251  48.3814  49.5110  49.5113
    50.0045  52.2727  52.3409  54.9253

          k = 0.0473 0.0473-0.1419 (  1752 PWs)   bands (ev):

     8.6413   8.6618  11.2002  11.2003  11.2601  11.2613  11.6545  11.6858
    12.0371  12.0375  12.5356  12.5715  13.1061  13.1151  13.3873  13.3878
    13.9768  14.0011  14.1468  14.1493  14.3756  14.3758  19.3958  19.3959
    21.0201  21.0202  27.8509  27.8551  28.0905  28.1058  28.5221  28.5295
    34.4355  34.4687  34.8517  34.9189  37.5402  37.6087  41.5882  41.5883
    44.1370  44.1753  44.7224  44.7228  48.7291  48.7797  50.1719  50.1898
    51.4718  51.4719  53.1397  53.1568

          k = 0.0473 0.0946 0.0946 (  1759 PWs)   bands (ev):

     8.0990  10.3745  10.3748  10.8872  11.3755  11.5124  11.5132  12.0281
    12.2278  12.2282  12.3501  12.6588  12.8039  13.2443  13.2459  13.2499
    13.6014  14.1472  14.2907  14.2927  14.3116  16.0184  16.0186  18.5279
    20.7174  23.6708  23.6708  27.6050  27.7079  30.7063  30.7065  31.6715
    31.6720  33.5275  34.7355  36.3804  38.7596  38.7600  39.5302  42.4762
    43.1085  44.1189  45.8029  45.8029  48.5391  48.5396  49.6802  49.8940
    50.2038  50.9331  51.6480  52.1694

          k = 0.0473 0.0946-0.1419 (  1754 PWs)   bands (ev):

     9.3063   9.3218  10.7332  10.7401  11.6295  11.6328  11.8508  11.8774
    12.2031  12.2153  12.3825  12.4062  12.9266  12.9327  13.1043  13.1086
    13.9056  13.9187  14.1981  14.2087  14.7365  14.7412  17.2298  17.2474
    21.6772  21.6903  25.3918  25.4009  29.0381  29.0480  32.5759  32.5785
    32.7806  32.7895  36.3268  36.4024  39.5368  39.5528  39.8619  39.8759
    44.5420  44.5476  45.0157  45.0532  47.0103  47.0315  49.8795  49.9097
    51.0386  51.0561  53.2164  53.2517

          k = 0.0473-0.1419-0.1419 (  1752 PWs)   bands (ev):

    10.0819  10.0917  10.0917  10.1008  12.0139  12.0271  12.0271  12.0399
    12.2284  12.2440  12.2440  12.2596  12.8687  12.8755  12.8755  12.8826
    13.9248  13.9410  13.9411  13.9576  15.6383  15.6482  15.6482  15.6578
    23.2507  23.2605  23.2605  23.2702  30.5463  30.5506  30.5507  30.5555
    37.6248  37.6407  37.6407  37.6701  37.7275  37.7609  37.7610  37.7781
    45.9593  45.9594  45.9611  45.9632  46.0855  46.1154  46.1154  46.1405
    54.0630  54.0818  54.0819  54.1090

          k = 0.0946 0.0946 0.0946 (  1757 PWs)   bands (ev):

     8.7639  10.3317  10.3323  10.3323  11.8214  11.8219  11.8219  12.2854
    12.4992  12.4992  12.5011  12.6268  12.6268  12.8923  12.8923  12.8928
    14.0304  14.0304  14.4315  14.4315  14.4319  16.2725  16.2728  16.2728
    21.3127  21.3127  21.3128  24.9103  32.0383  32.0383  32.0387  34.7457
    34.7462  34.7462  36.7292  36.7292  36.7297  37.1477  39.4152  39.4152
    43.8172  43.8172  47.1072  47.3647  47.3647  47.3667  47.4673  47.4677
    47.4677  51.7281  51.7288  51.7288

          k = 0.0946 0.0946-0.1419 (  1748 PWs)   bands (ev):

     9.5872   9.5948  10.2940  10.2944  12.0106  12.0110  12.3066  12.3241
    12.5451  12.5672  12.6574  12.6593  12.7001  12.7002  12.7632  12.7633
    14.3341  14.3369  14.3622  14.3633  14.5560  14.5598  16.4646  16.4648
    20.3835  20.3836  22.8039  22.8134  32.9268  32.9269  34.1447  34.1454
    35.7241  35.7574  36.7246  36.7416  38.4334  38.4870  38.8480  38.8481
    44.0294  44.0298  44.2396  44.2663  45.3667  45.3741  47.8507  47.8508
    48.9363  48.9477  52.3413  52.3431

          k = 0.0946-0.1419-0.1419 (  1764 PWs)   bands (ev):

     9.9070   9.9096   9.9096   9.9115  12.3455  12.3501  12.3501  12.3544
    12.5724  12.5769  12.5769  12.5819  12.9688  12.9806  12.9806  12.9924
    14.2660  14.2747  14.2747  14.2836  15.1613  15.1721  15.1722  15.1826
    21.0412  21.0490  21.0490  21.0568  34.6161  34.6217  34.6217  34.6277
    37.6232  37.6357  37.6357  37.6492  38.3885  38.4036  38.4036  38.4160
    43.4690  43.4822  43.4822  43.4948  44.5074  44.5108  44.5108  44.5138
    49.7739  49.7789  49.7789  49.7853

          k =-0.1419-0.1419-0.1419 (  1736 PWs)   bands (ev):

     9.8277   9.8285   9.8285   9.8285  12.4649  12.4649  12.4649  12.4654
    12.4654  12.4657  12.4657  12.4657  13.9019  13.9019  13.9019  13.9029
    14.4039  14.4039  14.4043  14.4043  14.4043  14.4047  14.4047  14.4047
    20.2590  20.2590  20.2590  20.2591  36.3076  36.3078  36.3078  36.3079
    39.0300  39.0300  39.0300  39.0301  39.0301  39.0310  39.0310  39.0311
    42.2058  42.2058  42.2060  42.2060  42.2060  42.2065  42.2065  42.2065
    48.1564  48.1564  48.1564  48.1568

          k =-0.0473 0.0000 0.0473 (  1773 PWs)   bands (ev):

     5.8885  10.1431  10.1432  10.3336  10.8788  10.8895  10.8901  12.3475
    12.7106  12.7147  13.4076  13.4314  13.4473  13.4742  13.6570  14.0450
    14.1678  14.1678  14.4328  14.4329  14.5023  16.3700  16.3700  18.5967
    23.7097  24.7614  25.9621  25.9625  27.9004  27.9005  28.4867  28.4875
    30.1718  35.5723  35.5921  36.5411  36.5415  36.7907  39.5778  39.5786
    40.6301  42.0301  42.8948  44.5616  45.7405  49.1620  49.7294  52.4593
    52.9600  54.6147  54.6159  55.5504

          k =-0.0473 0.0000 0.0946 (  1759 PWs)   bands (ev):

     6.9068   9.7335  10.6508  10.7699  11.1538  11.1884  11.2276  12.0431
    12.4073  12.5736  12.7564  12.8083  12.9794  13.2925  13.7043  13.7861
    13.8549  13.9405  13.9701  14.4294  14.4402  14.8199  17.9815  20.3913
    21.8644  24.3600  25.2042  26.2180  27.0134  29.2228  29.4743  29.5334
    30.5833  33.2775  33.9733  37.1649  38.0915  39.7811  39.9556  40.2036
    40.5331  43.4458  44.4849  46.4270  47.0813  47.9016  49.2041  50.5980
    52.2108  52.5058  54.2690  55.7851

          k =-0.0946 0.0000 0.0946 (  1746 PWs)   bands (ev):

     7.8476  10.3635  10.3636  11.1217  11.2038  11.4363  11.4378  11.9476
    12.0876  12.0877  12.2571  12.6477  13.1196  13.1913  13.4831  13.6169
    13.6175  13.9735  13.9738  14.1594  14.2325  15.9387  15.9388  19.2171
    21.9117  24.8808  26.4743  26.4745  27.5162  27.5170  30.6089  31.1971
    31.2041  31.2959  33.1175  36.3176  40.8950  41.2744  41.2747  42.4759
    42.7306  43.1631  43.1631  46.5745  46.6832  47.8253  47.8262  51.0032
    51.4072  51.4562  52.6593  54.5640

          k = 0.0473-0.0473 0.0473 (  1791 PWs)   bands (ev):

     6.2332  10.3278  10.3279  10.3279  10.9775  10.9785  10.9785  12.2939
    12.7346  12.7346  13.1133  13.1133  13.1133  13.5714  13.5714  13.8569
    13.8574  13.8574  14.5018  14.5018  14.5022  17.0125  17.0127  17.0127
    25.0100  25.0103  25.0103  26.2780  26.2780  26.2784  30.6898  30.6902
    30.6902  33.0259  35.6962  35.6962  35.6966  38.5974  40.5721  40.5721
    42.2332  42.2333  42.2333  45.8878  46.9659  46.9659  50.9896  50.9896
    54.4770  54.4781  54.4781  54.8099

          k = 0.0473-0.0473 0.0946 (  1762 PWs)   bands (ev):

     7.2201   9.9302  10.7790  10.7792  11.2121  11.2129  11.2689  12.0527
    12.4090  12.4090  12.5686  12.7674  12.8540  13.4790  13.5099  13.5737
    13.5768  13.8412  14.3921  14.4217  14.4223  15.0979  18.3221  18.3222
    22.4841  22.4841  26.2941  26.9098  26.9099  29.9243  29.9246  30.3520
    30.5306  32.1728  36.1519  37.1769  37.3366  38.2432  38.2433  41.7559
    42.9156  43.8421  46.3783  46.3785  47.2251  48.3814  49.5110  49.5113
    50.0045  52.2727  52.3409  54.9255

          k =-0.0946 0.0473 0.0473 (  1762 PWs)   bands (ev):

     7.2201   9.9302  10.7790  10.7792  11.2121  11.2129  11.2689  12.0527
    12.4090  12.4090  12.5686  12.7674  12.8540  13.4790  13.5099  13.5737
    13.5769  13.8412  14.3921  14.4217  14.4223  15.0979  18.3221  18.3223
    22.4841  22.4842  26.2941  26.9098  26.9099  29.9243  29.9246  30.3520
    30.5306  32.1728  36.1519  37.1769  37.3366  38.2432  38.2432  41.7559
    42.9156  43.8421  46.3784  46.3784  47.2251  48.3814  49.5110  49.5113
    50.0045  52.2727  52.3409  54.9253

          k = 0.0473-0.0473-0.1419 (  1752 PWs)   bands (ev):

     8.6413   8.6618  11.2002  11.2003  11.2601  11.2613  11.6545  11.6858
    12.0371  12.0375  12.5356  12.5715  13.1061  13.1151  13.3873  13.3878
    13.9768  14.0011  14.1468  14.1493  14.3756  14.3758  19.3958  19.3959
    21.0201  21.0202  27.8509  27.8550  28.0905  28.1058  28.5221  28.5295
    34.4355  34.4687  34.8517  34.9189  37.5402  37.6087  41.5881  41.5883
    44.1370  44.1753  44.7224  44.7228  48.7291  48.7797  50.1719  50.1898
    51.4717  51.4720  53.1399  53.1571

          k = 0.0946-0.0473 0.0946 (  1759 PWs)   bands (ev):

     8.0990  10.3745  10.3748  10.8872  11.3755  11.5124  11.5132  12.0281
    12.2278  12.2282  12.3501  12.6588  12.8039  13.2443  13.2459  13.2499
    13.6014  14.1472  14.2907  14.2927  14.3116  16.0184  16.0186  18.5279
    20.7174  23.6708  23.6708  27.6050  27.7079  30.7063  30.7065  31.6715
    31.6720  33.5275  34.7355  36.3804  38.7596  38.7600  39.5302  42.4762
    43.1085  44.1189  45.8029  45.8029  48.5391  48.5396  49.6802  49.8940
    50.2038  50.9331  51.6480  52.1697

          k =-0.0946 0.0473 0.0946 (  1759 PWs)   bands (ev):

     8.0990  10.3745  10.3748  10.8872  11.3755  11.5124  11.5133  12.0281
    12.2278  12.2282  12.3501  12.6588  12.8039  13.2443  13.2459  13.2499
    13.6014  14.1472  14.2907  14.2927  14.3116  16.0184  16.0186  18.5279
    20.7174  23.6708  23.6708  27.6050  27.7079  30.7063  30.7065  31.6716
    31.6720  33.5275  34.7355  36.3804  38.7596  38.7600  39.5302  42.4762
    43.1085  44.1189  45.8029  45.8029  48.5391  48.5396  49.6802  49.8940
    50.2038  50.9331  51.6481  52.1691

          k = 0.0946-0.0473-0.1419 (  1754 PWs)   bands (ev):

     9.3063   9.3218  10.7332  10.7401  11.6295  11.6328  11.8508  11.8774
    12.2031  12.2153  12.3825  12.4062  12.9266  12.9327  13.1043  13.1086
    13.9056  13.9187  14.1981  14.2087  14.7365  14.7412  17.2298  17.2474
    21.6772  21.6903  25.3918  25.4009  29.0381  29.0480  32.5759  32.5785
    32.7806  32.7895  36.3268  36.4024  39.5368  39.5528  39.8619  39.8759
    44.5420  44.5476  45.0157  45.0532  47.0103  47.0315  49.8795  49.9097
    51.0386  51.0561  53.2157  53.2481

          k = 0.0946-0.0946 0.0946 (  1757 PWs)   bands (ev):

     8.7639  10.3316  10.3323  10.3323  11.8214  11.8219  11.8219  12.2854
    12.4992  12.4992  12.5011  12.6268  12.6268  12.8923  12.8923  12.8928
    14.0304  14.0304  14.4315  14.4315  14.4319  16.2725  16.2727  16.2728
    21.3127  21.3128  21.3128  24.9103  32.0383  32.0383  32.0388  34.7458
    34.7461  34.7462  36.7291  36.7292  36.7298  37.1477  39.4152  39.4152
    43.8172  43.8172  47.1072  47.3647  47.3647  47.3668  47.4674  47.4677
    47.4677  51.7281  51.7288  51.7288

          k = 0.0946-0.0946-0.1419 (  1748 PWs)   bands (ev):

     9.5872   9.5948  10.2940  10.2944  12.0106  12.0110  12.3066  12.3241
    12.5451  12.5672  12.6574  12.6593  12.7001  12.7001  12.7632  12.7634
    14.3341  14.3369  14.3622  14.3633  14.5560  14.5598  16.4646  16.4647
    20.3835  20.3835  22.8039  22.8134  32.9267  32.9269  34.1448  34.1453
    35.7241  35.7574  36.7246  36.7416  38.4334  38.4870  38.8479  38.8481
    44.0294  44.0298  44.2396  44.2663  45.3667  45.3741  47.8507  47.8508
    48.9363  48.9477  52.3413  52.3431

     the Fermi energy is    14.1794 ev

!    total energy              =    -343.62956734 Ry
     Harris-Foulkes estimate   =    -343.62956671 Ry
     estimated scf accuracy    <          6.1E-09 Ry

     The total energy is the sum of the following terms:

     one-electron contribution =      -8.70010594 Ry
     hartree contribution      =      61.07870662 Ry
     xc contribution           =    -120.47471983 Ry
     ewald contribution        =    -275.48620515 Ry
     Dispersion Correction     =      -0.04675218 Ry
     smearing contrib. (-TS)   =      -0.00049087 Ry

     total magnetization       =     2.87 Bohr mag/cell
     absolute magnetization    =     3.30 Bohr mag/cell

     convergence has been achieved in  13 iterations

     Forces acting on atoms (Ry/au):

     atom    1 type  1   force =    -0.00230375   -0.00230375    0.00230438
     atom    2 type  1   force =     0.00230312    0.00230312    0.00230312
     atom    3 type  1   force =    -0.00230375    0.00230438   -0.00230375
     atom    4 type  1   force =     0.00230438   -0.00230375   -0.00230375

     Total force =     0.007980     Total SCF correction =     0.000027


     entering subroutine stress ...

          total   stress  (Ry/bohr**3)                   (kbar)     P=  -32.27
  -0.00021935   0.00000000   0.00000000        -32.27      0.00      0.00
   0.00000000  -0.00021935   0.00000000          0.00    -32.27      0.00
   0.00000000   0.00000000  -0.00021935          0.00      0.00    -32.27


     BFGS Geometry Optimization

     number of scf cycles    =   1
     number of bfgs steps    =   0

     enthalpy new            =    -343.6295673446 Ry

     new trust radius        =       0.0188371197 bohr
     new conv_thr            =       0.0000000100 Ry

     new unit-cell volume =    290.17444 a.u.^3 (    42.99942 Ang^3 )

CELL_PARAMETERS (alat=  1.88972590)
   3.503382610   0.000000036   0.000000036
   0.000000036   3.503382610   0.000000036
   0.000000036   0.000000036   3.503382610

ATOMIC_POSITIONS (alat)
Ni1      1.758255980   1.758255980   0.001212777
Ni1      0.001212074   0.001212074   0.001212074
Ni1      1.758255980   0.001212777   1.758255980
Ni1      0.001212777   1.758255980   1.758255980



     Writing output data file Ni-ferromag.save
     NEW-OLD atomic charge density approx. for the potential

     Check: negative/imaginary core charge=   -0.000005    0.000000
     extrapolated charge   39.33470, renormalised to   40.00000

     total cpu time spent up to now is      438.2 secs

     Self-consistent Calculation

     iteration #  1     ecut=    50.00 Ry     beta=0.20
     Davidson diagonalization with overlap
     c_bands:  2 eigenvalues not converged
     c_bands:  3 eigenvalues not converged
     c_bands:  2 eigenvalues not converged
     ethr =  1.00E-06,  avg # of iterations =  6.8

     total cpu time spent up to now is      506.2 secs

     total energy              =    -343.54214745 Ry
     Harris-Foulkes estimate   =    -344.36365933 Ry
     estimated scf accuracy    <       0.14437675 Ry

     total magnetization       =     2.55 Bohr mag/cell
     absolute magnetization    =     2.97 Bohr mag/cell

     iteration #  2     ecut=    50.00 Ry     beta=0.20
     Davidson diagonalization with overlap
     ethr =  3.61E-04,  avg # of iterations =  3.3

     total cpu time spent up to now is      536.0 secs

     total energy              =    -343.63310902 Ry
     Harris-Foulkes estimate   =    -343.64371287 Ry
     estimated scf accuracy    <       0.05439455 Ry

     total magnetization       =     2.94 Bohr mag/cell
     absolute magnetization    =     3.35 Bohr mag/cell

     iteration #  3     ecut=    50.00 Ry     beta=0.20
     Davidson diagonalization with overlap
     ethr =  1.36E-04,  avg # of iterations =  1.2

     total cpu time spent up to now is      562.6 secs

     total energy              =    -343.62651502 Ry
     Harris-Foulkes estimate   =    -343.63484568 Ry
     estimated scf accuracy    <       0.01881422 Ry

     total magnetization       =     2.90 Bohr mag/cell
     absolute magnetization    =     3.32 Bohr mag/cell

     iteration #  4     ecut=    50.00 Ry     beta=0.20
     Davidson diagonalization with overlap
     ethr =  4.70E-05,  avg # of iterations =  2.8

     total cpu time spent up to now is      591.1 secs

     total energy              =    -343.63025954 Ry
     Harris-Foulkes estimate   =    -343.63016601 Ry
     estimated scf accuracy    <       0.00006553 Ry

     total magnetization       =     2.84 Bohr mag/cell
     absolute magnetization    =     3.26 Bohr mag/cell

     iteration #  5     ecut=    50.00 Ry     beta=0.20
     Davidson diagonalization with overlap
     ethr =  1.64E-07,  avg # of iterations =  4.1

     total cpu time spent up to now is      628.0 secs

     total energy              =    -343.63056342 Ry
     Harris-Foulkes estimate   =    -343.63033160 Ry
     estimated scf accuracy    <       0.00070633 Ry

     total magnetization       =     2.83 Bohr mag/cell
     absolute magnetization    =     3.25 Bohr mag/cell

     iteration #  6     ecut=    50.00 Ry     beta=0.20
     Davidson diagonalization with overlap
     ethr =  1.64E-07,  avg # of iterations =  2.0

     total cpu time spent up to now is      655.8 secs

     total energy              =    -343.63024056 Ry
     Harris-Foulkes estimate   =    -343.63060966 Ry
     estimated scf accuracy    <       0.00182851 Ry

     total magnetization       =     2.82 Bohr mag/cell
     absolute magnetization    =     3.24 Bohr mag/cell

     iteration #  7     ecut=    50.00 Ry     beta=0.20
     Davidson diagonalization with overlap
     ethr =  1.64E-07,  avg # of iterations =  2.0

     total cpu time spent up to now is      684.6 secs

     total energy              =    -343.63012203 Ry
     Harris-Foulkes estimate   =    -343.63030178 Ry
     estimated scf accuracy    <       0.00057812 Ry

     total magnetization       =     2.83 Bohr mag/cell
     absolute magnetization    =     3.25 Bohr mag/cell

     iteration #  8     ecut=    50.00 Ry     beta=0.20
     Davidson diagonalization with overlap
     ethr =  1.64E-07,  avg # of iterations =  2.6

     total cpu time spent up to now is      713.7 secs

     total energy              =    -343.63019141 Ry
     Harris-Foulkes estimate   =    -343.63017229 Ry
     estimated scf accuracy    <       0.00005038 Ry

     total magnetization       =     2.84 Bohr mag/cell
     absolute magnetization    =     3.25 Bohr mag/cell

     iteration #  9     ecut=    50.00 Ry     beta=0.20
     Davidson diagonalization with overlap
     ethr =  1.26E-07,  avg # of iterations =  1.0

     total cpu time spent up to now is      740.1 secs

     total energy              =    -343.63016746 Ry
     Harris-Foulkes estimate   =    -343.63019575 Ry
     estimated scf accuracy    <       0.00014437 Ry

     total magnetization       =     2.83 Bohr mag/cell
     absolute magnetization    =     3.25 Bohr mag/cell

     iteration # 10     ecut=    50.00 Ry     beta=0.20
     Davidson diagonalization with overlap
     ethr =  1.26E-07,  avg # of iterations =  1.0

     total cpu time spent up to now is      766.5 secs

     total energy              =    -343.63015196 Ry
     Harris-Foulkes estimate   =    -343.63017199 Ry
     estimated scf accuracy    <       0.00004789 Ry

     total magnetization       =     2.83 Bohr mag/cell
     absolute magnetization    =     3.25 Bohr mag/cell

     iteration # 11     ecut=    50.00 Ry     beta=0.20
     Davidson diagonalization with overlap
     ethr =  1.20E-07,  avg # of iterations =  1.0

     Magnetic moment per site:
     atom:    1    charge:    3.0062    magn:    0.3351    constr:    0.0000
     atom:    2    charge:    3.0044    magn:    0.3350    constr:    0.0000
     atom:    3    charge:    3.0062    magn:    0.3351    constr:    0.0000
     atom:    4    charge:    3.0062    magn:    0.3351    constr:    0.0000

     total cpu time spent up to now is      792.9 secs

     End of self-consistent calculation

 ------ SPIN UP ------------


          k = 0.0000 0.0000 0.0000 (  1791 PWs)   bands (ev):

     5.4278   9.7111   9.7112   9.7112  10.1638  10.1641  10.1641  11.9424
    11.9424  11.9424  13.1206  13.1206  13.8383  13.8383  13.8383  13.9280
    13.9280  13.9280  13.9282  13.9282  13.9282  17.0671  17.0673  17.0673
    23.8030  23.8030  23.8030  29.5613  29.5613  29.5613  29.5614  29.5614
    29.5614  34.6379  34.6379  34.6381  37.9812  37.9813  37.9813  38.4894
    42.4636  42.4636  42.4636  46.0602  46.0602  46.0602  48.1649  55.1563
    55.1563  55.1563  57.6057  59.0281

          k =-0.0000-0.0000 0.0476 (  1779 PWs)   bands (ev):

     5.7940   9.7332   9.8953   9.8953  10.2744  10.2902  10.2904  11.8138
    12.0447  12.0447  13.0024  13.1670  13.2748  13.2749  13.6846  13.6846
    13.7525  13.7525  13.7888  13.9284  13.9284  15.4664  18.0254  18.0255
    23.8989  23.8990  26.0522  27.8096  27.8097  28.4375  28.4375  30.1216
    30.1216  34.7540  36.8105  36.8106  37.8534  38.1131  39.9373  39.9374
    40.2430  40.2430  40.9088  47.4807  48.1180  48.1181  49.1386  51.5480
    56.2516  56.2516  56.6639  56.6642

          k =-0.0000-0.0000 0.0951 (  1783 PWs)   bands (ev):

     6.8431   9.5039  10.3321  10.3321  10.5819  10.6731  10.6734  11.4700
    12.2188  12.2192  12.3411  12.3411  12.7151  13.2959  13.3009  13.3009
    13.3027  13.3195  13.3195  13.6547  13.9290  13.9290  19.9872  19.9873
    24.2164  24.2164  25.0364  25.0365  26.6693  26.6693  30.3519  31.7004
    31.7004  35.1175  36.7203  37.0212  37.0212  38.3415  38.6652  40.8545
    40.8547  44.1023  44.1024  44.1343  50.9161  51.0386  51.0386  51.0415
    51.0415  55.0255  55.9296  55.9296

          k = 0.0000 0.0000-0.1427 (  1750 PWs)   bands (ev):

     8.3345   8.3499  10.6081  10.6081  11.0052  11.0276  11.3088  11.3089
    11.3310  11.3311  12.5226  12.5540  12.7843  12.7843  12.8011  12.8011
    13.0590  13.0590  13.4677  13.4801  13.9292  13.9292  22.3530  22.3530
    22.3919  22.3919  24.5899  24.5899  25.7235  25.7235  34.0641  34.0641
    34.0915  34.0915  34.8730  34.9305  35.7587  35.7722  40.2124  40.3043
    45.6153  45.6155  45.6953  45.6955  47.6076  47.6076  52.2799  52.2800
    54.1296  54.1296  54.2034  54.2034

          k =-0.0000 0.0476 0.0476 (  1773 PWs)   bands (ev):

     6.1515   9.9315   9.9315  10.0584  10.3916  10.3919  10.4057  11.7539
    12.0897  12.1067  12.9285  12.9700  12.9869  12.9951  13.1627  13.5564
    13.6807  13.6807  13.7510  13.7511  13.8126  16.3980  16.3980  18.7949
    23.8934  25.0921  26.2396  26.2397  28.2868  28.2868  28.9300  28.9303
    30.6491  36.0267  36.1117  37.0190  37.0193  37.3244  40.1062  40.1064
    41.2631  42.5942  43.5226  45.2231  46.3539  49.7766  50.4462  53.0820
    53.6594  55.3401  55.3407  56.2943

          k =-0.0000 0.0476 0.0951 (  1759 PWs)   bands (ev):

     7.1729   9.7399  10.4134  10.4619  10.6733  10.7266  10.7457  11.4731
    11.9806  12.1198  12.2356  12.3527  12.3787  12.8115  13.2328  13.3056
    13.3226  13.3423  13.4941  13.7472  13.7543  14.4314  18.0117  20.5772
    22.0749  24.6013  25.4976  26.5268  27.3934  29.6005  29.8916  29.9520
    31.0078  33.7164  34.4593  37.6714  38.6236  40.3821  40.5607  40.7382
    41.1105  44.0299  45.0216  47.0477  47.7766  48.5788  49.8842  51.3262
    52.9305  53.2514  54.8069  56.1932

          k = 0.0000 0.0476-0.1427 (  1760 PWs)   bands (ev):

     8.6164   8.6308  10.7600  10.7610  11.0569  11.0786  11.1790  11.1972
    11.3236  11.3453  12.1533  12.1765  12.7849  12.8021  13.0188  13.0264
    13.0437  13.0447  13.6574  13.6576  13.7437  13.7471  19.8701  19.8898
    22.8540  22.8890  25.3919  25.4185  28.2977  28.3065  31.4840  31.4956
    32.0093  32.0174  35.7881  35.8542  38.8180  38.8230  42.1744  42.2310
    43.0953  43.1165  45.8937  45.9693  50.0377  50.1052  50.3298  50.3617
    52.5907  52.6159  53.1829  53.2033

          k =-0.0000 0.0951 0.0951 (  1746 PWs)   bands (ev):

     8.0992  10.3272  10.3273  10.6929  10.9408  10.9415  10.9554  11.4035
    11.6501  11.6502  11.8046  12.1232  12.4833  12.7252  13.0170  13.1712
    13.1715  13.3121  13.3123  13.4822  13.6971  15.6769  15.6769  19.2946
    22.1034  25.1520  26.7696  26.7697  27.8898  27.8900  30.9778  31.6299
    31.6332  31.7325  33.5966  36.8301  41.5195  41.8721  41.8723  43.0665
    43.4045  43.7624  43.7624  47.1785  47.3206  48.4652  48.4657  51.6638
    52.1686  52.1810  53.1908  55.3409

          k = 0.0000 0.0951-0.1427 (  1746 PWs)   bands (ev):

     9.3602   9.3719  10.7909  10.8047  11.1824  11.1959  11.2069  11.2120
    11.3432  11.3634  11.8516  11.8668  12.8211  12.8300  12.8311  12.8383
    12.8979  12.9006  13.3418  13.3522  14.3570  14.3597  17.2003  17.2157
    24.2138  24.2403  26.2090  26.2306  28.6396  28.6522  29.5296  29.5323
    32.9390  32.9447  36.7510  36.8154  40.3502  40.3629  43.0354  43.0479
    43.2051  43.2109  46.7010  46.7625  47.8957  47.9329  50.4011  50.4355
    51.7238  51.7789  53.5465  53.5610

          k = 0.0000-0.1427-0.1427 (  1740 PWs)   bands (ev):

    10.2089  10.2190  10.2190  10.2290  11.2955  11.3148  11.3148  11.3339
    11.6187  11.6242  11.6242  11.6296  12.6824  12.6843  12.6843  12.6864
    12.9831  12.9990  12.9990  13.0148  15.4211  15.4284  15.4284  15.4357
    26.1822  26.2006  26.2006  26.2187  27.5594  27.5723  27.5724  27.5858
    37.8667  37.8843  37.8843  37.9026  38.4711  38.4933  38.4934  38.5133
    47.1696  47.1696  47.1700  47.1706  49.1466  49.1814  49.1814  49.2161
    51.8047  51.8077  51.8077  51.8104

          k = 0.0476 0.0476 0.0476 (  1791 PWs)   bands (ev):

     6.4972  10.0923  10.0924  10.0924  10.5060  10.5064  10.5064  11.7190
    12.1262  12.1262  12.6830  12.6830  12.6831  13.0758  13.0758  13.3230
    13.3233  13.3233  13.8666  13.8666  13.8666  17.0249  17.0249  17.0249
    25.3191  25.3192  25.3192  26.5846  26.5846  26.5847  31.1641  31.1643
    31.1643  33.4749  36.1582  36.1582  36.1583  39.2458  41.1291  41.1291
    42.8014  42.8015  42.8015  46.5838  47.6392  47.6392  51.6312  51.6312
    55.0996  55.2183  55.2188  55.2189

          k = 0.0476 0.0476 0.0951 (  1762 PWs)   bands (ev):

     7.4785   9.8986  10.4751  10.4753  10.7915  10.8199  10.8200  11.5098
    11.9708  11.9709  12.1641  12.2080  12.2659  12.9208  12.9908  13.0771
    13.0781  13.3157  13.7693  13.7693  13.8017  14.7931  18.3668  18.3669
    22.7004  22.7004  26.6123  27.2360  27.2361  30.3509  30.3510  30.7377
    30.9407  32.6435  36.6372  37.7695  37.8421  38.7824  38.7824  42.3519
    43.4936  44.4606  47.0105  47.0105  47.8725  49.0742  50.1909  50.1910
    50.6861  53.0076  53.0680  55.6446

          k = 0.0476 0.0476-0.1427 (  1752 PWs)   bands (ev):

     8.8443   8.8570  10.8616  10.8622  10.9203  10.9205  11.1535  11.1738
    11.5773  11.5774  12.0579  12.0806  12.5349  12.5426  12.9094  12.9097
    13.4769  13.4930  13.5897  13.5931  13.7134  13.7135  19.5155  19.5156
    21.1392  21.1393  28.1987  28.2007  28.4340  28.4433  28.9195  28.9226
    34.9192  34.9420  35.3858  35.4311  38.0626  38.1101  42.1958  42.1958
    44.7335  44.7591  45.3604  45.3606  49.4537  49.4893  50.8836  50.8960
    52.1745  52.1745  53.6671  53.6717

          k = 0.0476 0.0951 0.0951 (  1759 PWs)   bands (ev):

     8.3171  10.2160  10.2162  10.5021  11.1072  11.1531  11.1533  11.5548
    11.7671  11.7672  11.9002  12.1253  12.2508  12.7285  12.7288  12.7454
    13.0484  13.6028  13.6711  13.6873  13.6883  15.8077  15.8077  18.6189
    20.7969  23.8968  23.8968  27.9315  28.0511  31.1273  31.1274  32.1127
    32.1129  34.0094  35.2340  36.9011  39.3164  39.3165  40.1469  43.0279
    43.7270  44.7757  46.4537  46.4538  49.1817  49.1819  50.4080  50.5863
    50.9145  51.6074  52.2911  52.9169

          k = 0.0476 0.0951-0.1427 (  1754 PWs)   bands (ev):

     9.3963   9.4042  10.4360  10.4384  11.3202  11.3209  11.4607  11.4772
    11.7704  11.7773  11.8875  11.9025  12.3971  12.4027  12.6089  12.6124
    13.3419  13.3483  13.5694  13.5760  14.2635  14.2660  17.1789  17.1914
    21.8077  21.8175  25.6537  25.6606  29.4257  29.4318  33.0307  33.0333
    33.2431  33.2486  36.8707  36.9235  40.1237  40.1353  40.4329  40.4424
    45.1817  45.1860  45.6630  45.6885  47.6879  47.7015  50.5518  50.5730
    51.7750  51.7874  53.8653  53.8874

          k = 0.0476-0.1427-0.1427 (  1752 PWs)   bands (ev):

     9.9661   9.9696   9.9696   9.9726  11.7059  11.7113  11.7113  11.7163
    11.7882  11.7993  11.7993  11.8107  12.3659  12.3714  12.3714  12.3769
    13.3178  13.3277  13.3278  13.3378  15.3314  15.3394  15.3394  15.3474
    23.4386  23.4462  23.4462  23.4537  30.9638  30.9661  30.9661  30.9687
    38.1493  38.1632  38.1632  38.1809  38.3176  38.3386  38.3387  38.3546
    46.6450  46.6450  46.6455  46.6481  46.7301  46.7505  46.7505  46.7676
    54.7838  54.7973  54.7974  54.8147

          k = 0.0951 0.0951 0.0951 (  1757 PWs)   bands (ev):

     8.8609  10.0510  10.0513  10.0513  11.5114  11.5117  11.5117  12.0249
    12.0820  12.0820  12.0874  12.0962  12.0962  12.3748  12.3748  12.3750
    13.4508  13.4508  13.8153  13.8153  13.8154  16.1860  16.1861  16.1861
    21.4041  21.4041  21.4042  25.1438  32.4929  32.4929  32.4931  35.2364
    35.2366  35.2366  37.2662  37.2662  37.2664  37.7855  39.9432  39.9432
    44.4367  44.4367  47.7633  48.0569  48.0569  48.0578  48.1309  48.1310
    48.1310  52.4380  52.4384  52.4384

          k = 0.0951 0.0951-0.1427 (  1748 PWs)   bands (ev):

     9.4859   9.4880   9.9826   9.9828  11.6313  11.6315  11.9116  11.9240
    12.1336  12.1353  12.2518  12.2548  12.2648  12.2773  12.3696  12.3699
    13.7350  13.7363  13.7437  13.7444  14.1545  14.1553  16.4704  16.4705
    20.3751  20.3751  22.9581  22.9654  33.4089  33.4089  34.6196  34.6198
    36.3130  36.3351  37.2326  37.2444  38.9678  39.0053  39.4322  39.4323
    44.6437  44.6438  44.8856  44.9043  46.0058  46.0108  48.5421  48.5421
    49.5923  49.6001  52.9673  52.9682

          k = 0.0951-0.1427-0.1427 (  1764 PWs)   bands (ev):

     9.6623   9.6626   9.6626   9.6626  11.8740  11.8774  11.8774  11.8804
    12.0635  12.0670  12.0670  12.0706  12.8094  12.8164  12.8165  12.8236
    13.6585  13.6639  13.6639  13.6694  14.9540  14.9631  14.9631  14.9722
    21.0824  21.0885  21.0885  21.0947  35.1454  35.1483  35.1484  35.1515
    38.2023  38.2119  38.2119  38.2220  38.9222  38.9325  38.9325  38.9416
    44.0770  44.0857  44.0857  44.0941  45.1466  45.1489  45.1489  45.1510
    50.4064  50.4100  50.4100  50.4142

          k =-0.1427-0.1427-0.1427 (  1736 PWs)   bands (ev):

     9.5463   9.5467   9.5467   9.5467  11.9553  11.9553  11.9553  11.9554
    11.9554  11.9557  11.9557  11.9557  13.7908  13.7908  13.7908  13.7913
    13.7913  13.7914  13.7914  13.7914  14.2887  14.2891  14.2891  14.2891
    20.2073  20.2073  20.2073  20.2074  36.9445  36.9447  36.9447  36.9447
    39.5681  39.5681  39.5682  39.5682  39.5682  39.5686  39.5686  39.5687
    42.7948  42.7948  42.7949  42.7949  42.7949  42.7951  42.7951  42.7951
    48.7638  48.7638  48.7638  48.7640

          k =-0.0476 0.0000 0.0476 (  1773 PWs)   bands (ev):

     6.1515   9.9315   9.9315  10.0584  10.3916  10.3919  10.4057  11.7539
    12.0897  12.1067  12.9285  12.9700  12.9869  12.9951  13.1627  13.5564
    13.6807  13.6807  13.7510  13.7511  13.8126  16.3980  16.3980  18.7949
    23.8934  25.0921  26.2396  26.2398  28.2868  28.2868  28.9300  28.9303
    30.6491  36.0267  36.1117  37.0191  37.0193  37.3244  40.1061  40.1065
    41.2631  42.5942  43.5226  45.2231  46.3539  49.7766  50.4462  53.0820
    53.6594  55.3401  55.3407  56.2943

          k =-0.0476-0.0000 0.0951 (  1759 PWs)   bands (ev):

     7.1729   9.7399  10.4134  10.4619  10.6733  10.7266  10.7457  11.4731
    11.9806  12.1198  12.2356  12.3527  12.3787  12.8115  13.2328  13.3056
    13.3226  13.3423  13.4941  13.7472  13.7543  14.4314  18.0117  20.5772
    22.0749  24.6013  25.4976  26.5268  27.3934  29.6005  29.8916  29.9520
    31.0078  33.7164  34.4593  37.6714  38.6236  40.3821  40.5607  40.7382
    41.1105  44.0299  45.0216  47.0477  47.7765  48.5788  49.8842  51.3262
    52.9305  53.2514  54.8069  56.1932

          k =-0.0951 0.0000 0.0951 (  1746 PWs)   bands (ev):

     8.0992  10.3272  10.3273  10.6929  10.9408  10.9415  10.9553  11.4035
    11.6501  11.6502  11.8046  12.1232  12.4833  12.7252  13.0170  13.1712
    13.1715  13.3121  13.3123  13.4822  13.6971  15.6769  15.6769  19.2946
    22.1034  25.1520  26.7696  26.7697  27.8897  27.8901  30.9778  31.6299
    31.6332  31.7325  33.5966  36.8301  41.5195  41.8721  41.8723  43.0665
    43.4045  43.7624  43.7624  47.1785  47.3206  48.4652  48.4657  51.6638
    52.1686  52.1810  53.1908  55.3355

          k = 0.0476-0.0476 0.0476 (  1791 PWs)   bands (ev):

     6.4972  10.0923  10.0924  10.0924  10.5060  10.5064  10.5064  11.7190
    12.1262  12.1262  12.6830  12.6830  12.6831  13.0758  13.0758  13.3230
    13.3233  13.3233  13.8666  13.8666  13.8666  17.0249  17.0249  17.0249
    25.3191  25.3192  25.3192  26.5846  26.5846  26.5847  31.1641  31.1643
    31.1643  33.4749  36.1581  36.1582  36.1584  39.2458  41.1291  41.1291
    42.8014  42.8015  42.8015  46.5838  47.6392  47.6392  51.6312  51.6312
    55.0996  55.2183  55.2188  55.2189

          k = 0.0476-0.0476 0.0951 (  1762 PWs)   bands (ev):

     7.4785   9.8986  10.4751  10.4753  10.7915  10.8199  10.8200  11.5098
    11.9708  11.9709  12.1641  12.2080  12.2659  12.9208  12.9908  13.0771
    13.0781  13.3157  13.7693  13.7693  13.8017  14.7931  18.3668  18.3669
    22.7004  22.7004  26.6123  27.2360  27.2360  30.3509  30.3510  30.7377
    30.9407  32.6435  36.6372  37.7695  37.8421  38.7824  38.7824  42.3519
    43.4936  44.4606  47.0104  47.0105  47.8725  49.0742  50.1909  50.1910
    50.6861  53.0076  53.0680  55.6447

          k =-0.0951 0.0476 0.0476 (  1762 PWs)   bands (ev):

     7.4785   9.8986  10.4751  10.4753  10.7915  10.8199  10.8200  11.5098
    11.9708  11.9709  12.1641  12.2080  12.2659  12.9208  12.9908  13.0771
    13.0781  13.3157  13.7693  13.7693  13.8017  14.7931  18.3668  18.3669
    22.7004  22.7004  26.6123  27.2360  27.2361  30.3509  30.3510  30.7377
    30.9407  32.6435  36.6372  37.7695  37.8421  38.7824  38.7824  42.3519
    43.4936  44.4606  47.0105  47.0105  47.8725  49.0742  50.1909  50.1910
    50.6861  53.0076  53.0680  55.6447

          k = 0.0476-0.0476-0.1427 (  1752 PWs)   bands (ev):

     8.8443   8.8570  10.8616  10.8622  10.9203  10.9205  11.1535  11.1738
    11.5773  11.5774  12.0579  12.0806  12.5349  12.5426  12.9094  12.9097
    13.4769  13.4930  13.5897  13.5931  13.7134  13.7135  19.5156  19.5156
    21.1392  21.1393  28.1987  28.2007  28.4340  28.4433  28.9195  28.9226
    34.9192  34.9420  35.3858  35.4311  38.0626  38.1101  42.1958  42.1959
    44.7335  44.7591  45.3604  45.3606  49.4537  49.4893  50.8836  50.8960
    52.1744  52.1746  53.6672  53.6717

          k = 0.0951-0.0476 0.0951 (  1759 PWs)   bands (ev):

     8.3171  10.2160  10.2162  10.5021  11.1072  11.1531  11.1533  11.5548
    11.7671  11.7672  11.9002  12.1253  12.2508  12.7285  12.7288  12.7454
    13.0484  13.6028  13.6711  13.6873  13.6883  15.8077  15.8077  18.6189
    20.7969  23.8968  23.8968  27.9315  28.0511  31.1273  31.1274  32.1127
    32.1129  34.0094  35.2340  36.9011  39.3164  39.3165  40.1469  43.0279
    43.7270  44.7757  46.4537  46.4538  49.1817  49.1819  50.4080  50.5863
    50.9145  51.6074  52.2911  52.9170

          k =-0.0951 0.0476 0.0951 (  1759 PWs)   bands (ev):

     8.3171  10.2160  10.2162  10.5021  11.1072  11.1531  11.1533  11.5548
    11.7671  11.7672  11.9002  12.1253  12.2508  12.7285  12.7288  12.7454
    13.0484  13.6028  13.6711  13.6873  13.6883  15.8077  15.8077  18.6189
    20.7969  23.8968  23.8968  27.9315  28.0511  31.1273  31.1274  32.1127
    32.1129  34.0094  35.2340  36.9011  39.3164  39.3165  40.1469  43.0279
    43.7270  44.7757  46.4538  46.4538  49.1817  49.1819  50.4080  50.5863
    50.9145  51.6074  52.2911  52.9168

          k = 0.0951-0.0476-0.1427 (  1754 PWs)   bands (ev):

     9.3963   9.4042  10.4360  10.4384  11.3202  11.3209  11.4607  11.4772
    11.7704  11.7773  11.8875  11.9025  12.3971  12.4027  12.6089  12.6124
    13.3419  13.3483  13.5694  13.5760  14.2635  14.2660  17.1789  17.1914
    21.8077  21.8175  25.6537  25.6607  29.4257  29.4318  33.0307  33.0333
    33.2431  33.2486  36.8707  36.9235  40.1237  40.1353  40.4329  40.4424
    45.1817  45.1860  45.6630  45.6885  47.6879  47.7015  50.5518  50.5730
    51.7750  51.7874  53.8659  53.8890

          k = 0.0951-0.0951 0.0951 (  1757 PWs)   bands (ev):

     8.8609  10.0510  10.0513  10.0513  11.5114  11.5117  11.5117  12.0249
    12.0820  12.0820  12.0874  12.0962  12.0962  12.3748  12.3748  12.3750
    13.4508  13.4508  13.8153  13.8153  13.8154  16.1861  16.1861  16.1861
    21.4041  21.4041  21.4042  25.1438  32.4929  32.4929  32.4931  35.2364
    35.2366  35.2366  37.2661  37.2662  37.2665  37.7855  39.9432  39.9432
    44.4367  44.4367  47.7633  48.0568  48.0569  48.0578  48.1309  48.1310
    48.1310  52.4380  52.4384  52.4384

          k = 0.0951-0.0951-0.1427 (  1748 PWs)   bands (ev):

     9.4859   9.4880   9.9826   9.9828  11.6313  11.6315  11.9116  11.9240
    12.1336  12.1353  12.2518  12.2548  12.2648  12.2773  12.3696  12.3699
    13.7350  13.7363  13.7437  13.7444  14.1545  14.1553  16.4705  16.4705
    20.3751  20.3751  22.9581  22.9654  33.4089  33.4090  34.6196  34.6198
    36.3130  36.3351  37.2326  37.2444  38.9678  39.0053  39.4322  39.4323
    44.6437  44.6438  44.8856  44.9043  46.0058  46.0108  48.5421  48.5421
    49.5923  49.6001  52.9673  52.9682

 ------ SPIN DOWN ----------


          k = 0.0000 0.0000 0.0000 (  1791 PWs)   bands (ev):

     5.3731  10.1735  10.1735  10.1735  10.8824  10.8828  10.8828  12.8233
    12.8233  12.8233  13.9011  13.9011  14.6529  14.6529  14.6529  14.9380
    14.9380  14.9380  14.9382  14.9382  14.9382  16.9882  16.9884  16.9884
    24.1087  24.1087  24.1087  29.5474  29.5475  29.5475  29.5476  29.5476
    29.5477  34.8020  34.8020  34.8022  38.1246  38.1248  38.1248  38.2836
    42.4343  42.4343  42.4343  46.1326  46.1326  46.1326  48.0052  55.3453
    55.3453  55.3453  58.1263  59.5459

          k =-0.0000-0.0000 0.0476 (  1779 PWs)   bands (ev):

     5.7392  10.1490  10.3676  10.3676  11.0019  11.0063  11.0066  12.6814
    12.9297  12.9297  13.7733  13.9495  14.0954  14.0956  14.4859  14.4859
    14.6010  14.7456  14.7456  14.9385  14.9385  15.5365  18.1321  18.1322
    24.1896  24.1896  26.2540  27.8781  27.8782  28.4648  28.4648  30.1241
    30.1241  34.9056  36.8913  36.8915  37.7145  38.2541  40.0572  40.0573
    40.2853  40.2853  40.8389  47.5011  48.0917  48.0917  49.2103  51.5385
    56.4628  56.4628  56.5904  56.5906

          k =-0.0000-0.0000 0.0951 (  1783 PWs)   bands (ev):

     6.7926   9.7121  10.8289  10.8290  11.3348  11.3838  11.3842  12.3034
    12.9486  12.9490  13.2392  13.2392  13.4523  13.6743  14.0739  14.0739
    14.0845  14.2712  14.2712  14.4604  14.9391  14.9391  20.1723  20.1724
    24.4626  24.4626  25.1771  25.1771  26.7674  26.7674  30.4474  31.7373
    31.7373  35.2313  36.6854  37.0926  37.0926  38.2511  38.8110  40.8598
    40.8600  44.2016  44.2016  44.3525  50.8715  50.9435  50.9435  50.9679
    50.9679  54.9209  56.1701  56.1701

          k = 0.0000 0.0000-0.1427 (  1750 PWs)   bands (ev):

     8.3277   8.3435  11.1206  11.1206  11.7952  11.8192  12.0182  12.0185
    12.0410  12.0413  13.1695  13.2039  13.7054  13.7054  13.7229  13.7229
    13.8073  13.8073  14.2645  14.2774  14.9394  14.9394  22.5341  22.5342
    22.5739  22.5740  24.7865  24.7866  25.8809  25.8810  34.1292  34.1292
    34.1565  34.1565  34.8523  34.9114  35.8086  35.8248  40.4037  40.4971
    45.5698  45.5699  45.6517  45.6519  47.6815  47.6816  52.4688  52.4688
    54.0191  54.0191  54.0930  54.0930

          k =-0.0000 0.0476 0.0476 (  1773 PWs)   bands (ev):

     6.0977  10.3599  10.3599  10.5496  11.1058  11.1161  11.1164  12.6078
    12.9800  12.9844  13.6939  13.7257  13.7355  13.7570  13.9504  14.3476
    14.4736  14.4736  14.7444  14.7444  14.8153  16.7125  16.7126  18.9605
    24.1522  25.2217  26.4283  26.4284  28.3696  28.3697  28.9710  28.9713
    30.6601  36.1027  36.1313  37.0896  37.0898  37.3419  40.2240  40.2242
    41.1822  42.6815  43.4917  45.1665  46.4145  49.9353  50.3714  53.2545
    53.6248  55.3019  55.3025  56.2345

          k =-0.0000 0.0476 0.0951 (  1759 PWs)   bands (ev):

     7.1272   9.9626  10.8760  10.9943  11.3890  11.4216  11.4630  12.2956
    12.6724  12.8413  13.0328  13.0778  13.2554  13.5765  13.9983  14.0829
    14.1534  14.2403  14.2696  14.7412  14.7513  15.1409  18.3504  20.7812
    22.2734  24.8293  25.6492  26.6616  27.5186  29.7089  29.9538  30.0220
    31.1051  33.7944  34.5017  37.7133  38.6615  40.3336  40.5083  40.8579
    41.1099  44.1121  45.2261  47.1141  47.6988  48.5611  49.8681  51.2513
    52.8859  53.1607  55.0265  56.4454

          k = 0.0000 0.0476-0.1427 (  1760 PWs)   bands (ev):

     8.6216   8.6366  11.2632  11.2651  11.8356  11.8576  11.8606  11.8792
    12.0359  12.0581  12.8930  12.9197  13.7085  13.7261  13.7880  13.7920
    13.7973  13.8000  14.4962  14.4970  14.7382  14.7420  20.1514  20.1715
    23.0470  23.0823  25.5623  25.5910  28.4138  28.4243  31.5986  31.6090
    32.0677  32.0746  35.8133  35.8793  38.8198  38.8235  42.3261  42.3846
    43.0872  43.1105  45.8447  45.9221  50.1036  50.1699  50.2620  50.2941
    52.5065  52.5327  53.3505  53.3707

          k =-0.0000 0.0951 0.0951 (  1746 PWs)   bands (ev):

     8.0770  10.6006  10.6006  11.3576  11.4399  11.6769  11.6776  12.1980
    12.3438  12.3439  12.5173  12.9150  13.3991  13.4727  13.7711  13.9093
    13.9096  14.2734  14.2735  14.4635  14.5400  16.2824  16.2825  19.6023
    22.3226  25.3504  26.9364  26.9364  27.9909  27.9912  31.1087  31.7181
    31.7220  31.8006  33.6490  36.8658  41.4558  41.8539  41.8541  43.1011
    43.2870  43.8047  43.8048  47.2997  47.3498  48.5100  48.5104  51.7231
    52.0578  52.1232  53.3938  55.2432

          k = 0.0000 0.0951-0.1427 (  1746 PWs)   bands (ev):

     9.4209   9.4338  11.2110  11.2246  11.8422  11.8434  11.9486  11.9699
    12.0641  12.0852  12.5882  12.6051  13.5653  13.5657  13.6371  13.6397
    13.7574  13.7757  14.3105  14.3217  15.1632  15.1666  17.6648  17.6799
    24.4192  24.4452  26.3597  26.3833  28.8025  28.8137  29.6192  29.6229
    33.0100  33.0172  36.7785  36.8431  40.3497  40.3610  42.9816  42.9931
    43.2237  43.2289  46.6385  46.7012  47.9769  48.0159  50.3479  50.3831
    51.8446  51.8995  53.4615  53.4751

          k = 0.0000-0.1427-0.1427 (  1740 PWs)   bands (ev):

    10.4271  10.4385  10.4385  10.4497  12.0325  12.0530  12.0530  12.0733
    12.2877  12.2941  12.2941  12.3004  13.4205  13.4226  13.4226  13.4250
    13.9318  13.9485  13.9485  13.9652  16.1045  16.1107  16.1107  16.1168
    26.3783  26.3955  26.3956  26.4125  27.6815  27.6959  27.6960  27.7109
    37.9413  37.9582  37.9582  37.9764  38.4384  38.4595  38.4595  38.4779
    47.0490  47.0495  47.0495  47.0515  49.1349  49.1705  49.1705  49.2061
    51.9040  51.9088  51.9089  51.9132

          k = 0.0476 0.0476 0.0476 (  1791 PWs)   bands (ev):

     6.4462  10.5477  10.5478  10.5478  11.2070  11.2075  11.2075  12.5530
    13.0049  13.0049  13.3943  13.3943  13.3943  13.8627  13.8627  14.1546
    14.1549  14.1549  14.8155  14.8155  14.8156  17.3659  17.3660  17.3660
    25.4505  25.4506  25.4506  26.7579  26.7579  26.7580  31.1859  31.1861
    31.1861  33.5414  36.2530  36.2530  36.2532  39.0902  41.1816  41.1816
    42.8854  42.8855  42.8855  46.4963  47.5962  47.5962  51.7979  51.7979
    55.1715  55.1720  55.1720  55.4366

          k = 0.0476 0.0476 0.0951 (  1762 PWs)   bands (ev):

     7.4433  10.1613  11.0071  11.0072  11.4485  11.4489  11.5045  12.3059
    12.6737  12.6737  12.8386  13.0373  13.1268  13.7675  13.8007  13.8645
    13.8661  14.1385  14.7034  14.7331  14.7334  15.4238  18.6938  18.6939
    22.9106  22.9107  26.7564  27.3850  27.3851  30.4257  30.4259  30.8518
    31.0281  32.6899  36.7116  37.6752  37.9192  38.8126  38.8126  42.3595
    43.5737  44.4780  47.0546  47.0546  47.9144  49.0198  50.1796  50.1798
    50.6928  52.9368  53.0280  55.7591

          k = 0.0476 0.0476-0.1427 (  1752 PWs)   bands (ev):

     8.8782   8.8920  11.4346  11.4347  11.5016  11.5022  11.9038  11.9259
    12.2918  12.2920  12.8068  12.8320  13.3867  13.3931  13.6736  13.6738
    14.2816  14.2988  14.4523  14.4541  14.6857  14.6858  19.7729  19.7730
    21.4432  21.4433  28.3136  28.3155  28.5761  28.5846  29.0342  29.0376
    34.9887  35.0112  35.3581  35.4050  38.1397  38.1874  42.1770  42.1771
    44.8192  44.8470  45.3493  45.3495  49.3740  49.4097  50.8378  50.8502
    52.2079  52.2079  53.8432  53.8510

          k = 0.0476 0.0951 0.0951 (  1759 PWs)   bands (ev):

     8.3290  10.6091  10.6092  11.1209  11.6147  11.7551  11.7556  12.2819
    12.4876  12.4878  12.6125  12.9265  13.0755  13.5277  13.5287  13.5319
    13.8922  14.4524  14.5999  14.6010  14.6190  16.3612  16.3613  18.8936
    21.1408  24.1138  24.1138  28.0911  28.1811  31.1910  31.1911  32.2052
    32.2054  34.0641  35.2595  36.9262  39.3311  39.3312  40.0705  43.1415
    43.7186  44.7213  46.4477  46.4477  49.2362  49.2365  50.3396  50.5699
    50.8908  51.6799  52.3563  52.8439

          k = 0.0476 0.0951-0.1427 (  1754 PWs)   bands (ev):

     9.5445   9.5549  10.9702  10.9748  11.8742  11.8764  12.1059  12.1246
    12.4640  12.4726  12.6473  12.6641  13.2024  13.2067  13.3841  13.3871
    14.2063  14.2156  14.5054  14.5129  15.0565  15.0599  17.5903  17.6024
    22.1084  22.1172  25.8542  25.8601  29.5255  29.5330  33.0883  33.0892
    33.3113  33.3182  36.8839  36.9362  40.1083  40.1190  40.4551  40.4653
    45.1692  45.1728  45.6540  45.6809  47.6677  47.6832  50.5899  50.6111
    51.7146  51.7265  53.9475  53.9697

          k = 0.0476-0.1427-0.1427 (  1752 PWs)   bands (ev):

    10.3202  10.3266  10.3266  10.3327  12.2731  12.2822  12.2822  12.2912
    12.4916  12.5027  12.5027  12.5138  13.1442  13.1490  13.1490  13.1540
    14.2288  14.2403  14.2403  14.2519  15.9786  15.9854  15.9854  15.9920
    23.6975  23.7039  23.7039  23.7102  31.0450  31.0487  31.0488  31.0528
    38.2220  38.2302  38.2302  38.2527  38.2695  38.2946  38.2946  38.3041
    46.5773  46.5773  46.5776  46.5792  46.7544  46.7754  46.7754  46.7945
    54.8470  54.8612  54.8613  55.0780

          k = 0.0951 0.0951 0.0951 (  1757 PWs)   bands (ev):

     8.9941  10.5610  10.5613  10.5613  12.0708  12.0710  12.0710  12.5484
    12.7660  12.7660  12.7669  12.8938  12.8938  13.1663  13.1663  13.1665
    14.3322  14.3322  14.7435  14.7435  14.7437  16.6127  16.6129  16.6129
    21.7427  21.7427  21.7428  25.3692  32.5393  32.5393  32.5395  35.2978
    35.2981  35.2981  37.2788  37.2788  37.2790  37.6144  40.0293  40.0293
    44.4459  44.4459  47.7782  48.0052  48.0052  48.0062  48.1322  48.1324
    48.1324  52.4692  52.4695  52.4695

          k = 0.0951 0.0951-0.1427 (  1748 PWs)   bands (ev):

     9.8170   9.8218  10.5209  10.5211  12.2633  12.2635  12.5706  12.5829
    12.8164  12.8320  12.9262  12.9275  12.9701  12.9701  13.0340  13.0340
    14.6442  14.6462  14.6726  14.6731  14.8697  14.8725  16.8020  16.8021
    20.8122  20.8123  23.2481  23.2543  33.4166  33.4167  34.7056  34.7059
    36.2035  36.2269  37.3054  37.3164  39.0482  39.0854  39.4067  39.4068
    44.6700  44.6702  44.8626  44.8815  46.0136  46.0196  48.5018  48.5019
    49.6457  49.6534  53.0761  53.0770

          k = 0.0951-0.1427-0.1427 (  1764 PWs)   bands (ev):

    10.1320  10.1335  10.1335  10.1347  12.6075  12.6107  12.6107  12.6138
    12.8400  12.8432  12.8432  12.8467  13.2488  13.2571  13.2571  13.2654
    14.5765  14.5826  14.5826  14.5889  15.4874  15.4948  15.4949  15.5021
    21.4762  21.4813  21.4814  21.4865  35.1177  35.1223  35.1224  35.1272
    38.1721  38.1808  38.1808  38.1900  38.9919  39.0017  39.0017  39.0102
    44.1079  44.1177  44.1177  44.1272  45.1386  45.1415  45.1415  45.1441
    50.4966  50.5003  50.5003  50.5046

          k =-0.1427-0.1427-0.1427 (  1736 PWs)   bands (ev):

    10.0480  10.0483  10.0483  10.0483  12.7287  12.7287  12.7287  12.7289
    12.7289  12.7291  12.7291  12.7291  14.1887  14.1888  14.1888  14.1893
    14.7152  14.7152  14.7154  14.7154  14.7154  14.7156  14.7156  14.7156
    20.6898  20.6898  20.6898  20.6898  36.7601  36.7604  36.7604  36.7604
    39.6383  39.6383  39.6383  39.6383  39.6383  39.6388  39.6388  39.6388
    42.8251  42.8251  42.8252  42.8252  42.8252  42.8254  42.8254  42.8254
    48.8777  48.8777  48.8777  48.8779

          k =-0.0476 0.0000 0.0476 (  1773 PWs)   bands (ev):

     6.0977  10.3599  10.3599  10.5496  11.1058  11.1161  11.1164  12.6078
    12.9800  12.9844  13.6939  13.7257  13.7355  13.7570  13.9504  14.3476
    14.4736  14.4736  14.7444  14.7444  14.8153  16.7125  16.7126  18.9605
    24.1522  25.2217  26.4283  26.4285  28.3696  28.3697  28.9710  28.9713
    30.6601  36.1027  36.1313  37.0896  37.0898  37.3419  40.2239  40.2243
    41.1822  42.6815  43.4917  45.1665  46.4144  49.9353  50.3714  53.2545
    53.6248  55.3019  55.3025  56.2345

          k =-0.0476-0.0000 0.0951 (  1759 PWs)   bands (ev):

     7.1272   9.9626  10.8760  10.9943  11.3890  11.4216  11.4630  12.2956
    12.6724  12.8413  13.0328  13.0778  13.2554  13.5765  13.9983  14.0829
    14.1534  14.2403  14.2696  14.7412  14.7513  15.1409  18.3504  20.7812
    22.2734  24.8293  25.6492  26.6616  27.5186  29.7089  29.9538  30.0220
    31.1051  33.7944  34.5017  37.7133  38.6615  40.3336  40.5083  40.8579
    41.1099  44.1121  45.2261  47.1141  47.6988  48.5611  49.8681  51.2513
    52.8859  53.1607  55.0265  56.4454

          k =-0.0951 0.0000 0.0951 (  1746 PWs)   bands (ev):

     8.0770  10.6006  10.6006  11.3576  11.4399  11.6769  11.6776  12.1980
    12.3438  12.3439  12.5173  12.9150  13.3991  13.4727  13.7711  13.9093
    13.9096  14.2734  14.2735  14.4635  14.5400  16.2824  16.2825  19.6023
    22.3226  25.3504  26.9363  26.9365  27.9909  27.9913  31.1087  31.7181
    31.7220  31.8006  33.6490  36.8658  41.4558  41.8539  41.8540  43.1011
    43.2870  43.8047  43.8048  47.2997  47.3498  48.5100  48.5104  51.7231
    52.0578  52.1232  53.3938  55.2438

          k = 0.0476-0.0476 0.0476 (  1791 PWs)   bands (ev):

     6.4462  10.5477  10.5477  10.5478  11.2070  11.2075  11.2075  12.5530
    13.0049  13.0049  13.3943  13.3943  13.3943  13.8627  13.8627  14.1546
    14.1549  14.1549  14.8155  14.8155  14.8157  17.3659  17.3660  17.3660
    25.4505  25.4506  25.4507  26.7578  26.7579  26.7580  31.1859  31.1861
    31.1861  33.5414  36.2530  36.2530  36.2532  39.0902  41.1816  41.1816
    42.8854  42.8855  42.8855  46.4963  47.5962  47.5962  51.7979  51.7979
    55.1715  55.1720  55.1720  55.4366

          k = 0.0476-0.0476 0.0951 (  1762 PWs)   bands (ev):

     7.4433  10.1613  11.0071  11.0072  11.4485  11.4489  11.5045  12.3059
    12.6737  12.6737  12.8386  13.0373  13.1268  13.7675  13.8007  13.8645
    13.8660  14.1385  14.7034  14.7331  14.7335  15.4238  18.6938  18.6939
    22.9106  22.9106  26.7564  27.3850  27.3850  30.4257  30.4259  30.8518
    31.0281  32.6899  36.7116  37.6752  37.9192  38.8126  38.8126  42.3595
    43.5737  44.4780  47.0545  47.0546  47.9144  49.0198  50.1796  50.1798
    50.6928  52.9368  53.0280  55.7595

          k =-0.0951 0.0476 0.0476 (  1762 PWs)   bands (ev):

     7.4433  10.1613  11.0071  11.0072  11.4485  11.4489  11.5045  12.3059
    12.6737  12.6737  12.8386  13.0373  13.1268  13.7675  13.8007  13.8645
    13.8661  14.1385  14.7034  14.7331  14.7334  15.4238  18.6938  18.6939
    22.9106  22.9107  26.7564  27.3850  27.3851  30.4257  30.4259  30.8518
    31.0281  32.6899  36.7116  37.6752  37.9192  38.8126  38.8126  42.3594
    43.5737  44.4780  47.0546  47.0546  47.9144  49.0198  50.1796  50.1798
    50.6928  52.9368  53.0281  55.7595

          k = 0.0476-0.0476-0.1427 (  1752 PWs)   bands (ev):

     8.8782   8.8920  11.4346  11.4346  11.5016  11.5022  11.9038  11.9259
    12.2918  12.2920  12.8068  12.8320  13.3867  13.3931  13.6736  13.6739
    14.2816  14.2988  14.4523  14.4541  14.6857  14.6858  19.7729  19.7729
    21.4432  21.4432  28.3137  28.3155  28.5761  28.5846  29.0342  29.0376
    34.9887  35.0112  35.3581  35.4050  38.1397  38.1874  42.1770  42.1771
    44.8192  44.8470  45.3494  45.3495  49.3740  49.4097  50.8378  50.8502
    52.2078  52.2080  53.8432  53.8510

          k = 0.0951-0.0476 0.0951 (  1759 PWs)   bands (ev):

     8.3290  10.6091  10.6092  11.1209  11.6147  11.7551  11.7556  12.2819
    12.4876  12.4878  12.6125  12.9265  13.0756  13.5277  13.5287  13.5319
    13.8922  14.4524  14.5999  14.6010  14.6190  16.3612  16.3613  18.8936
    21.1408  24.1138  24.1138  28.0911  28.1811  31.1910  31.1911  32.2052
    32.2054  34.0641  35.2595  36.9262  39.3311  39.3312  40.0705  43.1415
    43.7186  44.7213  46.4477  46.4477  49.2362  49.2365  50.3396  50.5699
    50.8908  51.6799  52.3563  52.8440

          k =-0.0951 0.0476 0.0951 (  1759 PWs)   bands (ev):

     8.3290  10.6091  10.6092  11.1209  11.6147  11.7552  11.7556  12.2819
    12.4876  12.4878  12.6125  12.9265  13.0756  13.5277  13.5287  13.5319
    13.8922  14.4524  14.5999  14.6010  14.6190  16.3612  16.3613  18.8936
    21.1408  24.1138  24.1139  28.0911  28.1811  31.1910  31.1911  32.2052
    32.2054  34.0641  35.2595  36.9262  39.3311  39.3312  40.0705  43.1415
    43.7186  44.7213  46.4477  46.4477  49.2362  49.2365  50.3396  50.5699
    50.8908  51.6799  52.3563  52.8437

          k = 0.0951-0.0476-0.1427 (  1754 PWs)   bands (ev):

     9.5445   9.5549  10.9702  10.9748  11.8742  11.8764  12.1059  12.1246
    12.4640  12.4726  12.6473  12.6641  13.2024  13.2067  13.3841  13.3871
    14.2063  14.2156  14.5054  14.5129  15.0565  15.0599  17.5903  17.6024
    22.1084  22.1172  25.8542  25.8601  29.5255  29.5330  33.0883  33.0892
    33.3113  33.3182  36.8839  36.9362  40.1083  40.1190  40.4551  40.4652
    45.1692  45.1728  45.6540  45.6809  47.6677  47.6832  50.5899  50.6111
    51.7146  51.7265  53.9475  53.9697

          k = 0.0951-0.0951 0.0951 (  1757 PWs)   bands (ev):

     8.9941  10.5610  10.5613  10.5613  12.0708  12.0710  12.0710  12.5484
    12.7660  12.7660  12.7669  12.8938  12.8938  13.1663  13.1663  13.1666
    14.3322  14.3322  14.7435  14.7435  14.7437  16.6127  16.6128  16.6129
    21.7427  21.7428  21.7428  25.3692  32.5393  32.5393  32.5395  35.2979
    35.2980  35.2981  37.2787  37.2788  37.2791  37.6144  40.0293  40.0293
    44.4459  44.4459  47.7782  48.0051  48.0052  48.0063  48.1322  48.1324
    48.1324  52.4692  52.4695  52.4695

          k = 0.0951-0.0951-0.1427 (  1748 PWs)   bands (ev):

     9.8170   9.8218  10.5209  10.5212  12.2633  12.2635  12.5706  12.5829
    12.8164  12.8320  12.9262  12.9275  12.9701  12.9701  13.0339  13.0340
    14.6442  14.6462  14.6725  14.6731  14.8697  14.8725  16.8021  16.8021
    20.8123  20.8123  23.2481  23.2543  33.4166  33.4167  34.7056  34.7058
    36.2035  36.2269  37.3054  37.3164  39.0482  39.0854  39.4067  39.4068
    44.6701  44.6702  44.8626  44.8815  46.0136  46.0196  48.5018  48.5019
    49.6457  49.6534  53.0761  53.0770

     the Fermi energy is    14.4884 ev

!    total energy              =    -343.63016027 Ry
     Harris-Foulkes estimate   =    -343.63016026 Ry
     estimated scf accuracy    <          2.4E-09 Ry

     The total energy is the sum of the following terms:

     one-electron contribution =      -6.42086866 Ry
     hartree contribution      =      60.36220054 Ry
     xc contribution           =    -120.51386579 Ry
     ewald contribution        =    -277.00922270 Ry
     Dispersion Correction     =      -0.04782942 Ry
     smearing contrib. (-TS)   =      -0.00057424 Ry

     total magnetization       =     2.84 Bohr mag/cell
     absolute magnetization    =     3.25 Bohr mag/cell

     convergence has been achieved in  11 iterations

     Forces acting on atoms (Ry/au):

     atom    1 type  1   force =    -0.00171247   -0.00171247    0.00171296
     atom    2 type  1   force =     0.00171199    0.00171199    0.00171199
     atom    3 type  1   force =    -0.00171247    0.00171296   -0.00171247
     atom    4 type  1   force =     0.00171296   -0.00171247   -0.00171247

     Total force =     0.005932     Total SCF correction =     0.000018


     entering subroutine stress ...

          total   stress  (Ry/bohr**3)                   (kbar)     P=   -0.06
  -0.00000038  -0.00000000  -0.00000000         -0.06     -0.00     -0.00
  -0.00000000  -0.00000038  -0.00000000         -0.00     -0.06     -0.00
  -0.00000000  -0.00000000  -0.00000038         -0.00     -0.00     -0.06


     number of scf cycles    =   2
     number of bfgs steps    =   1

     enthalpy old            =    -343.6295673446 Ry
     enthalpy new            =    -343.6301602704 Ry

     CASE: enthalpy_new < enthalpy_old

     new trust radius        =       0.0031925560 bohr
     new conv_thr            =       0.0000000002 Ry

     new unit-cell volume =    290.01385 a.u.^3 (    42.97562 Ang^3 )

CELL_PARAMETERS (alat=  1.88972590)
   3.502736186  -0.000000227  -0.000000227
  -0.000000227   3.502736186  -0.000000227
  -0.000000227  -0.000000227   3.502736186

ATOMIC_POSITIONS (alat)
Ni1      1.756956305   1.756956305   0.002187685
Ni1      0.002186692   0.002186692   0.002186692
Ni1      1.756956305   0.002187685   1.756956305
Ni1      0.002187685   1.756956305   1.756956305



     Writing output data file Ni-ferromag.save
     NEW-OLD atomic charge density approx. for the potential

     Check: negative/imaginary core charge=   -0.000005    0.000000
     extrapolated charge   39.97785, renormalised to   40.00000

     total cpu time spent up to now is      822.3 secs

     Self-consistent Calculation

     iteration #  1     ecut=    50.00 Ry     beta=0.20
     Davidson diagonalization with overlap
     ethr =  1.00E-06,  avg # of iterations =  2.4

     total cpu time spent up to now is      863.9 secs

     total energy              =    -343.63008039 Ry
     Harris-Foulkes estimate   =    -343.65349432 Ry
     estimated scf accuracy    <       0.00015867 Ry

     total magnetization       =     2.83 Bohr mag/cell
     absolute magnetization    =     3.24 Bohr mag/cell

     iteration #  2     ecut=    50.00 Ry     beta=0.20
     Davidson diagonalization with overlap
     ethr =  3.97E-07,  avg # of iterations =  1.7

     total cpu time spent up to now is      891.0 secs

     total energy              =    -343.63018080 Ry
     Harris-Foulkes estimate   =    -343.63019293 Ry
     estimated scf accuracy    <       0.00006435 Ry

     total magnetization       =     2.84 Bohr mag/cell
     absolute magnetization    =     3.26 Bohr mag/cell

     iteration #  3     ecut=    50.00 Ry     beta=0.20
     Davidson diagonalization with overlap
     ethr =  1.61E-07,  avg # of iterations =  1.0

     total cpu time spent up to now is      917.4 secs

     total energy              =    -343.63016633 Ry
     Harris-Foulkes estimate   =    -343.63018285 Ry
     estimated scf accuracy    <       0.00002276 Ry

     total magnetization       =     2.84 Bohr mag/cell
     absolute magnetization    =     3.25 Bohr mag/cell

     iteration #  4     ecut=    50.00 Ry     beta=0.20
     Davidson diagonalization with overlap
     ethr =  5.69E-08,  avg # of iterations =  2.0

     total cpu time spent up to now is      946.0 secs

     total energy              =    -343.63017749 Ry
     Harris-Foulkes estimate   =    -343.63018741 Ry
     estimated scf accuracy    <       0.00004018 Ry

     total magnetization       =     2.83 Bohr mag/cell
     absolute magnetization    =     3.25 Bohr mag/cell

     iteration #  5     ecut=    50.00 Ry     beta=0.20
     Davidson diagonalization with overlap
     ethr =  5.69E-08,  avg # of iterations =  1.0

     total cpu time spent up to now is      972.4 secs

     total energy              =    -343.63017561 Ry
     Harris-Foulkes estimate   =    -343.63017957 Ry
     estimated scf accuracy    <       0.00000844 Ry

     total magnetization       =     2.83 Bohr mag/cell
     absolute magnetization    =     3.25 Bohr mag/cell

     iteration #  6     ecut=    50.00 Ry     beta=0.20
     Davidson diagonalization with overlap
     ethr =  2.11E-08,  avg # of iterations =  1.0

     total cpu time spent up to now is      998.8 secs

     total energy              =    -343.63017751 Ry
     Harris-Foulkes estimate   =    -343.63017754 Ry
     estimated scf accuracy    <       0.00000018 Ry

     total magnetization       =     2.84 Bohr mag/cell
     absolute magnetization    =     3.25 Bohr mag/cell

     iteration #  7     ecut=    50.00 Ry     beta=0.20
     Davidson diagonalization with overlap
     ethr =  4.39E-10,  avg # of iterations =  1.5

     total cpu time spent up to now is     1025.7 secs

     total energy              =    -343.63017750 Ry
     Harris-Foulkes estimate   =    -343.63017752 Ry
     estimated scf accuracy    <       0.00000005 Ry

     total magnetization       =     2.84 Bohr mag/cell
     absolute magnetization    =     3.25 Bohr mag/cell

     iteration #  8     ecut=    50.00 Ry     beta=0.20
     Davidson diagonalization with overlap
     ethr =  1.26E-10,  avg # of iterations =  2.2

     total cpu time spent up to now is     1058.7 secs

     total energy              =    -343.63017756 Ry
     Harris-Foulkes estimate   =    -343.63017779 Ry
     estimated scf accuracy    <       0.00000116 Ry

     total magnetization       =     2.84 Bohr mag/cell
     absolute magnetization    =     3.25 Bohr mag/cell

     iteration #  9     ecut=    50.00 Ry     beta=0.20
     Davidson diagonalization with overlap
     ethr =  1.26E-10,  avg # of iterations =  2.0

     total cpu time spent up to now is     1086.9 secs

     total energy              =    -343.63017767 Ry
     Harris-Foulkes estimate   =    -343.63017760 Ry
     estimated scf accuracy    <       0.00000035 Ry

     total magnetization       =     2.84 Bohr mag/cell
     absolute magnetization    =     3.25 Bohr mag/cell

     iteration # 10     ecut=    50.00 Ry     beta=0.20
     Davidson diagonalization with overlap
     ethr =  1.26E-10,  avg # of iterations =  1.0

     total cpu time spent up to now is     1113.4 secs

     total energy              =    -343.63017739 Ry
     Harris-Foulkes estimate   =    -343.63017768 Ry
     estimated scf accuracy    <       0.00000069 Ry

     total magnetization       =     2.84 Bohr mag/cell
     absolute magnetization    =     3.25 Bohr mag/cell

     iteration # 11     ecut=    50.00 Ry     beta=0.20
     Davidson diagonalization with overlap
     ethr =  1.26E-10,  avg # of iterations =  2.0

     Magnetic moment per site:
     atom:    1    charge:    3.0044    magn:    0.3348    constr:    0.0000
     atom:    2    charge:    3.0026    magn:    0.3346    constr:    0.0000
     atom:    3    charge:    3.0044    magn:    0.3348    constr:    0.0000
     atom:    4    charge:    3.0044    magn:    0.3348    constr:    0.0000

     total cpu time spent up to now is     1145.0 secs

     End of self-consistent calculation

 ------ SPIN UP ------------


          k = 0.0000 0.0000 0.0000 (  1791 PWs)   bands (ev):

     5.4345   9.7186   9.7186   9.7186  10.1720  10.1721  10.1721  11.9519
    11.9519  11.9519  13.1311  13.1311  13.8493  13.8493  13.8493  13.9393
    13.9393  13.9393  13.9394  13.9394  13.9394  17.0780  17.0780  17.0780
    23.8188  23.8188  23.8188  29.5770  29.5770  29.5770  29.5771  29.5771
    29.5771  34.6561  34.6561  34.6562  38.0029  38.0030  38.0030  38.5045
    42.4832  42.4832  42.4832  46.0832  46.0832  46.0832  48.1851  55.1838
    55.1838  55.1838  57.6176  59.0392

          k = 0.0000 0.0000 0.0476 (  1779 PWs)   bands (ev):

     5.8008   9.7408   9.9029   9.9029  10.2826  10.2984  10.2985  11.8231
    12.0543  12.0543  13.0130  13.1777  13.2851  13.2852  13.6957  13.6957
    13.7634  13.7634  13.7998  13.9397  13.9397  15.4770  18.0370  18.0371
    23.9146  23.9147  26.0682  27.8250  27.8251  28.4535  28.4535  30.1375
    30.1375  34.7722  36.8290  36.8291  37.8692  38.1348  39.9600  39.9601
    40.2622  40.2622  40.9272  47.5034  48.1398  48.1398  49.1632  51.5707
    56.2804  56.2804  56.6869  56.6870

          k = 0.0000 0.0000 0.0952 (  1783 PWs)   bands (ev):

     6.8503   9.5116  10.3400  10.3400  10.5903  10.6817  10.6818  11.4789
    12.2286  12.2287  12.3510  12.3510  12.7252  13.3065  13.3126  13.3142
    13.3143  13.3273  13.3273  13.6656  13.9402  13.9402  20.0001  20.0001
    24.2317  24.2317  25.0511  25.0511  26.6855  26.6855  30.3684  31.7172
    31.7172  35.1353  36.7370  37.0403  37.0403  38.3587  38.6871  40.8739
    40.8740  44.1252  44.1253  44.1591  50.9390  51.0597  51.0597  51.0632
    51.0632  55.0488  55.9511  55.9512

          k =-0.0000-0.0000-0.1427 (  1750 PWs)   bands (ev):

     8.3450   8.3548  10.6162  10.6162  11.0182  11.0325  11.3217  11.3217
    11.3358  11.3359  12.5381  12.5581  12.7979  12.7979  12.8086  12.8086
    13.0688  13.0688  13.4807  13.4886  13.9405  13.9405  22.3739  22.3739
    22.3986  22.3986  24.6044  24.6045  25.7404  25.7405  34.0870  34.0870
    34.1044  34.1044  34.9001  34.9366  35.7785  35.7871  40.2524  40.3109
    45.6503  45.6504  45.7013  45.7013  47.6316  47.6316  52.3036  52.3036
    54.1645  54.1646  54.2115  54.2115

          k = 0.0000 0.0476 0.0476 (  1773 PWs)   bands (ev):

     6.1585   9.9392   9.9392  10.0661  10.3999  10.4000  10.4139  11.7631
    12.0993  12.1163  12.9387  12.9842  12.9972  13.0015  13.1732  13.5671
    13.6916  13.6917  13.7621  13.7621  13.8236  16.4095  16.4096  18.8071
    23.9086  25.1077  26.2554  26.2554  28.3027  28.3028  28.9461  28.9462
    30.6653  36.0457  36.1288  37.0376  37.0377  37.3431  40.1282  40.1282
    41.2815  42.6162  43.5426  45.2433  46.3768  49.8026  50.4677  53.1090
    53.6814  55.3630  55.3632  56.3169

          k = 0.0000 0.0476 0.0952 (  1759 PWs)   bands (ev):

     7.1802   9.7478  10.4214  10.4700  10.6818  10.7351  10.7542  11.4820
    11.9900  12.1296  12.2452  12.3627  12.3883  12.8216  13.2432  13.3190
    13.3310  13.3525  13.5047  13.7586  13.7650  14.4425  18.0243  20.5903
    22.0887  24.6174  25.5126  26.5417  27.4106  29.6166  29.9099  29.9663
    31.0254  33.7337  34.4771  37.6899  38.6428  40.4006  40.5793  40.7603
    41.1298  44.0525  45.0465  47.0711  47.7972  48.6010  49.9063  51.3479
    52.9531  53.2735  54.8318  56.2142

          k =-0.0000 0.0476-0.1427 (  1760 PWs)   bands (ev):

     8.6269   8.6360  10.7685  10.7691  11.0701  11.0839  11.1908  11.2023
    11.3364  11.3502  12.1671  12.1818  12.7985  12.8095  13.0309  13.0358
    13.0536  13.0542  13.6682  13.6683  13.7553  13.7575  19.8869  19.8995
    22.8745  22.8967  25.4124  25.4293  28.3159  28.3215  31.5030  31.5104
    32.0277  32.0328  35.8182  35.8601  38.8373  38.8405  42.2078  42.2439
    43.1195  43.1329  45.9279  45.9760  50.0745  50.1174  50.3572  50.3774
    52.6176  52.6337  53.2098  53.2228

          k = 0.0000 0.0952 0.0952 (  1746 PWs)   bands (ev):

     8.1069  10.3355  10.3355  10.7015  10.9499  10.9501  10.9638  11.4122
    11.6593  11.6593  11.8139  12.1326  12.4935  12.7353  13.0271  13.1820
    13.1821  13.3226  13.3227  13.4927  13.7080  15.6888  15.6888  19.3076
    22.1172  25.1680  26.7855  26.7855  27.9055  27.9056  30.9945  31.6493
    31.6507  31.7476  33.6144  36.8486  41.5382  41.8917  41.8917  43.0876
    43.4230  43.7839  43.7840  47.2030  47.3432  48.4884  48.4886  51.6878
    52.1907  52.2033  53.2147  55.3639

          k =-0.0000 0.0952-0.1427 (  1746 PWs)   bands (ev):

     9.3704   9.3778  10.8021  10.8109  11.1964  11.2061  11.2140  11.2162
    11.3556  11.3684  11.8636  11.8733  12.8354  12.8405  12.8411  12.8465
    12.9075  12.9093  13.3543  13.3608  14.3688  14.3706  17.2156  17.2254
    24.2334  24.2502  26.2290  26.2428  28.6578  28.6658  29.5466  29.5483
    32.9577  32.9614  36.7812  36.8222  40.3719  40.3800  43.0571  43.0650
    43.2270  43.2307  46.7328  46.7719  47.9262  47.9499  50.4297  50.4515
    51.7589  51.7939  53.5715  53.5808

          k =-0.0000-0.1427-0.1427 (  1740 PWs)   bands (ev):

    10.2209  10.2274  10.2274  10.2337  11.3116  11.3238  11.3238  11.3360
    11.6296  11.6331  11.6331  11.6366  12.6933  12.6945  12.6945  12.6959
    12.9990  13.0091  13.0091  13.0192  15.4357  15.4403  15.4403  15.4449
    26.2047  26.2163  26.2164  26.2279  27.5799  27.5882  27.5882  27.5967
    37.8931  37.9044  37.9044  37.9160  38.4970  38.5108  38.5109  38.5238
    47.1899  47.1899  47.1900  47.1904  49.1814  49.2035  49.2036  49.2256
    51.8319  51.8338  51.8338  51.8356

          k = 0.0476 0.0476 0.0476 (  1791 PWs)   bands (ev):

     6.5043  10.1002  10.1002  10.1002  10.5145  10.5146  10.5146  11.7282
    12.1360  12.1360  12.6931  12.6931  12.6931  13.0863  13.0863  13.3336
    13.3337  13.3337  13.8777  13.8777  13.8777  17.0369  17.0369  17.0369
    25.3340  25.3340  25.3340  26.6008  26.6008  26.6009  31.1807  31.1808
    31.1808  33.4922  36.1770  36.1770  36.1771  39.2621  41.1497  41.1497
    42.8234  42.8235  42.8235  46.6041  47.6603  47.6603  51.6586  51.6586
    55.1199  55.2417  55.2419  55.2419

          k = 0.0476 0.0476 0.0952 (  1762 PWs)   bands (ev):

     7.4859   9.9065  10.4834  10.4835  10.8002  10.8284  10.8285  11.5187
    11.9803  11.9804  12.1749  12.2163  12.2756  12.9312  13.0016  13.0876
    13.0880  13.3261  13.7804  13.7804  13.8127  14.8044  18.3794  18.3795
    22.7148  22.7148  26.6280  27.2521  27.2521  30.3678  30.3678  30.7546
    30.9573  32.6608  36.6561  37.7861  37.8617  38.8015  38.8015  42.3723
    43.5157  44.4818  47.0334  47.0334  47.8958  49.0956  50.2132  50.2133
    50.7091  53.0297  53.0910  55.6733

          k = 0.0476 0.0476-0.1427 (  1752 PWs)   bands (ev):

     8.8544   8.8625  10.8706  10.8709  10.9287  10.9288  11.1659  11.1788
    11.5864  11.5864  12.0714  12.0859  12.5463  12.5512  12.9198  12.9199
    13.4905  13.5007  13.6011  13.6033  13.7244  13.7244  19.5283  19.5283
    21.1536  21.1536  28.2153  28.2162  28.4525  28.4578  28.9368  28.9381
    34.9417  34.9562  35.4106  35.4395  38.0911  38.1213  42.2156  42.2156
    44.7609  44.7772  45.3817  45.3817  49.4815  49.5042  50.9082  50.9160
    52.1993  52.1993  53.6925  53.6944

          k = 0.0476 0.0952 0.0952 (  1759 PWs)   bands (ev):

     8.3249  10.2243  10.2244  10.5105  11.1159  11.1619  11.1620  11.5638
    11.7764  11.7764  11.9096  12.1346  12.2605  12.7388  12.7389  12.7554
    13.0585  13.6136  13.6826  13.6982  13.6986  15.8195  15.8195  18.6312
    20.8113  23.9118  23.9118  27.9507  28.0642  31.1436  31.1436  32.1307
    32.1308  34.0274  35.2516  36.9194  39.3356  39.3357  40.1648  43.0503
    43.7475  44.7959  46.4755  46.4755  49.2054  49.2055  50.4303  50.6088
    50.9377  51.6325  52.3147  52.9394

          k = 0.0476 0.0952-0.1427 (  1754 PWs)   bands (ev):

     9.4057   9.4107  10.4449  10.4464  11.3292  11.3296  11.4726  11.4831
    11.7810  11.7854  11.8994  11.9090  12.4080  12.4116  12.6195  12.6218
    13.3537  13.3578  13.5814  13.5856  14.2752  14.2768  17.1934  17.2014
    21.8240  21.8303  25.6706  25.6750  29.4430  29.4469  33.0485  33.0501
    33.2618  33.2653  36.8986  36.9322  40.1448  40.1522  40.4544  40.4604
    45.2037  45.2064  45.6890  45.7052  47.7123  47.7210  50.5796  50.5930
    51.7998  51.8077  53.8993  53.9133

          k = 0.0476-0.1427-0.1427 (  1752 PWs)   bands (ev):

     9.9755   9.9777   9.9777   9.9796  11.7173  11.7207  11.7207  11.7240
    11.8011  11.8082  11.8082  11.8154  12.3777  12.3812  12.3812  12.3847
    13.3320  13.3383  13.3383  13.3447  15.3460  15.3511  15.3511  15.3562
    23.4564  23.4612  23.4612  23.4660  30.9813  30.9828  30.9828  30.9844
    38.1750  38.1843  38.1843  38.1951  38.3422  38.3550  38.3550  38.3657
    46.6667  46.6668  46.6668  46.6683  46.7592  46.7718  46.7718  46.7831
    54.8156  54.8247  54.8248  54.8353

          k = 0.0952 0.0952 0.0952 (  1757 PWs)   bands (ev):

     8.8687  10.0592  10.0593  10.0593  11.5205  11.5206  11.5206  12.0346
    12.0936  12.0936  12.0963  12.1036  12.1036  12.3846  12.3846  12.3847
    13.4614  13.4614  13.8264  13.8264  13.8265  16.1977  16.1977  16.1977
    21.4187  21.4187  21.4188  25.1594  32.5098  32.5098  32.5098  35.2550
    35.2551  35.2551  37.2846  37.2846  37.2847  37.8009  39.9638  39.9638
    44.4579  44.4579  47.7864  48.0785  48.0785  48.0788  48.1533  48.1534
    48.1534  52.4633  52.4635  52.4635

          k = 0.0952 0.0952-0.1427 (  1748 PWs)   bands (ev):

     9.4942   9.4955   9.9907   9.9908  11.6405  11.6405  11.9233  11.9312
    12.1435  12.1446  12.2632  12.2645  12.2756  12.2837  12.3791  12.3792
    13.7464  13.7472  13.7547  13.7550  14.1656  14.1661  16.4818  16.4819
    20.3898  20.3898  22.9745  22.9791  33.4253  33.4253  34.6385  34.6386
    36.3328  36.3468  37.2541  37.2616  38.9950  39.0188  39.4508  39.4508
    44.6654  44.6655  44.9098  44.9217  46.0285  46.0317  48.5641  48.5641
    49.6176  49.6226  52.9924  52.9928

          k = 0.0952-0.1427-0.1427 (  1764 PWs)   bands (ev):

     9.6703   9.6704   9.6704   9.6704  11.8846  11.8867  11.8867  11.8887
    12.0743  12.0765  12.0765  12.0788  12.8217  12.8262  12.8262  12.8308
    13.6714  13.6749  13.6749  13.6784  14.9683  14.9741  14.9741  14.9799
    21.0994  21.1033  21.1033  21.1072  35.1632  35.1651  35.1652  35.1671
    38.2239  38.2301  38.2301  38.2364  38.9459  38.9523  38.9523  38.9582
    44.1016  44.1071  44.1071  44.1126  45.1687  45.1702  45.1702  45.1715
    50.4321  50.4345  50.4345  50.4371

          k =-0.1427-0.1427-0.1427 (  1736 PWs)   bands (ev):

     9.5543   9.5544   9.5544   9.5544  11.9649  11.9649  11.9649  11.9649
    11.9649  11.9650  11.9650  11.9650  13.8022  13.8022  13.8022  13.8024
    13.8024  13.8024  13.8024  13.8024  14.2982  14.2983  14.2984  14.2984
    20.2221  20.2221  20.2222  20.2222  36.9593  36.9595  36.9595  36.9595
    39.5886  39.5886  39.5886  39.5886  39.5886  39.5888  39.5888  39.5888
    42.8159  42.8159  42.8159  42.8159  42.8159  42.8160  42.8160  42.8160
    48.7884  48.7884  48.7884  48.7885

          k =-0.0476-0.0000 0.0476 (  1773 PWs)   bands (ev):

     6.1585   9.9392   9.9392  10.0661  10.3999  10.4000  10.4139  11.7631
    12.0993  12.1163  12.9388  12.9842  12.9972  13.0015  13.1732  13.5671
    13.6916  13.6917  13.7621  13.7621  13.8236  16.4095  16.4096  18.8071
    23.9086  25.1077  26.2554  26.2555  28.3027  28.3028  28.9461  28.9462
    30.6653  36.0457  36.1288  37.0376  37.0376  37.3431  40.1281  40.1283
    41.2815  42.6162  43.5426  45.2433  46.3768  49.8026  50.4677  53.1090
    53.6814  55.3630  55.3632  56.3169

          k =-0.0476 0.0000 0.0952 (  1759 PWs)   bands (ev):

     7.1802   9.7478  10.4214  10.4700  10.6818  10.7351  10.7542  11.4820
    11.9900  12.1296  12.2452  12.3627  12.3883  12.8216  13.2432  13.3190
    13.3310  13.3525  13.5047  13.7586  13.7650  14.4425  18.0243  20.5903
    22.0887  24.6174  25.5126  26.5417  27.4106  29.6166  29.9099  29.9663
    31.0254  33.7337  34.4771  37.6899  38.6429  40.4006  40.5793  40.7603
    41.1298  44.0525  45.0465  47.0711  47.7972  48.6010  49.9063  51.3479
    52.9531  53.2735  54.8318  56.2142

          k =-0.0952-0.0000 0.0952 (  1746 PWs)   bands (ev):

     8.1069  10.3355  10.3355  10.7015  10.9499  10.9501  10.9638  11.4122
    11.6593  11.6593  11.8139  12.1326  12.4935  12.7353  13.0271  13.1820
    13.1821  13.3226  13.3227  13.4927  13.7080  15.6888  15.6888  19.3076
    22.1172  25.1680  26.7855  26.7855  27.9054  27.9056  30.9945  31.6494
    31.6507  31.7476  33.6144  36.8486  41.5382  41.8917  41.8917  43.0876
    43.4230  43.7839  43.7840  47.2030  47.3432  48.4884  48.4886  51.6878
    52.1907  52.2033  53.2147  55.3615

          k = 0.0476-0.0476 0.0476 (  1791 PWs)   bands (ev):

     6.5043  10.1002  10.1002  10.1002  10.5145  10.5146  10.5146  11.7282
    12.1360  12.1360  12.6931  12.6931  12.6931  13.0863  13.0863  13.3336
    13.3337  13.3337  13.8777  13.8777  13.8777  17.0369  17.0369  17.0369
    25.3340  25.3340  25.3340  26.6008  26.6008  26.6009  31.1807  31.1808
    31.1808  33.4922  36.1770  36.1770  36.1771  39.2621  41.1497  41.1497
    42.8234  42.8235  42.8235  46.6041  47.6603  47.6603  51.6586  51.6586
    55.1199  55.2417  55.2419  55.2419

          k = 0.0476-0.0476 0.0952 (  1762 PWs)   bands (ev):

     7.4859   9.9065  10.4834  10.4835  10.8002  10.8284  10.8285  11.5187
    11.9803  11.9804  12.1749  12.2163  12.2756  12.9312  13.0016  13.0876
    13.0880  13.3261  13.7804  13.7804  13.8127  14.8044  18.3795  18.3795
    22.7148  22.7148  26.6280  27.2521  27.2521  30.3678  30.3678  30.7546
    30.9573  32.6608  36.6561  37.7861  37.8617  38.8015  38.8015  42.3723
    43.5157  44.4819  47.0334  47.0335  47.8958  49.0956  50.2132  50.2133
    50.7091  53.0297  53.0910  55.6733

          k =-0.0952 0.0476 0.0476 (  1762 PWs)   bands (ev):

     7.4859   9.9065  10.4834  10.4835  10.8002  10.8284  10.8285  11.5187
    11.9803  11.9804  12.1749  12.2163  12.2756  12.9312  13.0016  13.0876
    13.0880  13.3261  13.7804  13.7804  13.8127  14.8044  18.3794  18.3795
    22.7148  22.7148  26.6280  27.2521  27.2521  30.3678  30.3678  30.7546
    30.9573  32.6608  36.6561  37.7861  37.8617  38.8015  38.8015  42.3723
    43.5157  44.4819  47.0334  47.0334  47.8958  49.0956  50.2132  50.2133
    50.7091  53.0297  53.0910  55.6733

          k = 0.0476-0.0476-0.1427 (  1752 PWs)   bands (ev):

     8.8544   8.8625  10.8706  10.8709  10.9288  10.9288  11.1659  11.1788
    11.5863  11.5864  12.0714  12.0859  12.5463  12.5512  12.9198  12.9199
    13.4905  13.5007  13.6011  13.6033  13.7244  13.7244  19.5283  19.5283
    21.1536  21.1536  28.2154  28.2161  28.4524  28.4578  28.9368  28.9380
    34.9417  34.9562  35.4107  35.4395  38.0911  38.1213  42.2156  42.2156
    44.7609  44.7772  45.3817  45.3817  49.4815  49.5042  50.9082  50.9160
    52.1992  52.1993  53.6926  53.6944

          k = 0.0952-0.0476 0.0952 (  1759 PWs)   bands (ev):

     8.3249  10.2243  10.2244  10.5105  11.1159  11.1619  11.1620  11.5638
    11.7764  11.7764  11.9096  12.1346  12.2605  12.7388  12.7389  12.7554
    13.0585  13.6136  13.6826  13.6982  13.6986  15.8195  15.8195  18.6312
    20.8113  23.9118  23.9118  27.9507  28.0642  31.1436  31.1436  32.1307
    32.1308  34.0274  35.2516  36.9194  39.3356  39.3357  40.1648  43.0503
    43.7475  44.7959  46.4755  46.4755  49.2054  49.2055  50.4303  50.6088
    50.9377  51.6325  52.3147  52.9394

          k =-0.0952 0.0476 0.0952 (  1759 PWs)   bands (ev):

     8.3249  10.2243  10.2244  10.5105  11.1159  11.1619  11.1620  11.5638
    11.7764  11.7764  11.9096  12.1346  12.2605  12.7388  12.7389  12.7554
    13.0585  13.6136  13.6826  13.6982  13.6986  15.8195  15.8195  18.6312
    20.8113  23.9118  23.9118  27.9507  28.0642  31.1436  31.1436  32.1307
    32.1308  34.0274  35.2516  36.9194  39.3356  39.3357  40.1648  43.0503
    43.7475  44.7959  46.4755  46.4755  49.2054  49.2055  50.4303  50.6088
    50.9377  51.6325  52.3147  52.9394

          k = 0.0952-0.0476-0.1427 (  1754 PWs)   bands (ev):

     9.4057   9.4107  10.4449  10.4464  11.3292  11.3296  11.4726  11.4831
    11.7810  11.7854  11.8994  11.9090  12.4080  12.4116  12.6195  12.6218
    13.3537  13.3578  13.5814  13.5856  14.2752  14.2768  17.1934  17.2014
    21.8240  21.8303  25.6706  25.6750  29.4430  29.4469  33.0485  33.0501
    33.2618  33.2653  36.8986  36.9322  40.1448  40.1522  40.4544  40.4604
    45.2037  45.2064  45.6890  45.7052  47.7123  47.7210  50.5796  50.5930
    51.7998  51.8077  53.8997  53.9146

          k = 0.0952-0.0952 0.0952 (  1757 PWs)   bands (ev):

     8.8687  10.0592  10.0593  10.0593  11.5205  11.5206  11.5206  12.0346
    12.0936  12.0936  12.0963  12.1036  12.1036  12.3846  12.3846  12.3847
    13.4614  13.4614  13.8264  13.8264  13.8265  16.1977  16.1977  16.1977
    21.4187  21.4188  21.4188  25.1594  32.5098  32.5098  32.5099  35.2550
    35.2551  35.2551  37.2846  37.2846  37.2848  37.8009  39.9639  39.9639
    44.4579  44.4579  47.7864  48.0785  48.0785  48.0789  48.1533  48.1534
    48.1534  52.4633  52.4634  52.4634

          k = 0.0952-0.0952-0.1427 (  1748 PWs)   bands (ev):

     9.4942   9.4955   9.9907   9.9908  11.6405  11.6405  11.9233  11.9312
    12.1435  12.1446  12.2632  12.2645  12.2756  12.2837  12.3791  12.3793
    13.7464  13.7472  13.7547  13.7550  14.1656  14.1660  16.4818  16.4818
    20.3898  20.3898  22.9745  22.9791  33.4253  33.4253  34.6385  34.6386
    36.3328  36.3468  37.2541  37.2616  38.9950  39.0188  39.4508  39.4509
    44.6654  44.6655  44.9098  44.9217  46.0285  46.0317  48.5641  48.5641
    49.6176  49.6226  52.9924  52.9928

 ------ SPIN DOWN ----------


          k = 0.0000 0.0000 0.0000 (  1791 PWs)   bands (ev):

     5.3800  10.1806  10.1806  10.1806  10.8901  10.8903  10.8903  12.8323
    12.8323  12.8323  13.9112  13.9112  14.6634  14.6635  14.6635  14.9488
    14.9488  14.9488  14.9488  14.9488  14.9488  16.9993  16.9993  16.9993
    24.1245  24.1245  24.1245  29.5633  29.5633  29.5633  29.5634  29.5634
    29.5634  34.8204  34.8204  34.8205  38.1464  38.1466  38.1466  38.2990
    42.4539  42.4539  42.4539  46.1557  46.1557  46.1558  48.0257  55.3729
    55.3729  55.3729  58.1380  59.5567

          k = 0.0000 0.0000 0.0476 (  1779 PWs)   bands (ev):

     5.7462  10.1563  10.3749  10.3749  11.0096  11.0140  11.0142  12.6902
    12.9388  12.9388  13.7835  13.9599  14.1051  14.1052  14.4963  14.4963
    14.6115  14.7561  14.7561  14.9491  14.9491  15.5472  18.1439  18.1440
    24.2052  24.2053  26.2701  27.8937  27.8937  28.4808  28.4809  30.1402
    30.1402  34.9239  36.9101  36.9101  37.7306  38.2759  40.0803  40.0804
    40.3043  40.3043  40.8574  47.5240  48.1137  48.1137  49.2348  51.5619
    56.4917  56.4917  56.6135  56.6136

          k = 0.0000 0.0000 0.0952 (  1783 PWs)   bands (ev):

     6.8000   9.7198  10.8365  10.8365  11.3428  11.3919  11.3921  12.3118
    12.9579  12.9580  13.2486  13.2486  13.4624  13.6834  14.0841  14.0841
    14.0947  14.2811  14.2811  14.4707  14.9497  14.9497  20.1853  20.1853
    24.4779  24.4780  25.1919  25.1919  26.7837  26.7837  30.4641  31.7542
    31.7542  35.2493  36.7024  37.1118  37.1118  38.2685  38.8332  40.8794
    40.8795  44.2246  44.2247  44.3773  50.8946  50.9649  50.9649  50.9898
    50.9898  54.9446  56.1924  56.1925

          k =-0.0000-0.0000-0.1427 (  1750 PWs)   bands (ev):

     8.3384   8.3485  11.1283  11.1284  11.8081  11.8234  12.0307  12.0309
    12.0452  12.0454  13.1851  13.2069  13.7190  13.7190  13.7301  13.7301
    13.8155  13.8156  14.2771  14.2853  14.9500  14.9500  22.5553  22.5553
    22.5806  22.5806  24.8012  24.8012  25.8978  25.8979  34.1522  34.1522
    34.1695  34.1695  34.8798  34.9174  35.8291  35.8394  40.4441  40.5035
    45.6054  45.6054  45.6575  45.6576  47.7056  47.7057  52.4929  52.4929
    54.0543  54.0544  54.1013  54.1013

          k = 0.0000 0.0476 0.0476 (  1773 PWs)   bands (ev):

     6.1048  10.3673  10.3673  10.5570  11.1135  11.1239  11.1241  12.6166
    12.9892  12.9936  13.7037  13.7402  13.7452  13.7621  13.9603  14.3578
    14.4839  14.4840  14.7549  14.7549  14.8257  16.7241  16.7241  18.9728
    24.1673  25.2374  26.4442  26.4442  28.3857  28.3858  28.9872  28.9873
    30.6764  36.1203  36.1501  37.1083  37.1084  37.3606  40.2461  40.2461
    41.2008  42.7036  43.5117  45.1870  46.4374  49.9614  50.3932  53.2814
    53.6475  55.3251  55.3254  56.2573

          k = 0.0000 0.0476 0.0952 (  1759 PWs)   bands (ev):

     7.1347   9.9704  10.8837  11.0020  11.3971  11.4297  11.4712  12.3040
    12.6814  12.8505  13.0434  13.0856  13.2648  13.5860  14.0082  14.0934
    14.1636  14.2502  14.2794  14.7519  14.7614  15.1517  18.3629  20.7945
    22.2873  24.8454  25.6643  26.6766  27.5359  29.7252  29.9719  30.0367
    31.1228  33.8118  34.5196  37.7319  38.6809  40.3522  40.5270  40.8802
    41.1295  44.1347  45.2510  47.1376  47.7198  48.5835  49.8904  51.2732
    52.9087  53.1830  55.0520  56.4673

          k =-0.0000 0.0476-0.1427 (  1760 PWs)   bands (ev):

     8.6323   8.6418  11.2714  11.2726  11.8507  11.8650  11.8698  11.8813
    12.0482  12.0624  12.9069  12.9239  13.7223  13.7336  13.7998  13.8022
    13.8055  13.8074  14.5066  14.5071  14.7493  14.7517  20.1683  20.1811
    23.0676  23.0900  25.5833  25.6015  28.4324  28.4391  31.6175  31.6241
    32.0860  32.0904  35.8434  35.8854  38.8391  38.8415  42.3600  42.3972
    43.1119  43.1268  45.8795  45.9287  50.1404  50.1826  50.2896  50.3100
    52.5338  52.5505  53.3780  53.3908

          k = 0.0000 0.0952 0.0952 (  1746 PWs)   bands (ev):

     8.0848  10.6087  10.6087  11.3657  11.4480  11.6855  11.6858  12.2061
    12.3525  12.3525  12.5262  12.9238  13.4088  13.4823  13.7807  13.9195
    13.9196  14.2834  14.2835  14.4735  14.5504  16.2941  16.2941  19.6153
    22.3365  25.3665  26.9524  26.9524  28.0067  28.0068  31.1255  31.7379
    31.7396  31.8154  33.6669  36.8844  41.4747  41.8736  41.8737  43.1223
    43.3057  43.8264  43.8265  47.3244  47.3725  48.5334  48.5336  51.7474
    52.0802  52.1456  53.4183  55.2665

          k =-0.0000 0.0952-0.1427 (  1746 PWs)   bands (ev):

     9.4314   9.4396  11.2218  11.2304  11.8512  11.8520  11.9607  11.9743
    12.0760  12.0894  12.6000  12.6107  13.5750  13.5753  13.6478  13.6495
    13.7699  13.7816  14.3225  14.3296  15.1747  15.1769  17.6799  17.6895
    24.4388  24.4553  26.3802  26.3953  28.8206  28.8277  29.6364  29.6388
    33.0291  33.0337  36.8089  36.8500  40.3713  40.3785  43.0033  43.0106
    43.2456  43.2489  46.6707  46.7107  48.0080  48.0328  50.3768  50.3992
    51.8799  51.9148  53.4866  53.4952

          k =-0.0000-0.1427-0.1427 (  1740 PWs)   bands (ev):

    10.4396  10.4468  10.4468  10.4539  12.0486  12.0617  12.0617  12.0746
    12.2984  12.3024  12.3024  12.3065  13.4309  13.4323  13.4323  13.4337
    13.9476  13.9582  13.9582  13.9688  16.1183  16.1222  16.1222  16.1261
    26.4005  26.4114  26.4115  26.4223  27.7025  27.7118  27.7118  27.7213
    37.9676  37.9785  37.9785  37.9899  38.4640  38.4770  38.4771  38.4891
    47.0696  47.0700  47.0701  47.0711  49.1702  49.1928  49.1929  49.2155
    51.9320  51.9350  51.9350  51.9379

          k = 0.0476 0.0476 0.0476 (  1791 PWs)   bands (ev):

     6.4535  10.5552  10.5553  10.5553  11.2151  11.2153  11.2153  12.5616
    13.0141  13.0141  13.4038  13.4038  13.4038  13.8726  13.8726  14.1647
    14.1648  14.1648  14.8261  14.8261  14.8261  17.3779  17.3780  17.3780
    25.4656  25.4656  25.4656  26.7742  26.7742  26.7742  31.2026  31.2028
    31.2028  33.5588  36.2720  36.2720  36.2721  39.1068  41.2023  41.2023
    42.9076  42.9077  42.9077  46.5169  47.6176  47.6176  51.8254  51.8254
    55.1950  55.1953  55.1953  55.4574

          k = 0.0476 0.0476 0.0952 (  1762 PWs)   bands (ev):

     7.4509  10.1692  11.0149  11.0150  11.4567  11.4569  11.5126  12.3144
    12.6827  12.6827  12.8480  13.0461  13.1360  13.7774  13.8113  13.8744
    13.8751  14.1484  14.7139  14.7437  14.7438  15.4348  18.7064  18.7065
    22.9251  22.9251  26.7723  27.4011  27.4012  30.4427  30.4428  30.8688
    31.0448  32.7073  36.7307  37.6920  37.9389  38.8319  38.8319  42.3799
    43.5961  44.4994  47.0777  47.0777  47.9379  49.0414  50.2022  50.2023
    50.7162  52.9593  53.0512  55.7881

          k = 0.0476 0.0476-0.1427 (  1752 PWs)   bands (ev):

     8.8887   8.8975  11.4427  11.4427  11.5101  11.5103  11.9161  11.9302
    12.3003  12.3004  12.8203  12.8364  13.3974  13.4014  13.6835  13.6835
    14.2949  14.3058  14.4629  14.4640  14.6961  14.6961  19.7857  19.7858
    21.4576  21.4576  28.3303  28.3311  28.5947  28.5995  29.0515  29.0529
    35.0112  35.0255  35.3835  35.4133  38.1683  38.1987  42.1970  42.1970
    44.8472  44.8648  45.3707  45.3708  49.4021  49.4249  50.8625  50.8704
    52.2328  52.2328  53.8711  53.8743

          k = 0.0476 0.0952 0.0952 (  1759 PWs)   bands (ev):

     8.3369  10.6171  10.6172  11.1289  11.6229  11.7637  11.7638  12.2904
    12.4964  12.4965  12.6214  12.9353  13.0847  13.5379  13.5383  13.5410
    13.9019  14.4626  14.6110  14.6114  14.6287  16.3729  16.3729  18.9060
    21.1552  24.1289  24.1289  28.1117  28.1930  31.2074  31.2074  32.2233
    32.2234  34.0821  35.2772  36.9447  39.3505  39.3505  40.0886  43.1639
    43.7393  44.7417  46.4696  46.4696  49.2602  49.2603  50.3620  50.5925
    50.9142  51.7052  52.3804  52.8665

          k = 0.0476 0.0952-0.1427 (  1754 PWs)   bands (ev):

     9.5545   9.5611  10.9791  10.9821  11.8830  11.8844  12.1179  12.1298
    12.4743  12.4797  12.6591  12.6698  13.2126  13.2153  13.3942  13.3961
    14.2180  14.2239  14.5170  14.5217  15.0679  15.0700  17.6046  17.6123
    22.1246  22.1302  25.8711  25.8748  29.5432  29.5480  33.1059  33.1064
    33.3303  33.3348  36.9119  36.9451  40.1294  40.1362  40.4769  40.4833
    45.1912  45.1935  45.6804  45.6975  47.6927  47.7026  50.6179  50.6314
    51.7395  51.7470  53.9809  53.9945

          k = 0.0476-0.1427-0.1427 (  1752 PWs)   bands (ev):

    10.3306  10.3346  10.3346  10.3385  12.2853  12.2911  12.2911  12.2968
    12.5042  12.5113  12.5113  12.5183  13.1553  13.1584  13.1584  13.1615
    14.2430  14.2503  14.2503  14.2577  15.9925  15.9968  15.9968  16.0010
    23.7150  23.7190  23.7190  23.7230  31.0631  31.0656  31.0656  31.0681
    38.2476  38.2541  38.2542  38.2671  38.2939  38.3083  38.3084  38.3158
    46.5988  46.5989  46.5989  46.5999  46.7841  46.7973  46.7973  46.8097
    54.8793  54.8889  54.8890  55.1024

          k = 0.0952 0.0952 0.0952 (  1757 PWs)   bands (ev):

     9.0019  10.5690  10.5691  10.5691  12.0794  12.0796  12.0796  12.5575
    12.7752  12.7752  12.7756  12.9025  12.9025  13.1757  13.1757  13.1758
    14.3424  14.3424  14.7541  14.7541  14.7541  16.6243  16.6243  16.6243
    21.7574  21.7574  21.7574  25.3848  32.5563  32.5563  32.5563  35.3165
    35.3166  35.3166  37.2974  37.2974  37.2975  37.6301  40.0500  40.0500
    44.4672  44.4672  47.8015  48.0271  48.0271  48.0275  48.1548  48.1549
    48.1549  52.4946  52.4948  52.4948

          k = 0.0952 0.0952-0.1427 (  1748 PWs)   bands (ev):

     9.8256   9.8287  10.5288  10.5288  12.2720  12.2721  12.5818  12.5897
    12.8283  12.8382  12.9357  12.9364  12.9790  12.9790  13.0432  13.0432
    14.6551  14.6564  14.6832  14.6834  14.8807  14.8825  16.8135  16.8135
    20.8268  20.8269  23.2643  23.2682  33.4332  33.4332  34.7246  34.7247
    36.2238  36.2387  37.3269  37.3339  39.0754  39.0991  39.4255  39.4255
    44.6920  44.6920  44.8871  44.8991  46.0366  46.0404  48.5240  48.5240
    49.6712  49.6761  53.1016  53.1020

          k = 0.0952-0.1427-0.1427 (  1764 PWs)   bands (ev):

    10.1402  10.1411  10.1411  10.1419  12.6176  12.6196  12.6196  12.6215
    12.8502  12.8523  12.8523  12.8545  13.2612  13.2665  13.2665  13.2718
    14.5891  14.5930  14.5930  14.5970  15.5010  15.5057  15.5057  15.5104
    21.4928  21.4960  21.4961  21.4993  35.1363  35.1392  35.1393  35.1423
    38.1937  38.1993  38.1993  38.2050  39.0155  39.0216  39.0216  39.0271
    44.1331  44.1393  44.1393  44.1453  45.1611  45.1629  45.1629  45.1647
    50.5226  50.5250  50.5250  50.5277

          k =-0.1427-0.1427-0.1427 (  1736 PWs)   bands (ev):

    10.0556  10.0558  10.0558  10.0558  12.7378  12.7378  12.7378  12.7379
    12.7379  12.7379  12.7380  12.7380  14.1987  14.1988  14.1988  14.1990
    14.7258  14.7258  14.7258  14.7258  14.7258  14.7259  14.7259  14.7259
    20.7044  20.7044  20.7044  20.7045  36.7753  36.7756  36.7756  36.7756
    39.6588  39.6588  39.6588  39.6588  39.6588  39.6590  39.6590  39.6590
    42.8463  42.8463  42.8463  42.8464  42.8464  42.8465  42.8465  42.8465
    48.9025  48.9025  48.9025  48.9026

          k =-0.0476-0.0000 0.0476 (  1773 PWs)   bands (ev):

     6.1048  10.3673  10.3673  10.5570  11.1135  11.1239  11.1241  12.6166
    12.9892  12.9936  13.7037  13.7402  13.7452  13.7621  13.9603  14.3578
    14.4839  14.4840  14.7549  14.7549  14.8257  16.7241  16.7241  18.9728
    24.1673  25.2374  26.4441  26.4442  28.3857  28.3858  28.9872  28.9873
    30.6764  36.1203  36.1501  37.1083  37.1083  37.3606  40.2460  40.2462
    41.2008  42.7036  43.5117  45.1870  46.4375  49.9614  50.3932  53.2814
    53.6475  55.3251  55.3253  56.2573

          k =-0.0476 0.0000 0.0952 (  1759 PWs)   bands (ev):

     7.1347   9.9704  10.8837  11.0020  11.3971  11.4297  11.4712  12.3040
    12.6814  12.8505  13.0434  13.0856  13.2648  13.5860  14.0082  14.0934
    14.1636  14.2502  14.2794  14.7519  14.7614  15.1517  18.3629  20.7945
    22.2873  24.8454  25.6643  26.6766  27.5359  29.7252  29.9719  30.0367
    31.1228  33.8118  34.5196  37.7319  38.6809  40.3522  40.5270  40.8802
    41.1295  44.1347  45.2510  47.1376  47.7198  48.5835  49.8904  51.2732
    52.9087  53.1830  55.0520  56.4673

          k =-0.0952-0.0000 0.0952 (  1746 PWs)   bands (ev):

     8.0848  10.6087  10.6087  11.3657  11.4480  11.6855  11.6858  12.2061
    12.3525  12.3525  12.5262  12.9238  13.4088  13.4823  13.7807  13.9195
    13.9196  14.2834  14.2835  14.4735  14.5504  16.2941  16.2941  19.6153
    22.3365  25.3665  26.9524  26.9525  28.0067  28.0069  31.1255  31.7379
    31.7396  31.8154  33.6669  36.8844  41.4747  41.8736  41.8737  43.1223
    43.3057  43.8264  43.8265  47.3244  47.3725  48.5334  48.5336  51.7474
    52.0803  52.1456  53.4183  55.2668

          k = 0.0476-0.0476 0.0476 (  1791 PWs)   bands (ev):

     6.4535  10.5553  10.5553  10.5553  11.2151  11.2153  11.2153  12.5616
    13.0141  13.0141  13.4038  13.4038  13.4038  13.8726  13.8726  14.1647
    14.1648  14.1648  14.8261  14.8261  14.8261  17.3779  17.3780  17.3780
    25.4656  25.4656  25.4656  26.7741  26.7742  26.7742  31.2027  31.2027
    31.2028  33.5588  36.2720  36.2720  36.2721  39.1068  41.2023  41.2023
    42.9076  42.9077  42.9077  46.5169  47.6176  47.6176  51.8254  51.8254
    55.1950  55.1952  55.1953  55.4574

          k = 0.0476-0.0476 0.0952 (  1762 PWs)   bands (ev):

     7.4509  10.1692  11.0150  11.0150  11.4567  11.4569  11.5126  12.3144
    12.6827  12.6827  12.8480  13.0461  13.1360  13.7774  13.8113  13.8745
    13.8751  14.1484  14.7139  14.7437  14.7438  15.4348  18.7064  18.7064
    22.9251  22.9251  26.7723  27.4012  27.4012  30.4427  30.4427  30.8688
    31.0448  32.7073  36.7307  37.6920  37.9389  38.8319  38.8319  42.3799
    43.5961  44.4994  47.0776  47.0777  47.9379  49.0414  50.2022  50.2023
    50.7162  52.9593  53.0512  55.7881

          k =-0.0952 0.0476 0.0476 (  1762 PWs)   bands (ev):

     7.4509  10.1692  11.0149  11.0150  11.4567  11.4569  11.5126  12.3144
    12.6827  12.6827  12.8480  13.0461  13.1360  13.7774  13.8113  13.8744
    13.8751  14.1484  14.7139  14.7437  14.7438  15.4348  18.7064  18.7065
    22.9251  22.9251  26.7723  27.4011  27.4012  30.4427  30.4428  30.8688
    31.0448  32.7073  36.7307  37.6920  37.9389  38.8319  38.8319  42.3799
    43.5961  44.4994  47.0777  47.0777  47.9379  49.0414  50.2022  50.2023
    50.7162  52.9593  53.0512  55.7881

          k = 0.0476-0.0476-0.1427 (  1752 PWs)   bands (ev):

     8.8887   8.8975  11.4427  11.4427  11.5101  11.5103  11.9161  11.9302
    12.3003  12.3004  12.8203  12.8364  13.3974  13.4014  13.6835  13.6836
    14.2949  14.3058  14.4629  14.4640  14.6961  14.6961  19.7857  19.7857
    21.4576  21.4576  28.3304  28.3311  28.5946  28.5995  29.0515  29.0529
    35.0112  35.0255  35.3835  35.4133  38.1683  38.1987  42.1969  42.1970
    44.8472  44.8648  45.3707  45.3708  49.4021  49.4249  50.8625  50.8704
    52.2327  52.2329  53.8711  53.8743

          k = 0.0952-0.0476 0.0952 (  1759 PWs)   bands (ev):

     8.3369  10.6171  10.6172  11.1289  11.6229  11.7637  11.7638  12.2904
    12.4964  12.4965  12.6214  12.9353  13.0847  13.5379  13.5384  13.5410
    13.9019  14.4626  14.6110  14.6114  14.6287  16.3729  16.3729  18.9060
    21.1552  24.1289  24.1289  28.1117  28.1930  31.2074  31.2074  32.2233
    32.2234  34.0821  35.2772  36.9447  39.3505  39.3505  40.0886  43.1639
    43.7393  44.7417  46.4696  46.4696  49.2602  49.2603  50.3620  50.5925
    50.9142  51.7052  52.3804  52.8666

          k =-0.0952 0.0476 0.0952 (  1759 PWs)   bands (ev):

     8.3369  10.6171  10.6172  11.1289  11.6229  11.7637  11.7638  12.2904
    12.4964  12.4965  12.6214  12.9353  13.0847  13.5379  13.5383  13.5410
    13.9019  14.4626  14.6110  14.6114  14.6287  16.3729  16.3729  18.9060
    21.1552  24.1289  24.1289  28.1117  28.1930  31.2074  31.2075  32.2233
    32.2234  34.0821  35.2772  36.9447  39.3504  39.3505  40.0886  43.1639
    43.7393  44.7417  46.4696  46.4696  49.2602  49.2603  50.3620  50.5925
    50.9142  51.7052  52.3804  52.8664

          k = 0.0952-0.0476-0.1427 (  1754 PWs)   bands (ev):

     9.5545   9.5610  10.9791  10.9821  11.8830  11.8844  12.1179  12.1298
    12.4743  12.4797  12.6591  12.6698  13.2126  13.2153  13.3942  13.3961
    14.2180  14.2239  14.5170  14.5217  15.0679  15.0700  17.6046  17.6123
    22.1246  22.1302  25.8711  25.8748  29.5432  29.5480  33.1059  33.1064
    33.3303  33.3348  36.9119  36.9451  40.1294  40.1362  40.4769  40.4833
    45.1912  45.1935  45.6804  45.6975  47.6927  47.7026  50.6179  50.6314
    51.7395  51.7470  53.9809  53.9945

          k = 0.0952-0.0952 0.0952 (  1757 PWs)   bands (ev):

     9.0019  10.5690  10.5691  10.5691  12.0795  12.0796  12.0796  12.5575
    12.7752  12.7752  12.7756  12.9025  12.9025  13.1757  13.1757  13.1758
    14.3424  14.3424  14.7541  14.7541  14.7541  16.6243  16.6243  16.6243
    21.7574  21.7574  21.7574  25.3848  32.5562  32.5563  32.5564  35.3165
    35.3166  35.3166  37.2974  37.2974  37.2976  37.6301  40.0500  40.0500
    44.4673  44.4673  47.8015  48.0270  48.0271  48.0275  48.1548  48.1549
    48.1549  52.4946  52.4947  52.4947

          k = 0.0952-0.0952-0.1427 (  1748 PWs)   bands (ev):

     9.8256   9.8287  10.5288  10.5289  12.2720  12.2721  12.5818  12.5897
    12.8283  12.8382  12.9357  12.9364  12.9790  12.9790  13.0431  13.0432
    14.6551  14.6564  14.6831  14.6834  14.8807  14.8825  16.8135  16.8135
    20.8268  20.8269  23.2643  23.2682  33.4331  33.4332  34.7246  34.7247
    36.2238  36.2387  37.3269  37.3339  39.0754  39.0991  39.4255  39.4256
    44.6920  44.6920  44.8871  44.8991  46.0366  46.0404  48.5240  48.5240
    49.6712  49.6761  53.1016  53.1020

     the Fermi energy is    14.4988 ev

!    total energy              =    -343.63017751 Ry
     Harris-Foulkes estimate   =    -343.63017751 Ry
     estimated scf accuracy    <          2.7E-11 Ry

     The total energy is the sum of the following terms:

     one-electron contribution =      -6.34029760 Ry
     hartree contribution      =      60.33608968 Ry
     xc contribution           =    -120.51503328 Ry
     ewald contribution        =    -277.06249388 Ry
     Dispersion Correction     =      -0.04786552 Ry
     smearing contrib. (-TS)   =      -0.00057692 Ry

     total magnetization       =     2.84 Bohr mag/cell
     absolute magnetization    =     3.25 Bohr mag/cell

     convergence has been achieved in  11 iterations

     Forces acting on atoms (Ry/au):

     atom    1 type  1   force =    -0.00109169   -0.00109169    0.00109184
     atom    2 type  1   force =     0.00109154    0.00109154    0.00109154
     atom    3 type  1   force =    -0.00109169    0.00109184   -0.00109169
     atom    4 type  1   force =     0.00109184   -0.00109169   -0.00109169

     Total force =     0.003782     Total SCF correction =     0.000004


     entering subroutine stress ...

          total   stress  (Ry/bohr**3)                   (kbar)     P=    0.75
   0.00000508   0.00000002   0.00000002          0.75      0.00      0.00
   0.00000002   0.00000508   0.00000002          0.00      0.75      0.00
   0.00000002   0.00000002   0.00000508          0.00      0.00      0.75


     number of scf cycles    =   3
     number of bfgs steps    =   2

     enthalpy old            =    -343.6301602704 Ry
     enthalpy new            =    -343.6301775146 Ry

     CASE: enthalpy_new < enthalpy_old

     new trust radius        =       0.0047879507 bohr
     new conv_thr            =            1.0E-10 Ry

     new unit-cell volume =    290.02605 a.u.^3 (    42.97743 Ang^3 )

CELL_PARAMETERS (alat=  1.88972590)
   3.502785323   0.000003617   0.000003617
   0.000003617   3.502785323   0.000003617
   0.000003617   0.000003617   3.502785323

ATOMIC_POSITIONS (alat)
Ni1      1.755520119   1.755520119   0.003654556
Ni1      0.003649272   0.003649272   0.003649272
Ni1      1.755520119   0.003654556   1.755520119
Ni1      0.003654556   1.755520119   1.755520119



     Writing output data file Ni-ferromag.save
     NEW-OLD atomic charge density approx. for the potential

     Check: negative/imaginary core charge=   -0.000005    0.000000
     extrapolated charge   40.00168, renormalised to   40.00000

     total cpu time spent up to now is     1174.6 secs

     Self-consistent Calculation

     iteration #  1     ecut=    50.00 Ry     beta=0.20
     Davidson diagonalization with overlap
     ethr =  1.00E-06,  avg # of iterations =  3.4

     Threshold (ethr) on eigenvalues was too large:
     Diagonalizing with lowered threshold

     Davidson diagonalization with overlap
     ethr =  1.71E-08,  avg # of iterations =  1.2

     total cpu time spent up to now is     1242.5 secs

     total energy              =    -343.63020366 Ry
     Harris-Foulkes estimate   =    -343.62843520 Ry
     estimated scf accuracy    <       0.00000688 Ry

     total magnetization       =     2.84 Bohr mag/cell
     absolute magnetization    =     3.25 Bohr mag/cell

     iteration #  2     ecut=    50.00 Ry     beta=0.20
     Davidson diagonalization with overlap
     ethr =  1.72E-08,  avg # of iterations =  1.0

     total cpu time spent up to now is     1269.3 secs

     total energy              =    -343.63020421 Ry
     Harris-Foulkes estimate   =    -343.63020435 Ry
     estimated scf accuracy    <       0.00000392 Ry

     total magnetization       =     2.84 Bohr mag/cell
     absolute magnetization    =     3.25 Bohr mag/cell

     iteration #  3     ecut=    50.00 Ry     beta=0.20
     Davidson diagonalization with overlap
     ethr =  9.80E-09,  avg # of iterations =  1.0

     total cpu time spent up to now is     1296.2 secs

     total energy              =    -343.63020418 Ry
     Harris-Foulkes estimate   =    -343.63020425 Ry
     estimated scf accuracy    <       0.00000217 Ry

     total magnetization       =     2.84 Bohr mag/cell
     absolute magnetization    =     3.25 Bohr mag/cell

     iteration #  4     ecut=    50.00 Ry     beta=0.20
     Davidson diagonalization with overlap
     ethr =  5.44E-09,  avg # of iterations =  1.0

     total cpu time spent up to now is     1323.0 secs

     total energy              =    -343.63020419 Ry
     Harris-Foulkes estimate   =    -343.63020432 Ry
     estimated scf accuracy    <       0.00000031 Ry

     total magnetization       =     2.84 Bohr mag/cell
     absolute magnetization    =     3.25 Bohr mag/cell

     iteration #  5     ecut=    50.00 Ry     beta=0.20
     Davidson diagonalization with overlap
     ethr =  7.85E-10,  avg # of iterations =  1.0

     total cpu time spent up to now is     1349.8 secs

     total energy              =    -343.63020429 Ry
     Harris-Foulkes estimate   =    -343.63020427 Ry
     estimated scf accuracy    <       0.00000004 Ry

     total magnetization       =     2.84 Bohr mag/cell
     absolute magnetization    =     3.25 Bohr mag/cell

     iteration #  6     ecut=    50.00 Ry     beta=0.20
     Davidson diagonalization with overlap
     ethr =  8.79E-11,  avg # of iterations =  1.0

     total cpu time spent up to now is     1376.7 secs

     total energy              =    -343.63020429 Ry
     Harris-Foulkes estimate   =    -343.63020429 Ry
     estimated scf accuracy    <       0.00000002 Ry

     total magnetization       =     2.84 Bohr mag/cell
     absolute magnetization    =     3.25 Bohr mag/cell

     iteration #  7     ecut=    50.00 Ry     beta=0.20
     Davidson diagonalization with overlap
     ethr =  4.56E-11,  avg # of iterations =  1.0

     total cpu time spent up to now is     1403.5 secs

     total energy              =    -343.63020430 Ry
     Harris-Foulkes estimate   =    -343.63020430 Ry
     estimated scf accuracy    <          4.2E-09 Ry

     total magnetization       =     2.84 Bohr mag/cell
     absolute magnetization    =     3.25 Bohr mag/cell

     iteration #  8     ecut=    50.00 Ry     beta=0.20
     Davidson diagonalization with overlap
     ethr =  1.06E-11,  avg # of iterations =  1.0

     total cpu time spent up to now is     1430.4 secs

     total energy              =    -343.63020431 Ry
     Harris-Foulkes estimate   =    -343.63020430 Ry
     estimated scf accuracy    <       0.00000001 Ry

     total magnetization       =     2.84 Bohr mag/cell
     absolute magnetization    =     3.25 Bohr mag/cell

     iteration #  9     ecut=    50.00 Ry     beta=0.20
     Davidson diagonalization with overlap
     ethr =  1.06E-11,  avg # of iterations =  1.0

     total cpu time spent up to now is     1457.2 secs

     total energy              =    -343.63020431 Ry
     Harris-Foulkes estimate   =    -343.63020431 Ry
     estimated scf accuracy    <          3.8E-10 Ry

     total magnetization       =     2.84 Bohr mag/cell
     absolute magnetization    =     3.25 Bohr mag/cell

     iteration # 10     ecut=    50.00 Ry     beta=0.20
     Davidson diagonalization with overlap
     ethr =  9.42E-13,  avg # of iterations =  1.0

     total cpu time spent up to now is     1484.0 secs

     total energy              =    -343.63020431 Ry
     Harris-Foulkes estimate   =    -343.63020431 Ry
     estimated scf accuracy    <          3.9E-10 Ry

     total magnetization       =     2.84 Bohr mag/cell
     absolute magnetization    =     3.25 Bohr mag/cell

     iteration # 11     ecut=    50.00 Ry     beta=0.20
     Davidson diagonalization with overlap
     ethr =  9.42E-13,  avg # of iterations =  1.0

     Magnetic moment per site:
     atom:    1    charge:    3.0042    magn:    0.3347    constr:    0.0000
     atom:    2    charge:    3.0024    magn:    0.3346    constr:    0.0000
     atom:    3    charge:    3.0042    magn:    0.3347    constr:    0.0000
     atom:    4    charge:    3.0042    magn:    0.3347    constr:    0.0000

     total cpu time spent up to now is     1510.9 secs

     End of self-consistent calculation

 ------ SPIN UP ------------


          k = 0.0000 0.0000 0.0000 (  1791 PWs)   bands (ev):

     5.4340   9.7181   9.7181   9.7181  10.1715  10.1715  10.1715  11.9512
    11.9512  11.9512  13.1304  13.1304  13.8485  13.8485  13.8485  13.9385
    13.9385  13.9385  13.9386  13.9386  13.9386  17.0771  17.0771  17.0771
    23.8177  23.8177  23.8177  29.5757  29.5757  29.5757  29.5758  29.5758
    29.5758  34.6548  34.6548  34.6548  38.0014  38.0016  38.0016  38.5031
    42.4814  42.4816  42.4816  46.0815  46.0816  46.0816  48.1838  55.1815
    55.1815  55.1815  57.6167  59.0383

          k =-0.0000-0.0000 0.0476 (  1779 PWs)   bands (ev):

     5.8003   9.7403   9.9024   9.9024  10.2820  10.2979  10.2979  11.8224
    12.0536  12.0536  13.0125  13.1772  13.2842  13.2842  13.6950  13.6950
    13.7625  13.7625  13.7990  13.9388  13.9388  15.4761  18.0361  18.0361
    23.9135  23.9136  26.0670  27.8238  27.8238  28.4523  28.4523  30.1361
    30.1362  34.7708  36.8277  36.8277  37.8679  38.1334  39.9590  39.9591
    40.2600  40.2601  40.9257  47.5018  48.1381  48.1382  49.1613  51.5691
    56.2781  56.2781  56.6850  56.6850

          k =-0.0000-0.0000 0.0952 (  1783 PWs)   bands (ev):

     6.8498   9.5111  10.3395  10.3395  10.5898  10.6812  10.6812  11.4782
    12.2280  12.2280  12.3504  12.3504  12.7245  13.3058  13.3116  13.3163
    13.3163  13.3237  13.3237  13.6647  13.9394  13.9394  19.9991  19.9991
    24.2306  24.2306  25.0499  25.0499  26.6842  26.6842  30.3672  31.7157
    31.7158  35.1340  36.7356  37.0387  37.0388  38.3575  38.6855  40.8725
    40.8725  44.1236  44.1236  44.1570  50.9373  51.0581  51.0581  51.0614
    51.0614  55.0471  55.9496  55.9496

          k = 0.0000 0.0000-0.1427 (  1750 PWs)   bands (ev):

     8.3486   8.3500  10.6156  10.6157  11.0239  11.0259  11.3271  11.3271
    11.3291  11.3291  12.5459  12.5487  12.8019  12.8019  12.8034  12.8034
    13.0677  13.0677  13.4833  13.4844  13.9396  13.9396  22.3834  22.3834
    22.3869  22.3869  24.6034  24.6035  25.7391  25.7391  34.0930  34.0931
    34.0954  34.0955  34.9145  34.9197  35.7809  35.7821  40.2758  40.2840
    45.6706  45.6706  45.6778  45.6778  47.6299  47.6299  52.3019  52.3019
    54.1830  54.1830  54.1895  54.1896

          k =-0.0000 0.0476 0.0476 (  1773 PWs)   bands (ev):

     6.1579   9.9387   9.9387  10.0656  10.3995  10.3995  10.4133  11.7624
    12.0986  12.1157  12.9381  12.9877  12.9964  12.9965  13.1724  13.5663
    13.6909  13.6909  13.7612  13.7612  13.8227  16.4086  16.4086  18.8061
    23.9075  25.1065  26.2542  26.2542  28.3016  28.3017  28.9447  28.9447
    30.6640  36.0444  36.1273  37.0362  37.0362  37.3416  40.1266  40.1266
    41.2801  42.6145  43.5410  45.2418  46.3752  49.8006  50.4660  53.1070
    53.6798  55.3612  55.3612  56.3150

          k =-0.0000 0.0476 0.0952 (  1759 PWs)   bands (ev):

     7.1797   9.7472  10.4209  10.4694  10.6813  10.7346  10.7537  11.4813
    11.9893  12.1291  12.2445  12.3620  12.3874  12.8208  13.2424  13.3209
    13.3278  13.3515  13.5039  13.7579  13.7639  14.4417  18.0233  20.5893
    22.0876  24.6162  25.5114  26.5405  27.4094  29.6152  29.9103  29.9634
    31.0239  33.7323  34.4756  37.6884  38.6414  40.3991  40.5779  40.7587
    41.1284  44.0508  45.0444  47.0695  47.7957  48.5994  49.9044  51.3461
    52.9513  53.2718  54.8301  56.2126

          k = 0.0000 0.0476-0.1427 (  1760 PWs)   bands (ev):

     8.6302   8.6315  10.7682  10.7683  11.0757  11.0777  11.1949  11.1965
    11.3416  11.3436  12.1727  12.1748  12.8027  12.8042  13.0326  13.0333
    13.0527  13.0528  13.6674  13.6675  13.7554  13.7557  19.8913  19.8931
    22.8829  22.8861  25.4185  25.4209  28.3171  28.3179  31.5048  31.5058
    32.0285  32.0292  35.8348  35.8407  38.8372  38.8377  42.2215  42.2266
    43.1237  43.1256  45.9470  45.9537  50.0912  50.0972  50.3642  50.3670
    52.6229  52.6251  53.2137  53.2155

          k =-0.0000 0.0952 0.0952 (  1746 PWs)   bands (ev):

     8.1063  10.3349  10.3349  10.7009  10.9496  10.9496  10.9632  11.4114
    11.6586  11.6586  11.8133  12.1317  12.4929  12.7346  13.0263  13.1815
    13.1815  13.3217  13.3217  13.4917  13.7071  15.6879  15.6879  19.3066
    22.1162  25.1669  26.7845  26.7845  27.9040  27.9041  30.9931  31.6493
    31.6494  31.7449  33.6129  36.8472  41.5367  41.8902  41.8902  43.0860
    43.4215  43.7822  43.7823  47.2013  47.3416  48.4868  48.4868  51.6858
    52.1888  52.2019  53.2128  55.3621

          k = 0.0000 0.0952-0.1427 (  1746 PWs)   bands (ev):

     9.3730   9.3740  10.8053  10.8065  11.2030  11.2047  11.2114  11.2115
    11.3603  11.3621  11.8670  11.8684  12.8401  12.8401  12.8402  12.8417
    12.9068  12.9071  13.3562  13.3571  14.3687  14.3690  17.2188  17.2202
    24.2395  24.2419  26.2339  26.2358  28.6598  28.6610  29.5460  29.5463
    32.9579  32.9584  36.7974  36.8031  40.3739  40.3750  43.0590  43.0601
    43.2269  43.2274  46.7480  46.7535  47.9346  47.9380  50.4375  50.4405
    51.7721  51.7770  53.5737  53.5750

          k = 0.0000-0.1427-0.1427 (  1740 PWs)   bands (ev):

    10.2259  10.2267  10.2268  10.2276  11.3215  11.3232  11.3232  11.3249
    11.6319  11.6324  11.6324  11.6329  12.6938  12.6940  12.6940  12.6942
    13.0068  13.0082  13.0082  13.0096  15.4388  15.4394  15.4394  15.4400
    26.2138  26.2154  26.2154  26.2170  27.5855  27.5867  27.5867  27.5879
    37.9015  37.9030  37.9031  37.9047  38.5071  38.5090  38.5090  38.5109
    47.1885  47.1885  47.1886  47.1886  49.1987  49.2017  49.2018  49.2048
    51.8315  51.8317  51.8318  51.8321

          k = 0.0476 0.0476 0.0476 (  1791 PWs)   bands (ev):

     6.5038  10.0996  10.0997  10.0997  10.5140  10.5140  10.5140  11.7275
    12.1353  12.1353  12.6923  12.6923  12.6923  13.0856  13.0856  13.3328
    13.3328  13.3328  13.8769  13.8769  13.8769  17.0360  17.0360  17.0360
    25.3329  25.3329  25.3329  26.5996  26.5996  26.5996  31.1794  31.1794
    31.1794  33.4907  36.1757  36.1757  36.1757  39.2608  41.1481  41.1481
    42.8218  42.8218  42.8218  46.6026  47.6587  47.6587  51.6566  51.6566
    55.1184  55.2399  55.2399  55.2399

          k = 0.0476 0.0476 0.0952 (  1762 PWs)   bands (ev):

     7.4854   9.9060  10.4829  10.4829  10.7998  10.8279  10.8279  11.5179
    11.9797  11.9797  12.1751  12.2146  12.2748  12.9305  13.0012  13.0869
    13.0869  13.3252  13.7796  13.7796  13.8119  14.8035  18.3785  18.3785
    22.7137  22.7137  26.6269  27.2508  27.2508  30.3665  30.3665  30.7533
    30.9558  32.6594  36.6547  37.7848  37.8603  38.8000  38.8001  42.3707
    43.5140  44.4802  47.0318  47.0318  47.8941  49.0939  50.2114  50.2115
    50.7073  53.0279  53.0892  55.6716

          k = 0.0476 0.0476-0.1427 (  1752 PWs)   bands (ev):

     8.8573   8.8584  10.8703  10.8703  10.9282  10.9282  11.1708  11.1726
    11.5856  11.5856  12.0769  12.0789  12.5478  12.5484  12.9191  12.9191
    13.4941  13.4955  13.6012  13.6015  13.7235  13.7235  19.5274  19.5274
    21.1525  21.1525  28.2149  28.2149  28.4537  28.4544  28.9354  28.9355
    34.9465  34.9485  35.4218  35.4258  38.1026  38.1068  42.2140  42.2141
    44.7661  44.7684  45.3802  45.3802  49.4897  49.4928  50.9099  50.9109
    52.1973  52.1974  53.6926  53.6927

          k = 0.0476 0.0952 0.0952 (  1759 PWs)   bands (ev):

     8.3243  10.2238  10.2238  10.5100  11.1154  11.1614  11.1614  11.5631
    11.7757  11.7757  11.9090  12.1338  12.2597  12.7383  12.7383  12.7547
    13.0576  13.6128  13.6821  13.6974  13.6974  15.8186  15.8186  18.6302
    20.8102  23.9107  23.9107  27.9516  28.0608  31.1423  31.1423  32.1293
    32.1293  34.0260  35.2502  36.9181  39.3342  39.3342  40.1633  43.0485
    43.7460  44.7944  46.4738  46.4738  49.2038  49.2038  50.4286  50.6069
    50.9361  51.6306  52.3128  52.9375

          k = 0.0476 0.0952-0.1427 (  1754 PWs)   bands (ev):

     9.4073   9.4080  10.4450  10.4452  11.3289  11.3289  11.4765  11.4779
    11.7823  11.7829  11.9027  11.9040  12.4089  12.4094  12.6198  12.6201
    13.3546  13.3552  13.5823  13.5829  14.2750  14.2752  17.1959  17.1970
    21.8257  21.8265  25.6714  25.6720  29.4433  29.4439  33.0480  33.0482
    33.2617  33.2622  36.9116  36.9163  40.1465  40.1475  40.4554  40.4563
    45.2033  45.2037  45.6944  45.6967  47.7143  47.7155  50.5837  50.5856
    51.8014  51.8025  53.9127  53.9146

          k = 0.0476-0.1427-0.1427 (  1752 PWs)   bands (ev):

     9.9768   9.9771   9.9771   9.9774  11.7198  11.7202  11.7202  11.7207
    11.8063  11.8074  11.8074  11.8084  12.3801  12.3806  12.3806  12.3811
    13.3366  13.3375  13.3375  13.3384  15.3495  15.3502  15.3502  15.3509
    23.4595  23.4601  23.4601  23.4608  30.9812  30.9815  30.9815  30.9817
    38.1822  38.1835  38.1836  38.1850  38.3509  38.3526  38.3526  38.3542
    46.6658  46.6659  46.6660  46.6661  46.7678  46.7694  46.7695  46.7711
    54.8220  54.8237  54.8237  54.8248

          k = 0.0952 0.0952 0.0952 (  1757 PWs)   bands (ev):

     8.8681  10.0588  10.0588  10.0588  11.5200  11.5200  11.5200  12.0342
    12.0951  12.0951  12.0952  12.1007  12.1007  12.3840  12.3840  12.3840
    13.4606  13.4606  13.8256  13.8256  13.8256  16.1968  16.1968  16.1968
    21.4177  21.4177  21.4177  25.1582  32.5084  32.5085  32.5085  35.2536
    35.2536  35.2536  37.2832  37.2833  37.2833  37.7996  39.9622  39.9622
    44.4563  44.4563  47.7851  48.0769  48.0769  48.0769  48.1516  48.1516
    48.1516  52.4615  52.4616  52.4616

          k = 0.0952 0.0952-0.1427 (  1748 PWs)   bands (ev):

     9.4942   9.4944   9.9902   9.9902  11.6399  11.6399  11.9260  11.9271
    12.1433  12.1435  12.2638  12.2638  12.2778  12.2790  12.3784  12.3784
    13.7460  13.7461  13.7540  13.7540  14.1649  14.1650  16.4809  16.4810
    20.3887  20.3887  22.9753  22.9760  33.4239  33.4240  34.6370  34.6370
    36.3375  36.3395  37.2558  37.2569  39.0036  39.0069  39.4493  39.4493
    44.6639  44.6639  44.9134  44.9150  46.0282  46.0287  48.5624  48.5624
    49.6181  49.6188  52.9911  52.9911

          k = 0.0952-0.1427-0.1427 (  1764 PWs)   bands (ev):

     9.6698   9.6699   9.6699   9.6699  11.8858  11.8860  11.8860  11.8863
    12.0756  12.0759  12.0759  12.0762  12.8249  12.8255  12.8255  12.8261
    13.6736  13.6740  13.6740  13.6745  14.9724  14.9732  14.9733  14.9740
    21.1017  21.1022  21.1022  21.1028  35.1635  35.1638  35.1638  35.1641
    38.2278  38.2286  38.2287  38.2295  38.9497  38.9505  38.9506  38.9514
    44.1047  44.1055  44.1056  44.1063  45.1684  45.1686  45.1686  45.1688
    50.4326  50.4329  50.4329  50.4333

          k =-0.1427-0.1427-0.1427 (  1736 PWs)   bands (ev):

     9.5538   9.5538   9.5538   9.5538  11.9643  11.9643  11.9643  11.9643
    11.9643  11.9643  11.9643  11.9643  13.8016  13.8016  13.8016  13.8016
    13.8016  13.8016  13.8016  13.8016  14.2974  14.2974  14.2975  14.2975
    20.2210  20.2211  20.2211  20.2211  36.9580  36.9582  36.9582  36.9583
    39.5869  39.5869  39.5869  39.5870  39.5870  39.5870  39.5871  39.5871
    42.8144  42.8144  42.8144  42.8144  42.8144  42.8145  42.8145  42.8145
    48.7868  48.7868  48.7868  48.7869

          k =-0.0476-0.0000 0.0476 (  1773 PWs)   bands (ev):

     6.1579   9.9387   9.9387  10.0656  10.3995  10.3995  10.4133  11.7624
    12.0986  12.1157  12.9381  12.9877  12.9964  12.9965  13.1724  13.5663
    13.6909  13.6909  13.7612  13.7612  13.8227  16.4086  16.4086  18.8061
    23.9075  25.1066  26.2542  26.2543  28.3016  28.3016  28.9447  28.9447
    30.6639  36.0444  36.1273  37.0362  37.0362  37.3417  40.1266  40.1267
    41.2800  42.6146  43.5409  45.2417  46.3751  49.8005  50.4661  53.1070
    53.6799  55.3613  55.3613  56.3150

          k =-0.0476-0.0000 0.0952 (  1759 PWs)   bands (ev):

     7.1797   9.7472  10.4209  10.4694  10.6813  10.7346  10.7537  11.4813
    11.9893  12.1291  12.2445  12.3620  12.3874  12.8208  13.2423  13.3209
    13.3278  13.3515  13.5039  13.7579  13.7639  14.4416  18.0233  20.5893
    22.0876  24.6162  25.5114  26.5405  27.4094  29.6152  29.9103  29.9633
    31.0240  33.7323  34.4757  37.6884  38.6414  40.3991  40.5778  40.7587
    41.1284  44.0509  45.0444  47.0696  47.7956  48.5993  49.9045  51.3461
    52.9514  53.2719  54.8300  56.2126

          k =-0.0952-0.0000 0.0952 (  1746 PWs)   bands (ev):

     8.1064  10.3349  10.3349  10.7009  10.9496  10.9496  10.9632  11.4114
    11.6586  11.6586  11.8133  12.1318  12.4929  12.7346  13.0263  13.1815
    13.1815  13.3217  13.3217  13.4917  13.7071  15.6879  15.6879  19.3066
    22.1162  25.1669  26.7845  26.7845  27.9040  27.9040  30.9931  31.6494
    31.6494  31.7449  33.6129  36.8471  41.5366  41.8902  41.8902  43.0860
    43.4214  43.7823  43.7823  47.2012  47.3415  48.4869  48.4869  51.6860
    52.1888  52.2019  53.2127  55.3622

          k = 0.0476-0.0476 0.0476 (  1791 PWs)   bands (ev):

     6.5038  10.0997  10.0997  10.0997  10.5140  10.5140  10.5140  11.7275
    12.1353  12.1353  12.6923  12.6923  12.6923  13.0856  13.0856  13.3328
    13.3328  13.3328  13.8769  13.8769  13.8769  17.0359  17.0360  17.0360
    25.3329  25.3329  25.3329  26.5996  26.5996  26.5996  31.1793  31.1793
    31.1794  33.4908  36.1756  36.1756  36.1757  39.2608  41.1480  41.1481
    42.8218  42.8219  42.8220  46.6026  47.6586  47.6587  51.6565  51.6566
    55.1184  55.2399  55.2399  55.2400

          k = 0.0476-0.0476 0.0952 (  1762 PWs)   bands (ev):

     7.4854   9.9060  10.4829  10.4829  10.7998  10.8279  10.8279  11.5180
    11.9797  11.9797  12.1751  12.2146  12.2748  12.9305  13.0011  13.0869
    13.0869  13.3252  13.7796  13.7796  13.8118  14.8035  18.3785  18.3785
    22.7137  22.7137  26.6270  27.2509  27.2509  30.3664  30.3665  30.7534
    30.9558  32.6593  36.6546  37.7847  37.8601  38.8000  38.8001  42.3707
    43.5141  44.4802  47.0318  47.0319  47.8941  49.0939  50.2114  50.2115
    50.7073  53.0280  53.0892  55.6715

          k =-0.0952 0.0476 0.0476 (  1762 PWs)   bands (ev):

     7.4854   9.9060  10.4829  10.4829  10.7998  10.8279  10.8279  11.5180
    11.9797  11.9797  12.1751  12.2146  12.2748  12.9305  13.0011  13.0869
    13.0869  13.3252  13.7796  13.7796  13.8118  14.8035  18.3785  18.3785
    22.7137  22.7137  26.6269  27.2509  27.2509  30.3664  30.3664  30.7534
    30.9558  32.6594  36.6547  37.7848  37.8602  38.8000  38.8000  42.3707
    43.5140  44.4800  47.0319  47.0319  47.8940  49.0939  50.2115  50.2115
    50.7073  53.0281  53.0893  55.6715

          k = 0.0476-0.0476-0.1427 (  1752 PWs)   bands (ev):

     8.8573   8.8585  10.8703  10.8704  10.9282  10.9282  11.1708  11.1726
    11.5856  11.5856  12.0769  12.0789  12.5477  12.5484  12.9191  12.9191
    13.4941  13.4955  13.6012  13.6015  13.7235  13.7235  19.5273  19.5274
    21.1525  21.1525  28.2149  28.2150  28.4538  28.4545  28.9355  28.9355
    34.9464  34.9484  35.4218  35.4258  38.1025  38.1067  42.2140  42.2141
    44.7662  44.7685  45.3801  45.3802  49.4897  49.4928  50.9098  50.9109
    52.1973  52.1975  53.6926  53.6927

          k = 0.0952-0.0476 0.0952 (  1759 PWs)   bands (ev):

     8.3243  10.2238  10.2238  10.5100  11.1154  11.1614  11.1614  11.5631
    11.7757  11.7757  11.9090  12.1338  12.2598  12.7383  12.7383  12.7547
    13.0576  13.6128  13.6821  13.6973  13.6974  15.8186  15.8186  18.6302
    20.8102  23.9108  23.9108  27.9517  28.0609  31.1423  31.1423  32.1293
    32.1293  34.0260  35.2501  36.9181  39.3341  39.3341  40.1632  43.0485
    43.7460  44.7944  46.4738  46.4739  49.2039  49.2039  50.4287  50.6070
    50.9360  51.6306  52.3129  52.9376

          k =-0.0952 0.0476 0.0952 (  1759 PWs)   bands (ev):

     8.3243  10.2238  10.2238  10.5100  11.1154  11.1614  11.1614  11.5631
    11.7757  11.7757  11.9090  12.1338  12.2597  12.7383  12.7383  12.7547
    13.0576  13.6128  13.6821  13.6974  13.6974  15.8186  15.8186  18.6303
    20.8102  23.9107  23.9108  27.9517  28.0609  31.1423  31.1423  32.1293
    32.1293  34.0259  35.2502  36.9180  39.3341  39.3342  40.1632  43.0484
    43.7460  44.7943  46.4739  46.4739  49.2039  49.2039  50.4287  50.6069
    50.9360  51.6305  52.3130  52.9375

          k = 0.0952-0.0476-0.1427 (  1754 PWs)   bands (ev):

     9.4073   9.4080  10.4450  10.4452  11.3289  11.3289  11.4765  11.4779
    11.7823  11.7829  11.9027  11.9040  12.4089  12.4094  12.6198  12.6201
    13.3546  13.3552  13.5823  13.5829  14.2750  14.2752  17.1959  17.1970
    21.8256  21.8265  25.6714  25.6721  29.4434  29.4439  33.0479  33.0481
    33.2618  33.2623  36.9116  36.9163  40.1465  40.1475  40.4554  40.4562
    45.2033  45.2036  45.6944  45.6966  47.7144  47.7156  50.5837  50.5856
    51.8015  51.8026  53.9128  53.9150

          k = 0.0952-0.0952 0.0952 (  1757 PWs)   bands (ev):

     8.8682  10.0588  10.0588  10.0588  11.5200  11.5200  11.5201  12.0342
    12.0951  12.0951  12.0952  12.1007  12.1007  12.3840  12.3840  12.3840
    13.4606  13.4606  13.8256  13.8256  13.8256  16.1968  16.1968  16.1968
    21.4176  21.4177  21.4177  25.1583  32.5085  32.5085  32.5085  35.2535
    35.2535  35.2536  37.2832  37.2832  37.2833  37.7996  39.9621  39.9622
    44.4563  44.4563  47.7851  48.0769  48.0770  48.0770  48.1516  48.1516
    48.1517  52.4616  52.4617  52.4617

          k = 0.0952-0.0952-0.1427 (  1748 PWs)   bands (ev):

     9.4942   9.4944   9.9902   9.9902  11.6399  11.6399  11.9260  11.9271
    12.1433  12.1434  12.2637  12.2638  12.2778  12.2790  12.3784  12.3784
    13.7460  13.7461  13.7539  13.7540  14.1649  14.1650  16.4809  16.4810
    20.3887  20.3887  22.9754  22.9760  33.4240  33.4240  34.6370  34.6371
    36.3375  36.3395  37.2557  37.2568  39.0036  39.0069  39.4492  39.4493
    44.6638  44.6639  44.9134  44.9150  46.0282  46.0286  48.5625  48.5625
    49.6181  49.6188  52.9911  52.9912

 ------ SPIN DOWN ----------


          k = 0.0000 0.0000 0.0000 (  1791 PWs)   bands (ev):

     5.3794  10.1801  10.1801  10.1801  10.8897  10.8897  10.8897  12.8316
    12.8316  12.8316  13.9105  13.9105  14.6626  14.6627  14.6627  14.9480
    14.9480  14.9480  14.9480  14.9480  14.9480  16.9984  16.9984  16.9984
    24.1234  24.1234  24.1234  29.5619  29.5619  29.5620  29.5620  29.5621
    29.5621  34.8191  34.8191  34.8191  38.1449  38.1451  38.1451  38.2976
    42.4521  42.4523  42.4523  46.1540  46.1541  46.1541  48.0244  55.3706
    55.3707  55.3707  58.1371  59.5558

          k =-0.0000-0.0000 0.0476 (  1779 PWs)   bands (ev):

     5.7457  10.1558  10.3744  10.3744  11.0091  11.0136  11.0136  12.6896
    12.9381  12.9381  13.7830  13.9594  14.1042  14.1042  14.4956  14.4956
    14.6107  14.7553  14.7553  14.9483  14.9483  15.5463  18.1430  18.1430
    24.2041  24.2042  26.2690  27.8924  27.8924  28.4796  28.4796  30.1387
    30.1388  34.9226  36.9087  36.9087  37.7292  38.2745  40.0795  40.0796
    40.3019  40.3020  40.8558  47.5223  48.1120  48.1121  49.2329  51.5602
    56.4894  56.4895  56.6116  56.6116

          k =-0.0000-0.0000 0.0952 (  1783 PWs)   bands (ev):

     6.7995   9.7193  10.8360  10.8360  11.3423  11.3915  11.3915  12.3111
    12.9573  12.9573  13.2480  13.2480  13.4621  13.6821  14.0834  14.0835
    14.0940  14.2801  14.2801  14.4699  14.9489  14.9489  20.1843  20.1843
    24.4768  24.4769  25.1907  25.1907  26.7824  26.7824  30.4628  31.7527
    31.7528  35.2480  36.7010  37.1102  37.1103  38.2672  38.8316  40.8780
    40.8780  44.2230  44.2231  44.3752  50.8930  50.9632  50.9633  50.9880
    50.9880  54.9429  56.1909  56.1909

          k = 0.0000 0.0000-0.1427 (  1750 PWs)   bands (ev):

     8.3422   8.3436  11.1278  11.1278  11.8143  11.8165  12.0363  12.0363
    12.0384  12.0384  13.1937  13.1967  13.7236  13.7236  13.7251  13.7252
    13.8137  13.8137  14.2798  14.2810  14.9492  14.9492  22.5651  22.5651
    22.5686  22.5686  24.8002  24.8002  25.8965  25.8965  34.1581  34.1582
    34.1605  34.1606  34.8947  34.9000  35.8322  35.8337  40.4678  40.4761
    45.6262  45.6262  45.6335  45.6335  47.7039  47.7040  52.4911  52.4912
    54.0728  54.0728  54.0793  54.0794

          k =-0.0000 0.0476 0.0476 (  1773 PWs)   bands (ev):

     6.1043  10.3668  10.3668  10.5565  11.1130  11.1235  11.1235  12.6159
    12.9885  12.9929  13.7031  13.7443  13.7445  13.7565  13.9595  14.3570
    14.4832  14.4832  14.7541  14.7541  14.8248  16.7232  16.7232  18.9718
    24.1662  25.2363  26.4430  26.4430  28.3846  28.3847  28.9857  28.9857
    30.6751  36.1190  36.1486  37.1069  37.1069  37.3592  40.2444  40.2446
    41.1994  42.7019  43.5101  45.1854  46.4358  49.9593  50.3915  53.2794
    53.6459  55.3233  55.3233  56.2554

          k =-0.0000 0.0476 0.0952 (  1759 PWs)   bands (ev):

     7.1341   9.9698  10.8832  11.0015  11.3965  11.4292  11.4707  12.3033
    12.6807  12.8499  13.0437  13.0839  13.2642  13.5852  14.0074  14.0929
    14.1629  14.2492  14.2785  14.7512  14.7604  15.1508  18.3620  20.7934
    22.2862  24.8443  25.6631  26.6754  27.5347  29.7238  29.9721  30.0340
    31.1214  33.8104  34.5181  37.7305  38.6795  40.3508  40.5255  40.8786
    41.1280  44.1330  45.2489  47.1360  47.7182  48.5819  49.8885  51.2714
    52.9069  53.1813  55.0502  56.4657

          k = 0.0000 0.0476-0.1427 (  1760 PWs)   bands (ev):

     8.6358   8.6371  11.2714  11.2716  11.8588  11.8609  11.8717  11.8733
    12.0536  12.0555  12.9135  12.9159  13.7270  13.7286  13.8022  13.8024
    13.8029  13.8033  14.5060  14.5061  14.7495  14.7499  20.1728  20.1746
    23.0761  23.0793  25.5900  25.5925  28.4341  28.4350  31.6189  31.6199
    32.0865  32.0871  35.8601  35.8660  38.8387  38.8390  42.3742  42.3794
    43.1167  43.1188  45.8990  45.9059  50.1568  50.1627  50.2966  50.2995
    52.5394  52.5417  53.3818  53.3836

          k =-0.0000 0.0952 0.0952 (  1746 PWs)   bands (ev):

     8.0842  10.6081  10.6081  11.3652  11.4474  11.6853  11.6853  12.2053
    12.3518  12.3518  12.5255  12.9230  13.4083  13.4815  13.7799  13.9189
    13.9189  14.2826  14.2826  14.4726  14.5495  16.2932  16.2932  19.6142
    22.3355  25.3654  26.9514  26.9515  28.0052  28.0053  31.1241  31.7382
    31.7382  31.8124  33.6655  36.8830  41.4732  41.8721  41.8722  43.1207
    43.3042  43.8247  43.8247  47.3226  47.3709  48.5317  48.5318  51.7454
    52.0788  52.1437  53.4164  55.2651

          k = 0.0000 0.0952-0.1427 (  1746 PWs)   bands (ev):

     9.4343   9.4355  11.2249  11.2261  11.8513  11.8514  11.9659  11.9678
    12.0809  12.0828  12.6039  12.6054  13.5745  13.5745  13.6482  13.6484
    13.7738  13.7754  14.3247  14.3257  15.1748  15.1751  17.6831  17.6844
    24.4448  24.4471  26.3856  26.3878  28.8222  28.8232  29.6361  29.6365
    33.0296  33.0303  36.8251  36.8308  40.3729  40.3739  43.0049  43.0059
    43.2453  43.2458  46.6863  46.6919  48.0169  48.0203  50.3848  50.3880
    51.8930  51.8979  53.4885  53.4897

          k = 0.0000-0.1427-0.1427 (  1740 PWs)   bands (ev):

    10.4452  10.4462  10.4462  10.4472  12.0593  12.0612  12.0612  12.0630
    12.3011  12.3017  12.3017  12.3022  13.4315  13.4317  13.4317  13.4319
    13.9558  13.9573  13.9573  13.9588  16.1208  16.1213  16.1213  16.1218
    26.4090  26.4105  26.4105  26.4121  27.7090  27.7103  27.7103  27.7116
    37.9758  37.9773  37.9773  37.9789  38.4734  38.4751  38.4751  38.4769
    47.0686  47.0687  47.0688  47.0688  49.1879  49.1910  49.1911  49.1942
    51.9325  51.9329  51.9330  51.9334

          k = 0.0476 0.0476 0.0476 (  1791 PWs)   bands (ev):

     6.4530  10.5547  10.5547  10.5547  11.2147  11.2147  11.2147  12.5609
    13.0135  13.0135  13.4030  13.4030  13.4030  13.8719  13.8719  14.1639
    14.1640  14.1640  14.8253  14.8253  14.8253  17.3770  17.3770  17.3770
    25.4645  25.4645  25.4645  26.7729  26.7729  26.7729  31.2013  31.2014
    31.2014  33.5573  36.2707  36.2707  36.2707  39.1055  41.2008  41.2008
    42.9059  42.9060  42.9060  46.5153  47.6160  47.6160  51.8234  51.8234
    55.1932  55.1933  55.1933  55.4560

          k = 0.0476 0.0476 0.0952 (  1762 PWs)   bands (ev):

     7.4503  10.1686  11.0144  11.0144  11.4563  11.4563  11.5122  12.3136
    12.6821  12.6821  12.8475  13.0451  13.1352  13.7768  13.8111  13.8738
    13.8738  14.1475  14.7132  14.7429  14.7429  15.4339  18.7055  18.7055
    22.9240  22.9240  26.7712  27.3999  27.3999  30.4414  30.4414  30.8675
    31.0433  32.7059  36.7293  37.6907  37.9375  38.8304  38.8304  42.3783
    43.5943  44.4977  47.0760  47.0760  47.9362  49.0397  50.2004  50.2004
    50.7144  52.9575  53.0494  55.7866

          k = 0.0476 0.0476-0.1427 (  1752 PWs)   bands (ev):

     8.8919   8.8931  11.4422  11.4422  11.5097  11.5097  11.9216  11.9236
    12.2996  12.2996  12.8265  12.8288  13.3985  13.3990  13.6828  13.6829
    14.2987  14.3003  14.4625  14.4627  14.6953  14.6953  19.7847  19.7848
    21.4565  21.4565  28.3299  28.3299  28.5958  28.5964  29.0502  29.0502
    35.0159  35.0179  35.3950  35.3992  38.1798  38.1841  42.1954  42.1955
    44.8529  44.8554  45.3692  45.3692  49.4103  49.4134  50.8642  50.8653
    52.2308  52.2309  53.8724  53.8725

          k = 0.0476 0.0952 0.0952 (  1759 PWs)   bands (ev):

     8.3363  10.6166  10.6166  11.1284  11.6224  11.7633  11.7633  12.2897
    12.4958  12.4958  12.6208  12.9345  13.0840  13.5377  13.5377  13.5399
    13.9010  14.4618  14.6106  14.6106  14.6274  16.3720  16.3720  18.9050
    21.1541  24.1278  24.1278  28.1135  28.1886  31.2061  31.2062  32.2219
    32.2219  34.0807  35.2758  36.9433  39.3490  39.3490  40.0871  43.1621
    43.7378  44.7402  46.4679  46.4679  49.2586  49.2586  50.3603  50.5906
    50.9125  51.7032  52.3786  52.8646

          k = 0.0476 0.0952-0.1427 (  1754 PWs)   bands (ev):

     9.5567   9.5576  10.9799  10.9803  11.8831  11.8833  12.1224  12.1241
    12.4759  12.4767  12.6630  12.6644  13.2131  13.2135  13.3943  13.3946
    14.2198  14.2206  14.5182  14.5188  15.0680  15.0683  17.6070  17.6081
    22.1259  22.1267  25.8715  25.8720  29.5439  29.5445  33.1048  33.1049
    33.3307  33.3314  36.9247  36.9294  40.1308  40.1318  40.4781  40.4790
    45.1906  45.1909  45.6861  45.6885  47.6952  47.6966  50.6220  50.6239
    51.7409  51.7420  53.9915  53.9951

          k = 0.0476-0.1427-0.1427 (  1752 PWs)   bands (ev):

    10.3335  10.3340  10.3340  10.3346  12.2897  12.2905  12.2905  12.2914
    12.5095  12.5105  12.5105  12.5115  13.1573  13.1577  13.1577  13.1582
    14.2485  14.2495  14.2495  14.2506  15.9953  15.9959  15.9959  15.9965
    23.7173  23.7179  23.7179  23.7185  31.0638  31.0642  31.0642  31.0646
    38.2545  38.2558  38.2559  38.2573  38.3019  38.3035  38.3035  38.3050
    46.5977  46.5977  46.5978  46.5979  46.7934  46.7952  46.7952  46.7970
    54.8864  54.8878  54.8879  55.0998

          k = 0.0952 0.0952 0.0952 (  1757 PWs)   bands (ev):

     9.0014  10.5685  10.5685  10.5685  12.0789  12.0790  12.0790  12.5569
    12.7747  12.7747  12.7747  12.9016  12.9016  13.1750  13.1751  13.1751
    14.3416  14.3416  14.7533  14.7533  14.7533  16.6234  16.6234  16.6234
    21.7563  21.7563  21.7563  25.3836  32.5549  32.5549  32.5549  35.3150
    35.3151  35.3151  37.2960  37.2960  37.2960  37.6288  40.0484  40.0484
    44.4657  44.4657  47.8003  48.0254  48.0255  48.0255  48.1531  48.1531
    48.1531  52.4928  52.4929  52.4929

          k = 0.0952 0.0952-0.1427 (  1748 PWs)   bands (ev):

     9.8264   9.8268  10.5283  10.5283  12.2715  12.2715  12.5846  12.5857
    12.8319  12.8333  12.9354  12.9355  12.9782  12.9782  13.0425  13.0425
    14.6549  14.6551  14.6824  14.6824  14.8806  14.8809  16.8126  16.8126
    20.8258  20.8258  23.2649  23.2654  33.4318  33.4319  34.7231  34.7231
    36.2289  36.2310  37.3283  37.3293  39.0840  39.0872  39.4239  39.4240
    44.6904  44.6905  44.8907  44.8924  46.0366  46.0371  48.5223  48.5223
    49.6716  49.6723  53.1003  53.1003

          k = 0.0952-0.1427-0.1427 (  1764 PWs)   bands (ev):

    10.1405  10.1406  10.1406  10.1407  12.6187  12.6189  12.6189  12.6192
    12.8514  12.8517  12.8517  12.8520  13.2650  13.2657  13.2658  13.2665
    14.5916  14.5922  14.5922  14.5927  15.5042  15.5048  15.5049  15.5055
    21.4945  21.4950  21.4950  21.4954  35.1374  35.1378  35.1379  35.1383
    38.1971  38.1978  38.1979  38.1986  39.0190  39.0197  39.0198  39.0206
    44.1368  44.1376  44.1377  44.1385  45.1611  45.1613  45.1614  45.1616
    50.5231  50.5235  50.5235  50.5238

          k =-0.1427-0.1427-0.1427 (  1736 PWs)   bands (ev):

    10.0552  10.0552  10.0552  10.0552  12.7372  12.7372  12.7372  12.7372
    12.7372  12.7372  12.7373  12.7373  14.1981  14.1982  14.1982  14.1982
    14.7250  14.7250  14.7250  14.7250  14.7250  14.7250  14.7250  14.7250
    20.7033  20.7034  20.7034  20.7034  36.7740  36.7743  36.7743  36.7743
    39.6571  39.6571  39.6571  39.6571  39.6572  39.6572  39.6572  39.6572
    42.8448  42.8448  42.8448  42.8449  42.8449  42.8449  42.8450  42.8450
    48.9009  48.9009  48.9009  48.9010

          k =-0.0476-0.0000 0.0476 (  1773 PWs)   bands (ev):

     6.1043  10.3668  10.3668  10.5565  11.1130  11.1235  11.1235  12.6159
    12.9885  12.9929  13.7031  13.7443  13.7445  13.7565  13.9595  14.3570
    14.4832  14.4832  14.7541  14.7541  14.8248  16.7232  16.7232  18.9718
    24.1662  25.2363  26.4430  26.4430  28.3846  28.3847  28.9857  28.9857
    30.6750  36.1191  36.1485  37.1069  37.1069  37.3592  40.2444  40.2446
    41.1993  42.7021  43.5100  45.1854  46.4357  49.9593  50.3916  53.2794
    53.6459  55.3234  55.3234  56.2553

          k =-0.0476-0.0000 0.0952 (  1759 PWs)   bands (ev):

     7.1342   9.9698  10.8832  11.0015  11.3966  11.4292  11.4707  12.3033
    12.6807  12.8499  13.0437  13.0839  13.2642  13.5852  14.0073  14.0929
    14.1629  14.2492  14.2785  14.7512  14.7604  15.1508  18.3620  20.7935
    22.2862  24.8443  25.6631  26.6754  27.5347  29.7238  29.9721  30.0339
    31.1214  33.8105  34.5182  37.7305  38.6794  40.3507  40.5255  40.8786
    41.1280  44.1331  45.2489  47.1362  47.7181  48.5818  49.8886  51.2714
    52.9070  53.1814  55.0501  56.4656

          k =-0.0952-0.0000 0.0952 (  1746 PWs)   bands (ev):

     8.0843  10.6081  10.6081  11.3652  11.4474  11.6853  11.6853  12.2053
    12.3518  12.3518  12.5255  12.9230  13.4083  13.4815  13.7799  13.9189
    13.9189  14.2826  14.2826  14.4726  14.5495  16.2932  16.2932  19.6143
    22.3355  25.3654  26.9514  26.9515  28.0052  28.0053  31.1242  31.7382
    31.7383  31.8125  33.6654  36.8829  41.4732  41.8722  41.8722  43.1207
    43.3042  43.8247  43.8248  47.3225  47.3708  48.5318  48.5318  51.7455
    52.0788  52.1436  53.4163  55.2651

          k = 0.0476-0.0476 0.0476 (  1791 PWs)   bands (ev):

     6.4530  10.5547  10.5547  10.5547  11.2147  11.2147  11.2147  12.5610
    13.0135  13.0135  13.4030  13.4030  13.4030  13.8719  13.8719  14.1639
    14.1639  14.1640  14.8253  14.8253  14.8253  17.3770  17.3770  17.3770
    25.4645  25.4645  25.4645  26.7729  26.7729  26.7729  31.2012  31.2013
    31.2014  33.5575  36.2706  36.2706  36.2707  39.1054  41.2006  41.2007
    42.9060  42.9061  42.9061  46.5153  47.6159  47.6160  51.8233  51.8234
    55.1932  55.1933  55.1933  55.4560

          k = 0.0476-0.0476 0.0952 (  1762 PWs)   bands (ev):

     7.4504  10.1686  11.0144  11.0144  11.4563  11.4563  11.5122  12.3136
    12.6821  12.6821  12.8475  13.0451  13.1352  13.7768  13.8111  13.8738
    13.8738  14.1475  14.7132  14.7429  14.7429  15.4339  18.7055  18.7055
    22.9240  22.9240  26.7712  27.3999  27.4000  30.4413  30.4414  30.8676
    31.0433  32.7058  36.7292  37.6906  37.9374  38.8303  38.8304  42.3783
    43.5945  44.4977  47.0760  47.0761  47.9362  49.0397  50.2004  50.2005
    50.7144  52.9575  53.0494  55.7865

          k =-0.0952 0.0476 0.0476 (  1762 PWs)   bands (ev):

     7.4504  10.1686  11.0144  11.0144  11.4563  11.4563  11.5122  12.3136
    12.6821  12.6821  12.8475  13.0451  13.1352  13.7768  13.8111  13.8738
    13.8738  14.1475  14.7132  14.7429  14.7429  15.4339  18.7055  18.7055
    22.9240  22.9240  26.7711  27.4000  27.4000  30.4413  30.4413  30.8676
    31.0433  32.7059  36.7293  37.6907  37.9375  38.8303  38.8304  42.3782
    43.5944  44.4975  47.0761  47.0762  47.9361  49.0397  50.2005  50.2005
    50.7144  52.9576  53.0495  55.7866

          k = 0.0476-0.0476-0.1427 (  1752 PWs)   bands (ev):

     8.8919   8.8931  11.4422  11.4422  11.5097  11.5097  11.9216  11.9236
    12.2996  12.2996  12.8265  12.8288  13.3985  13.3990  13.6828  13.6829
    14.2987  14.3003  14.4625  14.4627  14.6953  14.6953  19.7847  19.7848
    21.4564  21.4565  28.3299  28.3299  28.5958  28.5964  29.0502  29.0502
    35.0158  35.0178  35.3950  35.3992  38.1798  38.1840  42.1953  42.1955
    44.8530  44.8555  45.3691  45.3692  49.4103  49.4135  50.8641  50.8652
    52.2308  52.2310  53.8724  53.8725

          k = 0.0952-0.0476 0.0952 (  1759 PWs)   bands (ev):

     8.3363  10.6166  10.6166  11.1284  11.6224  11.7633  11.7633  12.2897
    12.4958  12.4958  12.6208  12.9345  13.0840  13.5377  13.5377  13.5399
    13.9010  14.4618  14.6106  14.6106  14.6274  16.3720  16.3720  18.9050
    21.1541  24.1278  24.1278  28.1136  28.1886  31.2061  31.2061  32.2219
    32.2219  34.0807  35.2757  36.9433  39.3489  39.3489  40.0871  43.1621
    43.7378  44.7402  46.4679  46.4679  49.2587  49.2587  50.3604  50.5907
    50.9124  51.7033  52.3786  52.8646

          k =-0.0952 0.0476 0.0952 (  1759 PWs)   bands (ev):

     8.3363  10.6166  10.6166  11.1284  11.6224  11.7633  11.7633  12.2897
    12.4958  12.4958  12.6208  12.9345  13.0840  13.5377  13.5377  13.5399
    13.9010  14.4618  14.6106  14.6106  14.6274  16.3720  16.3720  18.9050
    21.1541  24.1278  24.1278  28.1136  28.1886  31.2061  31.2062  32.2219
    32.2220  34.0806  35.2758  36.9432  39.3490  39.3490  40.0870  43.1620
    43.7377  44.7402  46.4679  46.4680  49.2587  49.2587  50.3604  50.5906
    50.9125  51.7032  52.3787  52.8646

          k = 0.0952-0.0476-0.1427 (  1754 PWs)   bands (ev):

     9.5567   9.5576  10.9799  10.9803  11.8831  11.8833  12.1224  12.1241
    12.4759  12.4767  12.6630  12.6645  13.2131  13.2134  13.3943  13.3946
    14.2198  14.2206  14.5182  14.5188  15.0680  15.0683  17.6070  17.6081
    22.1259  22.1267  25.8716  25.8721  29.5439  29.5446  33.1047  33.1049
    33.3307  33.3314  36.9247  36.9293  40.1308  40.1318  40.4780  40.4789
    45.1906  45.1909  45.6861  45.6885  47.6953  47.6967  50.6221  50.6240
    51.7410  51.7421  53.9915  53.9950

          k = 0.0952-0.0952 0.0952 (  1757 PWs)   bands (ev):

     9.0014  10.5685  10.5685  10.5685  12.0790  12.0790  12.0790  12.5569
    12.7747  12.7747  12.7747  12.9016  12.9017  13.1750  13.1750  13.1750
    14.3416  14.3416  14.7533  14.7533  14.7533  16.6234  16.6234  16.6234
    21.7563  21.7563  21.7563  25.3837  32.5549  32.5550  32.5550  35.3150
    35.3150  35.3151  37.2959  37.2960  37.2961  37.6287  40.0483  40.0484
    44.4656  44.4656  47.8003  48.0255  48.0255  48.0256  48.1531  48.1531
    48.1532  52.4929  52.4930  52.4930

          k = 0.0952-0.0952-0.1427 (  1748 PWs)   bands (ev):

     9.8264   9.8268  10.5283  10.5283  12.2715  12.2715  12.5846  12.5857
    12.8319  12.8333  12.9354  12.9355  12.9782  12.9782  13.0425  13.0425
    14.6549  14.6551  14.6824  14.6824  14.8806  14.8809  16.8126  16.8126
    20.8257  20.8258  23.2649  23.2655  33.4318  33.4319  34.7231  34.7232
    36.2288  36.2309  37.3283  37.3292  39.0839  39.0872  39.4239  39.4240
    44.6904  44.6905  44.8907  44.8924  46.0365  46.0371  48.5224  48.5224
    49.6716  49.6723  53.1003  53.1004

     the Fermi energy is    14.4980 ev

!    total energy              =    -343.63020432 Ry
     Harris-Foulkes estimate   =    -343.63020431 Ry
     estimated scf accuracy    <          4.3E-13 Ry

     The total energy is the sum of the following terms:

     one-electron contribution =      -6.34344947 Ry
     hartree contribution      =      60.33662560 Ry
     xc contribution           =    -120.51490757 Ry
     ewald contribution        =    -277.06003537 Ry
     Dispersion Correction     =      -0.04786240 Ry
     smearing contrib. (-TS)   =      -0.00057511 Ry

     total magnetization       =     2.84 Bohr mag/cell
     absolute magnetization    =     3.25 Bohr mag/cell

     convergence has been achieved in  11 iterations

     Forces acting on atoms (Ry/au):

     atom    1 type  1   force =    -0.00014583   -0.00014583    0.00014564
     atom    2 type  1   force =     0.00014603    0.00014603    0.00014603
     atom    3 type  1   force =    -0.00014583    0.00014564   -0.00014583
     atom    4 type  1   force =     0.00014564   -0.00014583   -0.00014583

     Total force =     0.000505     Total SCF correction =     0.000003


     entering subroutine stress ...

          total   stress  (Ry/bohr**3)                   (kbar)     P=    0.66
   0.00000448  -0.00000002  -0.00000002          0.66     -0.00     -0.00
  -0.00000002   0.00000448  -0.00000002         -0.00      0.66     -0.00
  -0.00000002  -0.00000002   0.00000448         -0.00     -0.00      0.66


     number of scf cycles    =   4
     number of bfgs steps    =   3

     enthalpy old            =    -343.6301775146 Ry
     enthalpy new            =    -343.6302043153 Ry

     CASE: enthalpy_new < enthalpy_old

     new trust radius        =       0.0007384400 bohr
     new conv_thr            =            1.0E-10 Ry

     new unit-cell volume =    290.11650 a.u.^3 (    42.99083 Ang^3 )

CELL_PARAMETERS (alat=  1.88972590)
   3.503149411   0.000002203   0.000002203
   0.000002203   3.503149411   0.000002203
   0.000002203   0.000002203   3.503149411

ATOMIC_POSITIONS (alat)
Ni1      1.755476345   1.755476345   0.003878962
Ni1      0.003875281   0.003875281   0.003875281
Ni1      1.755476345   0.003878962   1.755476345
Ni1      0.003878962   1.755476345   1.755476345



     Writing output data file Ni-ferromag.save
     NEW-OLD atomic charge density approx. for the potential

     Check: negative/imaginary core charge=   -0.000005    0.000000
     extrapolated charge   40.01247, renormalised to   40.00000

     total cpu time spent up to now is     1541.2 secs

     Self-consistent Calculation

     iteration #  1     ecut=    50.00 Ry     beta=0.20
     Davidson diagonalization with overlap
     ethr =  1.00E-06,  avg # of iterations =  2.0

     total cpu time spent up to now is     1582.1 secs

     total energy              =    -343.63024600 Ry
     Harris-Foulkes estimate   =    -343.61717177 Ry
     estimated scf accuracy    <       0.00004977 Ry

     total magnetization       =     2.84 Bohr mag/cell
     absolute magnetization    =     3.26 Bohr mag/cell

     iteration #  2     ecut=    50.00 Ry     beta=0.20
     Davidson diagonalization with overlap
     ethr =  1.24E-07,  avg # of iterations =  1.4

     total cpu time spent up to now is     1609.4 secs

     total energy              =    -343.63027784 Ry
     Harris-Foulkes estimate   =    -343.63028167 Ry
     estimated scf accuracy    <       0.00001994 Ry

     total magnetization       =     2.83 Bohr mag/cell
     absolute magnetization    =     3.25 Bohr mag/cell

     iteration #  3     ecut=    50.00 Ry     beta=0.20
     Davidson diagonalization with overlap
     ethr =  4.98E-08,  avg # of iterations =  1.0

     total cpu time spent up to now is     1636.2 secs

     total energy              =    -343.63027374 Ry
     Harris-Foulkes estimate   =    -343.63027849 Ry
     estimated scf accuracy    <       0.00000689 Ry

     total magnetization       =     2.83 Bohr mag/cell
     absolute magnetization    =     3.25 Bohr mag/cell

     iteration #  4     ecut=    50.00 Ry     beta=0.20
     Davidson diagonalization with overlap
     ethr =  1.72E-08,  avg # of iterations =  1.5

     total cpu time spent up to now is     1663.6 secs

     total energy              =    -343.63027759 Ry
     Harris-Foulkes estimate   =    -343.63027842 Ry
     estimated scf accuracy    <       0.00000658 Ry

     total magnetization       =     2.84 Bohr mag/cell
     absolute magnetization    =     3.25 Bohr mag/cell

     iteration #  5     ecut=    50.00 Ry     beta=0.20
     Davidson diagonalization with overlap
     ethr =  1.64E-08,  avg # of iterations =  1.0

     total cpu time spent up to now is     1690.4 secs

     total energy              =    -343.63027637 Ry
     Harris-Foulkes estimate   =    -343.63027767 Ry
     estimated scf accuracy    <       0.00000354 Ry

     total magnetization       =     2.84 Bohr mag/cell
     absolute magnetization    =     3.25 Bohr mag/cell

     iteration #  6     ecut=    50.00 Ry     beta=0.20
     Davidson diagonalization with overlap
     ethr =  8.86E-09,  avg # of iterations =  1.0

     total cpu time spent up to now is     1717.2 secs

     total energy              =    -343.63027680 Ry
     Harris-Foulkes estimate   =    -343.63027682 Ry
     estimated scf accuracy    <       0.00000008 Ry

     total magnetization       =     2.84 Bohr mag/cell
     absolute magnetization    =     3.25 Bohr mag/cell

     iteration #  7     ecut=    50.00 Ry     beta=0.20
     Davidson diagonalization with overlap
     ethr =  2.11E-10,  avg # of iterations =  1.0

     total cpu time spent up to now is     1744.0 secs

     total energy              =    -343.63027682 Ry
     Harris-Foulkes estimate   =    -343.63027680 Ry
     estimated scf accuracy    <       0.00000002 Ry

     total magnetization       =     2.84 Bohr mag/cell
     absolute magnetization    =     3.25 Bohr mag/cell

     iteration #  8     ecut=    50.00 Ry     beta=0.20
     Davidson diagonalization with overlap
     ethr =  5.60E-11,  avg # of iterations =  1.0

     total cpu time spent up to now is     1770.9 secs

     total energy              =    -343.63027682 Ry
     Harris-Foulkes estimate   =    -343.63027683 Ry
     estimated scf accuracy    <       0.00000015 Ry

     total magnetization       =     2.84 Bohr mag/cell
     absolute magnetization    =     3.25 Bohr mag/cell

     iteration #  9     ecut=    50.00 Ry     beta=0.20
     Davidson diagonalization with overlap
     ethr =  5.60E-11,  avg # of iterations =  1.0

     total cpu time spent up to now is     1797.7 secs

     total energy              =    -343.63027682 Ry
     Harris-Foulkes estimate   =    -343.63027682 Ry
     estimated scf accuracy    <       0.00000008 Ry

     total magnetization       =     2.84 Bohr mag/cell
     absolute magnetization    =     3.25 Bohr mag/cell

     iteration # 10     ecut=    50.00 Ry     beta=0.20
     Davidson diagonalization with overlap
     ethr =  5.60E-11,  avg # of iterations =  1.0

     total cpu time spent up to now is     1824.5 secs

     total energy              =    -343.63027679 Ry
     Harris-Foulkes estimate   =    -343.63027682 Ry
     estimated scf accuracy    <       0.00000007 Ry

     total magnetization       =     2.84 Bohr mag/cell
     absolute magnetization    =     3.25 Bohr mag/cell

     iteration # 11     ecut=    50.00 Ry     beta=0.20
     Davidson diagonalization with overlap
     ethr =  5.60E-11,  avg # of iterations =  1.1

     total cpu time spent up to now is     1851.5 secs

     total energy              =    -343.63027680 Ry
     Harris-Foulkes estimate   =    -343.63027680 Ry
     estimated scf accuracy    <          1.3E-10 Ry

     total magnetization       =     2.84 Bohr mag/cell
     absolute magnetization    =     3.25 Bohr mag/cell

     iteration # 12     ecut=    50.00 Ry     beta=0.20
     Davidson diagonalization with overlap
     ethr =  3.32E-13,  avg # of iterations =  2.7

     Magnetic moment per site:
     atom:    1    charge:    3.0050    magn:    0.3349    constr:    0.0000
     atom:    2    charge:    3.0032    magn:    0.3347    constr:    0.0000
     atom:    3    charge:    3.0050    magn:    0.3349    constr:    0.0000
     atom:    4    charge:    3.0050    magn:    0.3349    constr:    0.0000

     total cpu time spent up to now is     1883.9 secs

     End of self-consistent calculation

 ------ SPIN UP ------------


          k = 0.0000 0.0000 0.0000 (  1791 PWs)   bands (ev):

     5.4302   9.7140   9.7140   9.7140  10.1671  10.1671  10.1671  11.9460
    11.9460  11.9460  13.1247  13.1247  13.8424  13.8424  13.8424  13.9324
    13.9324  13.9324  13.9324  13.9324  13.9324  17.0709  17.0709  17.0709
    23.8089  23.8089  23.8089  29.5667  29.5667  29.5668  29.5668  29.5668
    29.5668  34.6446  34.6446  34.6446  37.9894  37.9895  37.9895  38.4944
    42.4703  42.4704  42.4704  46.0687  46.0687  46.0687  48.1725  55.1659
    55.1660  55.1660  57.6101  59.0321

          k =-0.0000-0.0000 0.0476 (  1779 PWs)   bands (ev):

     5.7964   9.7361   9.8982   9.8982  10.2776  10.2935  10.2935  11.8173
    12.0483  12.0483  13.0068  13.1714  13.2784  13.2784  13.6890  13.6890
    13.7564  13.7564  13.7929  13.9326  13.9326  15.4700  18.0295  18.0295
    23.9048  23.9048  26.0581  27.8150  27.8150  28.4432  28.4432  30.1270
    30.1270  34.7607  36.8173  36.8173  37.8588  38.1213  39.9468  39.9468
    40.2487  40.2487  40.9152  47.4890  48.1259  48.1259  49.1474  51.5564
    56.2618  56.2619  56.6719  56.6719

          k =-0.0000-0.0000 0.0952 (  1783 PWs)   bands (ev):

     6.8457   9.5068  10.3351  10.3351  10.5853  10.6766  10.6766  11.4732
    12.2227  12.2227  12.3449  12.3450  12.7189  13.3000  13.3059  13.3105
    13.3105  13.3177  13.3177  13.6587  13.9332  13.9332  19.9919  19.9919
    24.2220  24.2221  25.0416  25.0416  26.6751  26.6751  30.3579  31.7062
    31.7062  35.1239  36.7261  37.0279  37.0279  38.3478  38.6732  40.8616
    40.8616  44.1108  44.1108  44.1430  50.9245  51.0461  51.0462  51.0491
    51.0491  55.0340  55.9376  55.9376

          k = 0.0000 0.0000-0.1427 (  1750 PWs)   bands (ev):

     8.3450   8.3450  10.6112  10.6112  11.0201  11.0202  11.3231  11.3231
    11.3232  11.3232  12.5418  12.5419  12.7970  12.7970  12.7970  12.7970
    13.0620  13.0620  13.4779  13.4780  13.9334  13.9334  22.3773  22.3773
    22.3775  22.3775  24.5953  24.5953  25.7296  25.7296  34.0840  34.0840
    34.0841  34.0842  34.9076  34.9079  35.7716  35.7717  40.2666  40.2670
    45.6624  45.6624  45.6628  45.6628  47.6165  47.6165  52.2886  52.2887
    54.1739  54.1739  54.1742  54.1742

          k =-0.0000 0.0476 0.0476 (  1773 PWs)   bands (ev):

     6.1540   9.9344   9.9344  10.0613  10.3950  10.3950  10.4089  11.7573
    12.0933  12.1104  12.9324  12.9822  12.9907  12.9907  13.1666  13.5603
    13.6849  13.6849  13.7551  13.7551  13.8166  16.4021  16.4021  18.7992
    23.8990  25.0978  26.2454  26.2454  28.2927  28.2928  28.9355  28.9355
    30.6547  36.0338  36.1175  37.0258  37.0258  37.3312  40.1143  40.1144
    41.2696  42.6022  43.5296  45.2303  46.3623  49.7859  50.4539  53.0919
    53.6676  55.3483  55.3483  56.3020

          k =-0.0000 0.0476 0.0952 (  1759 PWs)   bands (ev):

     7.1755   9.7428  10.4164  10.4650  10.6767  10.7300  10.7491  11.4763
    11.9841  12.1238  12.2392  12.3566  12.3820  12.8152  13.2365  13.3151
    13.3219  13.3456  13.4980  13.7518  13.7578  14.4354  18.0163  20.5819
    22.0798  24.6073  25.5029  26.5321  27.3998  29.6060  29.9013  29.9539
    31.0140  33.7225  34.4656  37.6780  38.6306  40.3886  40.5674  40.7463
    41.1174  44.0382  45.0303  47.0565  47.7840  48.5869  49.8919  51.3337
    52.9385  53.2595  54.8162  56.2008

          k = 0.0000 0.0476-0.1427 (  1760 PWs)   bands (ev):

     8.6264   8.6265  10.7637  10.7637  11.0719  11.0720  11.1908  11.1909
    11.3376  11.3377  12.1684  12.1685  12.7978  12.7979  13.0272  13.0272
    13.0470  13.0470  13.6614  13.6614  13.7494  13.7494  19.8847  19.8848
    22.8765  22.8767  25.4108  25.4110  28.3081  28.3082  31.4957  31.4957
    32.0192  32.0192  35.8274  35.8277  38.8270  38.8270  42.2109  42.2112
    43.1131  43.1132  45.9386  45.9389  50.0803  50.0807  50.3533  50.3535
    52.6114  52.6115  53.2016  53.2017

          k =-0.0000 0.0952 0.0952 (  1746 PWs)   bands (ev):

     8.1020  10.3303  10.3303  10.6963  10.9448  10.9448  10.9586  11.4064
    11.6535  11.6535  11.8082  12.1265  12.4874  12.7290  13.0206  13.1758
    13.1758  13.3158  13.3158  13.4858  13.7011  15.6813  15.6813  19.2992
    22.1084  25.1580  26.7758  26.7758  27.8950  27.8950  30.9836  31.6395
    31.6396  31.7352  33.6028  36.8368  41.5260  41.8792  41.8792  43.0741
    43.4110  43.7700  43.7701  47.1875  47.3289  48.4739  48.4739  51.6723
    52.1762  52.1896  53.1992  55.3493

          k = 0.0000 0.0952-0.1427 (  1746 PWs)   bands (ev):

     9.3690   9.3690  10.8011  10.8012  11.1990  11.1991  11.2066  11.2066
    11.3563  11.3564  11.8626  11.8626  12.8345  12.8345  12.8352  12.8353
    12.9013  12.9013  13.3507  13.3508  14.3625  14.3626  17.2125  17.2126
    24.2324  24.2325  26.2258  26.2260  28.6512  28.6513  29.5368  29.5368
    32.9481  32.9481  36.7896  36.7899  40.3634  40.3635  43.0485  43.0486
    43.2153  43.2154  46.7389  46.7392  47.9229  47.9230  50.4265  50.4266
    51.7603  51.7605  53.5617  53.5617

          k = 0.0000-0.1427-0.1427 (  1740 PWs)   bands (ev):

    10.2221  10.2221  10.2221  10.2221  11.3182  11.3183  11.3183  11.3184
    11.6274  11.6274  11.6274  11.6275  12.6884  12.6884  12.6885  12.6885
    13.0024  13.0024  13.0025  13.0025  15.4327  15.4327  15.4328  15.4328
    26.2066  26.2067  26.2067  26.2068  27.5775  27.5776  27.5776  27.5777
    37.8918  37.8919  37.8919  37.8920  38.4986  38.4987  38.4987  38.4988
    47.1773  47.1773  47.1773  47.1773  49.1890  49.1892  49.1892  49.1893
    51.8170  51.8170  51.8171  51.8171

          k = 0.0476 0.0476 0.0476 (  1791 PWs)   bands (ev):

     6.4997  10.0953  10.0953  10.0953  10.5095  10.5095  10.5095  11.7224
    12.1300  12.1300  12.6868  12.6868  12.6868  13.0798  13.0798  13.3269
    13.3269  13.3269  13.8707  13.8707  13.8707  17.0292  17.0292  17.0292
    25.3245  25.3246  25.3246  26.5904  26.5905  26.5905  31.1700  31.1700
    31.1700  33.4809  36.1651  36.1651  36.1651  39.2515  41.1365  41.1365
    42.8094  42.8095  42.8095  46.5911  47.6468  47.6468  51.6412  51.6412
    55.1072  55.2267  55.2267  55.2267

          k = 0.0476 0.0476 0.0952 (  1762 PWs)   bands (ev):

     7.4811   9.9015  10.4784  10.4784  10.7951  10.8232  10.8233  11.5130
    11.9745  11.9745  12.1698  12.2092  12.2694  12.9248  12.9955  13.0811
    13.0811  13.3193  13.7735  13.7735  13.8057  14.7972  18.3714  18.3714
    22.7056  22.7056  26.6182  27.2418  27.2418  30.3569  30.3569  30.7438
    30.9463  32.6495  36.6441  37.7753  37.8491  38.7892  38.7892  42.3592
    43.5015  44.4681  47.0190  47.0190  47.8810  49.0818  50.1988  50.1988
    50.6943  53.0154  53.0761  55.6556

          k = 0.0476 0.0476-0.1427 (  1752 PWs)   bands (ev):

     8.8534   8.8535  10.8656  10.8656  10.9236  10.9236  11.1668  11.1669
    11.5806  11.5806  12.0726  12.0727  12.5426  12.5426  12.9135  12.9135
    13.4888  13.4889  13.5954  13.5954  13.7174  13.7174  19.5202  19.5202
    21.1444  21.1445  28.2062  28.2062  28.4449  28.4450  28.9257  28.9257
    34.9370  34.9371  35.4143  35.4145  38.0933  38.0935  42.2029  42.2029
    44.7543  44.7545  45.3682  45.3682  49.4791  49.4793  50.8978  50.8978
    52.1834  52.1834  53.6799  53.6799

          k = 0.0476 0.0952 0.0952 (  1759 PWs)   bands (ev):

     8.3199  10.2193  10.2193  10.5054  11.1106  11.1566  11.1566  11.5580
    11.7706  11.7706  11.9038  12.1285  12.2544  12.7327  12.7327  12.7491
    13.0518  13.6068  13.6761  13.6913  13.6913  15.8120  15.8120  18.6233
    20.8021  23.9023  23.9023  27.9425  28.0517  31.1331  31.1331  32.1191
    32.1191  34.0157  35.2402  36.9077  39.3233  39.3233  40.1531  43.0358
    43.7344  44.7830  46.4616  46.4616  49.1906  49.1907  50.4161  50.5940
    50.9230  51.6164  52.2996  52.9247

          k = 0.0476 0.0952-0.1427 (  1754 PWs)   bands (ev):

     9.4032   9.4032  10.4405  10.4405  11.3241  11.3241  11.4722  11.4723
    11.7775  11.7775  11.8982  11.8982  12.4037  12.4037  12.6144  12.6145
    13.3490  13.3491  13.5766  13.5766  14.2688  14.2689  17.1896  17.1896
    21.8179  21.8180  25.6629  25.6630  29.4343  29.4344  33.0383  33.0384
    33.2519  33.2519  36.9035  36.9037  40.1362  40.1362  40.4446  40.4446
    45.1916  45.1916  45.6834  45.6836  47.7025  47.7026  50.5712  50.5713
    51.7891  51.7892  53.9016  53.9017

          k = 0.0476-0.1427-0.1427 (  1752 PWs)   bands (ev):

     9.9726   9.9726   9.9726   9.9726  11.7152  11.7152  11.7152  11.7152
    11.8022  11.8023  11.8023  11.8023  12.3751  12.3752  12.3752  12.3752
    13.3316  13.3316  13.3316  13.3317  15.3436  15.3437  15.3437  15.3437
    23.4517  23.4517  23.4517  23.4518  30.9720  30.9720  30.9720  30.9721
    38.1723  38.1723  38.1724  38.1724  38.3423  38.3424  38.3424  38.3425
    46.6543  46.6543  46.6543  46.6543  46.7568  46.7569  46.7569  46.7570
    54.8086  54.8087  54.8087  54.8088

          k = 0.0952 0.0952 0.0952 (  1757 PWs)   bands (ev):

     8.8638  10.0543  10.0543  10.0543  11.5151  11.5151  11.5151  12.0290
    12.0899  12.0899  12.0899  12.0953  12.0953  12.3786  12.3786  12.3786
    13.4547  13.4547  13.8195  13.8195  13.8195  16.1903  16.1903  16.1903
    21.4095  21.4095  21.4095  25.1495  32.4989  32.4989  32.4990  35.2430
    35.2431  35.2431  37.2728  37.2728  37.2728  37.7908  39.9505  39.9505
    44.4444  44.4444  47.7724  48.0648  48.0648  48.0648  48.1390  48.1390
    48.1390  52.4475  52.4476  52.4476

          k = 0.0952 0.0952-0.1427 (  1748 PWs)   bands (ev):

     9.4899   9.4899   9.9858   9.9858  11.6349  11.6349  11.9214  11.9214
    12.1381  12.1381  12.2584  12.2584  12.2731  12.2731  12.3731  12.3731
    13.7400  13.7400  13.7479  13.7479  14.1589  14.1589  16.4745  16.4746
    20.3805  20.3805  22.9672  22.9673  33.4147  33.4147  34.6263  34.6264
    36.3295  36.3296  37.2453  37.2454  38.9936  38.9938  39.4387  39.4387
    44.6517  44.6517  44.9024  44.9025  46.0161  46.0162  48.5501  48.5501
    49.6050  49.6051  52.9774  52.9774

          k = 0.0952-0.1427-0.1427 (  1764 PWs)   bands (ev):

     9.6655   9.6655   9.6655   9.6655  11.8809  11.8809  11.8809  11.8809
    12.0706  12.0706  12.0706  12.0706  12.8200  12.8201  12.8201  12.8201
    13.6680  13.6680  13.6680  13.6680  14.9670  14.9671  14.9671  14.9671
    21.0939  21.0940  21.0940  21.0940  35.1542  35.1542  35.1543  35.1543
    38.2183  38.2184  38.2184  38.2184  38.9391  38.9391  38.9392  38.9392
    44.0934  44.0934  44.0934  44.0935  45.1566  45.1566  45.1566  45.1567
    50.4193  50.4194  50.4194  50.4194

          k =-0.1427-0.1427-0.1427 (  1736 PWs)   bands (ev):

     9.5495   9.5495   9.5495   9.5496  11.9591  11.9591  11.9591  11.9591
    11.9591  11.9591  11.9591  11.9591  13.7955  13.7955  13.7955  13.7955
    13.7955  13.7955  13.7955  13.7955  14.2920  14.2920  14.2920  14.2920
    20.2128  20.2128  20.2128  20.2129  36.9495  36.9497  36.9497  36.9497
    39.5753  39.5753  39.5754  39.5754  39.5754  39.5754  39.5754  39.5754
    42.8026  42.8027  42.8027  42.8027  42.8027  42.8027  42.8027  42.8027
    48.7733  48.7733  48.7733  48.7733

          k =-0.0476-0.0000 0.0476 (  1773 PWs)   bands (ev):

     6.1540   9.9344   9.9344  10.0613  10.3950  10.3950  10.4089  11.7573
    12.0933  12.1104  12.9324  12.9822  12.9907  12.9907  13.1666  13.5603
    13.6849  13.6849  13.7551  13.7551  13.8166  16.4021  16.4021  18.7992
    23.8990  25.0979  26.2454  26.2454  28.2927  28.2927  28.9354  28.9355
    30.6546  36.0338  36.1176  37.0258  37.0258  37.3312  40.1143  40.1144
    41.2696  42.6023  43.5295  45.2303  46.3623  49.7858  50.4539  53.0919
    53.6676  55.3483  55.3484  56.3020

          k =-0.0476-0.0000 0.0952 (  1759 PWs)   bands (ev):

     7.1755   9.7428  10.4164  10.4650  10.6767  10.7300  10.7491  11.4763
    11.9841  12.1238  12.2392  12.3566  12.3820  12.8151  13.2365  13.3151
    13.3219  13.3456  13.4980  13.7518  13.7578  14.4354  18.0163  20.5819
    22.0799  24.6073  25.5029  26.5321  27.3998  29.6060  29.9013  29.9539
    31.0140  33.7225  34.4656  37.6780  38.6305  40.3886  40.5674  40.7463
    41.1174  44.0382  45.0303  47.0566  47.7839  48.5868  49.8919  51.3337
    52.9386  53.2595  54.8162  56.2008

          k =-0.0952-0.0000 0.0952 (  1746 PWs)   bands (ev):

     8.1020  10.3303  10.3303  10.6963  10.9448  10.9448  10.9586  11.4064
    11.6535  11.6535  11.8082  12.1265  12.4874  12.7290  13.0206  13.1758
    13.1758  13.3158  13.3158  13.4858  13.7011  15.6813  15.6813  19.2993
    22.1084  25.1580  26.7758  26.7758  27.8950  27.8950  30.9836  31.6396
    31.6396  31.7352  33.6028  36.8368  41.5260  41.8792  41.8792  43.0741
    43.4109  43.7701  43.7701  47.1874  47.3288  48.4739  48.4739  51.6724
    52.1761  52.1896  53.1992  55.3494

          k = 0.0476-0.0476 0.0476 (  1791 PWs)   bands (ev):

     6.4997  10.0953  10.0953  10.0953  10.5095  10.5095  10.5095  11.7224
    12.1300  12.1300  12.6868  12.6868  12.6868  13.0798  13.0798  13.3269
    13.3269  13.3269  13.8707  13.8707  13.8707  17.0292  17.0292  17.0292
    25.3245  25.3246  25.3246  26.5905  26.5905  26.5905  31.1699  31.1699
    31.1700  33.4810  36.1650  36.1651  36.1651  39.2515  41.1364  41.1365
    42.8095  42.8095  42.8096  46.5911  47.6467  47.6468  51.6411  51.6412
    55.1072  55.2267  55.2267  55.2268

          k = 0.0476-0.0476 0.0952 (  1762 PWs)   bands (ev):

     7.4812   9.9015  10.4784  10.4784  10.7951  10.8232  10.8233  11.5130
    11.9745  11.9745  12.1698  12.2092  12.2694  12.9248  12.9954  13.0811
    13.0811  13.3193  13.7735  13.7735  13.8057  14.7972  18.3714  18.3714
    22.7056  22.7056  26.6182  27.2418  27.2419  30.3569  30.3569  30.7439
    30.9463  32.6495  36.6440  37.7753  37.8491  38.7892  38.7892  42.3592
    43.5016  44.4681  47.0190  47.0191  47.8810  49.0817  50.1988  50.1989
    50.6943  53.0155  53.0761  55.6556

          k =-0.0952 0.0476 0.0476 (  1762 PWs)   bands (ev):

     7.4812   9.9015  10.4784  10.4784  10.7951  10.8232  10.8233  11.5130
    11.9745  11.9745  12.1698  12.2092  12.2694  12.9248  12.9954  13.0811
    13.0811  13.3193  13.7735  13.7735  13.8057  14.7972  18.3714  18.3714
    22.7056  22.7056  26.6181  27.2418  27.2419  30.3569  30.3569  30.7439
    30.9463  32.6495  36.6441  37.7753  37.8491  38.7892  38.7892  42.3592
    43.5016  44.4680  47.0191  47.0191  47.8809  49.0818  50.1989  50.1989
    50.6943  53.0155  53.0762  55.6556

          k = 0.0476-0.0476-0.1427 (  1752 PWs)   bands (ev):

     8.8534   8.8535  10.8656  10.8656  10.9236  10.9236  11.1668  11.1669
    11.5806  11.5806  12.0726  12.0727  12.5426  12.5426  12.9135  12.9135
    13.4888  13.4889  13.5954  13.5954  13.7174  13.7174  19.5202  19.5202
    21.1444  21.1445  28.2062  28.2062  28.4450  28.4450  28.9257  28.9257
    34.9370  34.9371  35.4143  35.4145  38.0933  38.0935  42.2028  42.2029
    44.7544  44.7545  45.3682  45.3683  49.4791  49.4793  50.8977  50.8978
    52.1834  52.1834  53.6799  53.6800

          k = 0.0952-0.0476 0.0952 (  1759 PWs)   bands (ev):

     8.3199  10.2193  10.2193  10.5054  11.1106  11.1566  11.1566  11.5580
    11.7706  11.7706  11.9038  12.1285  12.2544  12.7327  12.7327  12.7491
    13.0518  13.6068  13.6761  13.6913  13.6913  15.8120  15.8120  18.6233
    20.8021  23.9023  23.9023  27.9426  28.0517  31.1331  31.1331  32.1191
    32.1191  34.0157  35.2402  36.9077  39.3233  39.3233  40.1530  43.0358
    43.7344  44.7830  46.4616  46.4616  49.1907  49.1907  50.4162  50.5941
    50.9230  51.6164  52.2996  52.9248

          k =-0.0952 0.0476 0.0952 (  1759 PWs)   bands (ev):

     8.3199  10.2193  10.2193  10.5054  11.1106  11.1566  11.1566  11.5580
    11.7705  11.7706  11.9038  12.1285  12.2544  12.7327  12.7327  12.7491
    13.0518  13.6068  13.6761  13.6913  13.6913  15.8120  15.8120  18.6233
    20.8022  23.9023  23.9023  27.9426  28.0517  31.1331  31.1331  32.1191
    32.1192  34.0157  35.2402  36.9076  39.3233  39.3233  40.1530  43.0357
    43.7344  44.7829  46.4616  46.4617  49.1907  49.1907  50.4161  50.5940
    50.9230  51.6163  52.2997  52.9247

          k = 0.0952-0.0476-0.1427 (  1754 PWs)   bands (ev):

     9.4032   9.4032  10.4405  10.4405  11.3241  11.3241  11.4722  11.4723
    11.7775  11.7775  11.8982  11.8982  12.4037  12.4037  12.6144  12.6144
    13.3490  13.3491  13.5766  13.5766  14.2688  14.2689  17.1896  17.1896
    21.8179  21.8179  25.6630  25.6630  29.4344  29.4344  33.0383  33.0383
    33.2519  33.2519  36.9035  36.9037  40.1361  40.1362  40.4445  40.4446
    45.1915  45.1916  45.6834  45.6836  47.7025  47.7026  50.5713  50.5714
    51.7892  51.7893  53.9016  53.9018

          k = 0.0952-0.0952 0.0952 (  1757 PWs)   bands (ev):

     8.8638  10.0543  10.0543  10.0543  11.5151  11.5151  11.5151  12.0290
    12.0899  12.0899  12.0899  12.0953  12.0954  12.3786  12.3786  12.3786
    13.4547  13.4547  13.8195  13.8195  13.8195  16.1903  16.1903  16.1903
    21.4095  21.4095  21.4095  25.1496  32.4989  32.4990  32.4990  35.2430
    35.2430  35.2431  37.2728  37.2728  37.2728  37.7908  39.9504  39.9505
    44.4443  44.4443  47.7724  48.0648  48.0648  48.0649  48.1390  48.1390
    48.1391  52.4476  52.4477  52.4477

          k = 0.0952-0.0952-0.1427 (  1748 PWs)   bands (ev):

     9.4899   9.4899   9.9858   9.9858  11.6349  11.6349  11.9214  11.9214
    12.1381  12.1381  12.2584  12.2584  12.2731  12.2731  12.3731  12.3731
    13.7400  13.7400  13.7479  13.7479  14.1589  14.1589  16.4745  16.4746
    20.3805  20.3805  22.9673  22.9673  33.4147  33.4147  34.6264  34.6264
    36.3295  36.3296  37.2453  37.2453  38.9936  38.9938  39.4386  39.4387
    44.6517  44.6518  44.9024  44.9025  46.0161  46.0161  48.5501  48.5501
    49.6050  49.6051  52.9774  52.9775

 ------ SPIN DOWN ----------


          k = 0.0000 0.0000 0.0000 (  1791 PWs)   bands (ev):

     5.3756  10.1761  10.1761  10.1761  10.8855  10.8855  10.8855  12.8265
    12.8266  12.8266  13.9050  13.9050  14.6567  14.6567  14.6567  14.9420
    14.9420  14.9420  14.9420  14.9420  14.9420  16.9921  16.9921  16.9921
    24.1146  24.1146  24.1146  29.5530  29.5530  29.5530  29.5531  29.5531
    29.5531  34.8089  34.8089  34.8089  38.1328  38.1330  38.1330  38.2888
    42.4410  42.4411  42.4411  46.1411  46.1412  46.1412  48.0130  55.3550
    55.3550  55.3550  58.1306  59.5497

          k =-0.0000-0.0000 0.0476 (  1779 PWs)   bands (ev):

     5.7418  10.1517  10.3704  10.3704  11.0048  11.0093  11.0093  12.6846
    12.9330  12.9330  13.7775  13.9538  14.0986  14.0986  14.4897  14.4897
    14.6048  14.7494  14.7494  14.9423  14.9423  15.5402  18.1363  18.1363
    24.1954  24.1954  26.2600  27.8836  27.8836  28.4705  28.4706  30.1296
    30.1296  34.9124  36.8982  36.8982  37.7201  38.2624  40.0673  40.0674
    40.2906  40.2906  40.8453  47.5096  48.0997  48.0998  49.2191  51.5472
    56.4731  56.4731  56.5985  56.5985

          k =-0.0000-0.0000 0.0952 (  1783 PWs)   bands (ev):

     6.7953   9.7150  10.8318  10.8318  11.3379  11.3871  11.3871  12.3063
    12.9522  12.9522  13.2427  13.2427  13.4567  13.6765  14.0778  14.0778
    14.0883  14.2744  14.2744  14.4641  14.9429  14.9429  20.1770  20.1770
    24.4683  24.4683  25.1823  25.1823  26.7733  26.7733  30.4535  31.7431
    31.7432  35.2379  36.6914  37.0994  37.0994  38.2575  38.8192  40.8670
    40.8670  44.2101  44.2102  44.3612  50.8801  50.9512  50.9513  50.9756
    50.9756  54.9296  56.1784  56.1785

          k = 0.0000 0.0000-0.1427 (  1750 PWs)   bands (ev):

     8.3385   8.3385  11.1235  11.1235  11.8108  11.8109  12.0325  12.0325
    12.0326  12.0326  13.1899  13.1900  13.7189  13.7189  13.7190  13.7190
    13.8082  13.8082  14.2746  14.2747  14.9432  14.9432  22.5589  22.5589
    22.5591  22.5591  24.7920  24.7921  25.8870  25.8870  34.1491  34.1491
    34.1492  34.1493  34.8877  34.8881  35.8230  35.8231  40.4586  40.4591
    45.6180  45.6180  45.6184  45.6184  47.6905  47.6906  52.4777  52.4777
    54.0636  54.0636  54.0639  54.0640

          k =-0.0000 0.0476 0.0476 (  1773 PWs)   bands (ev):

     6.1003  10.3627  10.3627  10.5524  11.1087  11.1192  11.1192  12.6109
    12.9834  12.9878  13.6976  13.7390  13.7390  13.7509  13.9539  14.3512
    14.4773  14.4774  14.7482  14.7482  14.8189  16.7167  16.7167  18.9649
    24.1578  25.2275  26.4341  26.4341  28.3757  28.3758  28.9765  28.9765
    30.6657  36.1093  36.1379  37.0964  37.0965  37.3487  40.2322  40.2323
    41.1888  42.6896  43.4987  45.1739  46.4230  49.9446  50.3793  53.2644
    53.6333  55.3103  55.3103  56.2423

          k =-0.0000 0.0476 0.0952 (  1759 PWs)   bands (ev):

     7.1299   9.9655  10.8789  10.9972  11.3921  11.4248  11.4662  12.2985
    12.6756  12.8448  13.0384  13.0787  13.2589  13.5798  14.0017  14.0873
    14.1572  14.2435  14.2728  14.7453  14.7545  15.1447  18.3550  20.7860
    22.2784  24.8353  25.6546  26.6670  27.5251  29.7145  29.9631  30.0245
    31.1114  33.8006  34.5081  37.7200  38.6686  40.3402  40.5150  40.8661
    41.1170  44.1204  45.2348  47.1230  47.7064  48.5693  49.8759  51.2590
    52.8941  53.1689  55.0360  56.4534

          k = 0.0000 0.0476-0.1427 (  1760 PWs)   bands (ev):

     8.6320   8.6321  11.2671  11.2671  11.8552  11.8554  11.8677  11.8678
    12.0498  12.0499  12.9095  12.9096  13.7223  13.7224  13.7970  13.7970
    13.7973  13.7973  14.5002  14.5002  14.7438  14.7438  20.1662  20.1663
    23.0697  23.0698  25.5824  25.5825  28.4251  28.4252  31.6097  31.6098
    32.0771  32.0772  35.8527  35.8530  38.8283  38.8284  42.3636  42.3639
    43.1062  43.1063  45.8906  45.8910  50.1458  50.1461  50.2857  50.2859
    52.5279  52.5280  53.3694  53.3695

          k =-0.0000 0.0952 0.0952 (  1746 PWs)   bands (ev):

     8.0799  10.6036  10.6036  11.3607  11.4429  11.6807  11.6807  12.2005
    12.3469  12.3470  12.5206  12.9179  13.4030  13.4762  13.7744  13.9133
    13.9133  14.2769  14.2769  14.4668  14.5437  16.2867  16.2867  19.6069
    22.3277  25.3564  26.9426  26.9427  27.9962  27.9962  31.1146  31.7284
    31.7284  31.8027  33.6554  36.8725  41.4625  41.8611  41.8612  43.1088
    43.2936  43.8125  43.8125  47.3088  47.3581  48.5187  48.5188  51.7317
    52.0665  52.1310  53.4025  55.2521

          k = 0.0000 0.0952-0.1427 (  1746 PWs)   bands (ev):

     9.4303   9.4304  11.2209  11.2209  11.8468  11.8468  11.9621  11.9622
    12.0770  12.0771  12.5996  12.5997  13.5691  13.5691  13.6429  13.6429
    13.7691  13.7692  14.3194  14.3195  15.1688  15.1688  17.6767  17.6768
    24.4376  24.4377  26.3776  26.3778  28.8135  28.8136  29.6269  29.6270
    33.0199  33.0200  36.8173  36.8176  40.3623  40.3624  42.9944  42.9944
    43.2337  43.2338  46.6772  46.6775  48.0051  48.0053  50.3738  50.3740
    51.8811  51.8813  53.4763  53.4764

          k = 0.0000-0.1427-0.1427 (  1740 PWs)   bands (ev):

    10.4415  10.4415  10.4415  10.4416  12.0563  12.0564  12.0564  12.0565
    12.2968  12.2968  12.2968  12.2969  13.4263  13.4263  13.4263  13.4264
    13.9517  13.9518  13.9518  13.9518  16.1148  16.1148  16.1148  16.1148
    26.4017  26.4018  26.4018  26.4019  27.7011  27.7011  27.7012  27.7013
    37.9661  37.9661  37.9662  37.9662  38.4647  38.4648  38.4648  38.4649
    47.0573  47.0574  47.0574  47.0575  49.1783  49.1784  49.1784  49.1786
    51.9182  51.9182  51.9183  51.9183

          k = 0.0476 0.0476 0.0476 (  1791 PWs)   bands (ev):

     6.4489  10.5505  10.5505  10.5505  11.2104  11.2104  11.2104  12.5560
    13.0084  13.0084  13.3977  13.3977  13.3977  13.8664  13.8664  14.1583
    14.1583  14.1583  14.8193  14.8193  14.8193  17.3703  17.3703  17.3703
    25.4561  25.4561  25.4561  26.7638  26.7638  26.7638  31.1918  31.1919
    31.1919  33.5475  36.2600  36.2601  36.2601  39.0961  41.1891  41.1891
    42.8935  42.8936  42.8936  46.5037  47.6039  47.6039  51.8079  51.8079
    55.1800  55.1801  55.1801  55.4445

          k = 0.0476 0.0476 0.0952 (  1762 PWs)   bands (ev):

     7.4461  10.1642  11.0101  11.0101  11.4518  11.4518  11.5077  12.3088
    12.6771  12.6771  12.8424  13.0399  13.1300  13.7713  13.8056  13.8682
    13.8682  14.1419  14.7072  14.7370  14.7370  15.4277  18.6984  18.6984
    22.9159  22.9159  26.7624  27.3909  27.3909  30.4318  30.4319  30.8580
    31.0338  32.6960  36.7186  37.6812  37.9264  38.8195  38.8196  42.3668
    43.5819  44.4856  47.0632  47.0632  47.9231  49.0276  50.1877  50.1877
    50.7013  52.9449  53.0363  55.7706

          k = 0.0476 0.0476-0.1427 (  1752 PWs)   bands (ev):

     8.8880   8.8881  11.4378  11.4378  11.5051  11.5051  11.9179  11.9180
    12.2948  12.2948  12.8225  12.8226  13.3934  13.3935  13.6774  13.6774
    14.2937  14.2938  14.4568  14.4568  14.6893  14.6893  19.7776  19.7776
    21.4484  21.4485  28.3211  28.3211  28.5869  28.5869  29.0404  29.0405
    35.0064  35.0065  35.3875  35.3878  38.1706  38.1708  42.1842  42.1842
    44.8412  44.8414  45.3573  45.3573  49.3996  49.3998  50.8521  50.8521
    52.2168  52.2169  53.8595  53.8595

          k = 0.0476 0.0952 0.0952 (  1759 PWs)   bands (ev):

     8.3319  10.6121  10.6121  11.1239  11.6178  11.7587  11.7587  12.2849
    12.4908  12.4908  12.6158  12.9294  13.0788  13.5323  13.5323  13.5345
    13.8954  14.4560  14.6047  14.6047  14.6215  16.3654  16.3655  18.8980
    21.1461  24.1194  24.1194  28.1045  28.1794  31.1969  31.1969  32.2117
    32.2118  34.0704  35.2658  36.9329  39.3381  39.3381  40.0768  43.1495
    43.7262  44.7287  46.4556  46.4556  49.2454  49.2454  50.3478  50.5777
    50.8994  51.6890  52.3652  52.8517

          k = 0.0476 0.0952-0.1427 (  1754 PWs)   bands (ev):

     9.5527   9.5527  10.9756  10.9756  11.8785  11.8785  12.1184  12.1185
    12.4713  12.4714  12.6587  12.6588  13.2080  13.2080  13.3891  13.3892
    14.2145  14.2145  14.5127  14.5127  15.0620  15.0621  17.6007  17.6007
    22.1181  22.1182  25.8630  25.8631  29.5349  29.5350  33.0951  33.0952
    33.3209  33.3210  36.9165  36.9168  40.1204  40.1205  40.4672  40.4673
    45.1788  45.1789  45.6752  45.6753  47.6834  47.6835  50.6095  50.6096
    51.7286  51.7287  53.9789  53.9825

          k = 0.0476-0.1427-0.1427 (  1752 PWs)   bands (ev):

    10.3295  10.3295  10.3295  10.3296  12.2857  12.2857  12.2857  12.2857
    12.5055  12.5056  12.5056  12.5056  13.1525  13.1525  13.1525  13.1526
    14.2438  14.2438  14.2438  14.2439  15.9894  15.9895  15.9895  15.9895
    23.7094  23.7095  23.7095  23.7095  31.0547  31.0547  31.0548  31.0548
    38.2446  38.2447  38.2447  38.2447  38.2931  38.2933  38.2933  38.2934
    46.5860  46.5860  46.5861  46.5861  46.7825  46.7826  46.7826  46.7827
    54.8729  54.8730  54.8731  55.0855

          k = 0.0952 0.0952 0.0952 (  1757 PWs)   bands (ev):

     8.9970  10.5642  10.5642  10.5642  12.0742  12.0742  12.0742  12.5519
    12.7696  12.7696  12.7696  12.8965  12.8965  13.1698  13.1698  13.1698
    14.3358  14.3358  14.7473  14.7473  14.7473  16.6169  16.6169  16.6169
    21.7481  21.7481  21.7481  25.3749  32.5454  32.5454  32.5454  35.3045
    35.3046  35.3046  37.2855  37.2856  37.2856  37.6199  40.0367  40.0367
    44.4537  44.4537  47.7876  48.0132  48.0133  48.0133  48.1405  48.1405
    48.1405  52.4788  52.4788  52.4788

          k = 0.0952 0.0952-0.1427 (  1748 PWs)   bands (ev):

     9.8223   9.8223  10.5240  10.5240  12.2667  12.2667  12.5802  12.5802
    12.8274  12.8275  12.9304  12.9304  12.9730  12.9731  13.0373  13.0373
    14.6491  14.6491  14.6765  14.6765  14.8748  14.8748  16.8062  16.8062
    20.8176  20.8177  23.2567  23.2568  33.4225  33.4225  34.7124  34.7124
    36.2208  36.2210  37.3178  37.3178  39.0740  39.0741  39.4133  39.4133
    44.6782  44.6783  44.8797  44.8798  46.0245  46.0246  48.5099  48.5100
    49.6585  49.6585  53.0864  53.0864

          k = 0.0952-0.1427-0.1427 (  1764 PWs)   bands (ev):

    10.1363  10.1363  10.1363  10.1363  12.6140  12.6140  12.6140  12.6140
    12.8466  12.8466  12.8466  12.8466  13.2604  13.2605  13.2605  13.2605
    14.5863  14.5863  14.5863  14.5864  15.4987  15.4987  15.4987  15.4987
    21.4867  21.4868  21.4868  21.4868  35.1283  35.1284  35.1284  35.1285
    38.1874  38.1874  38.1875  38.1875  39.0083  39.0083  39.0084  39.0084
    44.1255  44.1255  44.1255  44.1256  45.1493  45.1493  45.1493  45.1494
    50.5098  50.5098  50.5098  50.5098

          k =-0.1427-0.1427-0.1427 (  1736 PWs)   bands (ev):

    10.0510  10.0510  10.0510  10.0510  12.7322  12.7322  12.7322  12.7322
    12.7322  12.7322  12.7322  12.7322  14.1927  14.1927  14.1928  14.1928
    14.7190  14.7190  14.7190  14.7190  14.7190  14.7190  14.7191  14.7191
    20.6952  20.6952  20.6952  20.6952  36.7654  36.7656  36.7656  36.7657
    39.6455  39.6455  39.6455  39.6456  39.6456  39.6456  39.6456  39.6456
    42.8330  42.8330  42.8331  42.8331  42.8331  42.8331  42.8332  42.8332
    48.8873  48.8873  48.8873  48.8873

          k =-0.0476-0.0000 0.0476 (  1773 PWs)   bands (ev):

     6.1003  10.3627  10.3627  10.5524  11.1087  11.1192  11.1192  12.6109
    12.9834  12.9878  13.6976  13.7390  13.7390  13.7509  13.9539  14.3512
    14.4773  14.4774  14.7482  14.7482  14.8189  16.7167  16.7167  18.9649
    24.1578  25.2275  26.4341  26.4341  28.3757  28.3758  28.9765  28.9765
    30.6657  36.1093  36.1379  37.0964  37.0965  37.3487  40.2322  40.2323
    41.1888  42.6896  43.4987  45.1739  46.4229  49.9446  50.3793  53.2644
    53.6333  55.3103  55.3104  56.2423

          k =-0.0476-0.0000 0.0952 (  1759 PWs)   bands (ev):

     7.1299   9.9655  10.8789  10.9972  11.3921  11.4248  11.4662  12.2985
    12.6756  12.8448  13.0384  13.0787  13.2589  13.5798  14.0017  14.0873
    14.1572  14.2435  14.2728  14.7453  14.7545  15.1447  18.3549  20.7860
    22.2784  24.8353  25.6546  26.6670  27.5251  29.7145  29.9631  30.0245
    31.1114  33.8006  34.5081  37.7200  38.6685  40.3402  40.5150  40.8661
    41.1170  44.1204  45.2348  47.1231  47.7064  48.5693  49.8760  51.2590
    52.8942  53.1689  55.0360  56.4534

          k =-0.0952-0.0000 0.0952 (  1746 PWs)   bands (ev):

     8.0799  10.6036  10.6036  11.3607  11.4429  11.6807  11.6807  12.2005
    12.3469  12.3469  12.5206  12.9179  13.4030  13.4762  13.7744  13.9133
    13.9134  14.2769  14.2769  14.4668  14.5437  16.2866  16.2867  19.6069
    22.3277  25.3564  26.9426  26.9427  27.9961  27.9962  31.1146  31.7284
    31.7284  31.8028  33.6553  36.8725  41.4625  41.8611  41.8612  43.1088
    43.2936  43.8125  43.8126  47.3087  47.3581  48.5188  48.5188  51.7318
    52.0665  52.1309  53.4025  55.2521

          k = 0.0476-0.0476 0.0476 (  1791 PWs)   bands (ev):

     6.4489  10.5505  10.5505  10.5506  11.2104  11.2104  11.2104  12.5560
    13.0084  13.0084  13.3977  13.3977  13.3977  13.8663  13.8663  14.1583
    14.1583  14.1583  14.8193  14.8193  14.8193  17.3703  17.3703  17.3703
    25.4561  25.4561  25.4561  26.7638  26.7638  26.7638  31.1918  31.1918
    31.1919  33.5476  36.2600  36.2601  36.2601  39.0961  41.1890  41.1891
    42.8936  42.8937  42.8937  46.5037  47.6039  47.6040  51.8079  51.8079
    55.1800  55.1801  55.1801  55.4445

          k = 0.0476-0.0476 0.0952 (  1762 PWs)   bands (ev):

     7.4461  10.1642  11.0101  11.0101  11.4518  11.4518  11.5077  12.3088
    12.6770  12.6771  12.8424  13.0399  13.1300  13.7713  13.8056  13.8682
    13.8682  14.1419  14.7072  14.7370  14.7370  15.4277  18.6984  18.6984
    22.9159  22.9159  26.7624  27.3909  27.3909  30.4318  30.4319  30.8580
    31.0338  32.6960  36.7186  37.6812  37.9263  38.8195  38.8196  42.3668
    43.5819  44.4856  47.0632  47.0633  47.9231  49.0275  50.1877  50.1877
    50.7013  52.9449  53.0363  55.7706

          k =-0.0952 0.0476 0.0476 (  1762 PWs)   bands (ev):

     7.4461  10.1642  11.0101  11.0101  11.4518  11.4518  11.5077  12.3088
    12.6770  12.6770  12.8424  13.0399  13.1300  13.7713  13.8056  13.8682
    13.8682  14.1419  14.7072  14.7370  14.7370  15.4277  18.6984  18.6984
    22.9159  22.9159  26.7624  27.3909  27.3909  30.4318  30.4318  30.8580
    31.0338  32.6960  36.7186  37.6812  37.9263  38.8195  38.8195  42.3668
    43.5819  44.4855  47.0632  47.0633  47.9230  49.0276  50.1877  50.1877
    50.7013  52.9449  53.0364  55.7706

          k = 0.0476-0.0476-0.1427 (  1752 PWs)   bands (ev):

     8.8880   8.8881  11.4378  11.4378  11.5051  11.5051  11.9179  11.9180
    12.2948  12.2948  12.8225  12.8226  13.3934  13.3935  13.6774  13.6774
    14.2937  14.2938  14.4568  14.4568  14.6893  14.6893  19.7776  19.7776
    21.4484  21.4485  28.3211  28.3212  28.5869  28.5870  29.0404  29.0405
    35.0064  35.0065  35.3875  35.3878  38.1706  38.1708  42.1842  42.1843
    44.8413  44.8415  45.3572  45.3573  49.3997  49.3998  50.8521  50.8521
    52.2168  52.2169  53.8595  53.8595

          k = 0.0952-0.0476 0.0952 (  1759 PWs)   bands (ev):

     8.3319  10.6121  10.6121  11.1239  11.6178  11.7587  11.7587  12.2849
    12.4908  12.4908  12.6158  12.9294  13.0788  13.5323  13.5323  13.5345
    13.8954  14.4560  14.6047  14.6047  14.6215  16.3654  16.3655  18.8980
    21.1460  24.1194  24.1194  28.1045  28.1794  31.1969  31.1969  32.2117
    32.2118  34.0704  35.2657  36.9329  39.3381  39.3381  40.0768  43.1494
    43.7262  44.7287  46.4556  46.4557  49.2454  49.2454  50.3478  50.5778
    50.8994  51.6890  52.3652  52.8518

          k =-0.0952 0.0476 0.0952 (  1759 PWs)   bands (ev):

     8.3319  10.6121  10.6121  11.1239  11.6178  11.7587  11.7587  12.2849
    12.4908  12.4908  12.6158  12.9294  13.0788  13.5323  13.5323  13.5345
    13.8954  14.4560  14.6047  14.6047  14.6215  16.3654  16.3655  18.8981
    21.1461  24.1193  24.1194  28.1045  28.1794  31.1969  31.1969  32.2117
    32.2118  34.0704  35.2658  36.9329  39.3381  39.3381  40.0767  43.1494
    43.7261  44.7287  46.4557  46.4557  49.2454  49.2455  50.3478  50.5777
    50.8994  51.6890  52.3653  52.8518

          k = 0.0952-0.0476-0.1427 (  1754 PWs)   bands (ev):

     9.5527   9.5527  10.9756  10.9756  11.8785  11.8785  12.1184  12.1185
    12.4713  12.4714  12.6587  12.6588  13.2080  13.2080  13.3891  13.3892
    14.2145  14.2145  14.5127  14.5127  15.0620  15.0620  17.6007  17.6007
    22.1181  22.1182  25.8630  25.8631  29.5349  29.5350  33.0950  33.0951
    33.3209  33.3210  36.9165  36.9168  40.1204  40.1205  40.4672  40.4672
    45.1788  45.1789  45.6752  45.6753  47.6834  47.6835  50.6095  50.6096
    51.7287  51.7287  53.9789  53.9824

          k = 0.0952-0.0952 0.0952 (  1757 PWs)   bands (ev):

     8.9970  10.5642  10.5642  10.5642  12.0742  12.0742  12.0742  12.5519
    12.7696  12.7696  12.7696  12.8965  12.8966  13.1698  13.1698  13.1698
    14.3358  14.3358  14.7473  14.7473  14.7473  16.6169  16.6169  16.6169
    21.7481  21.7481  21.7482  25.3750  32.5454  32.5454  32.5455  35.3045
    35.3045  35.3046  37.2855  37.2855  37.2856  37.6198  40.0366  40.0367
    44.4536  44.4537  47.7876  48.0133  48.0133  48.0134  48.1404  48.1405
    48.1405  52.4789  52.4789  52.4789

          k = 0.0952-0.0952-0.1427 (  1748 PWs)   bands (ev):

     9.8223   9.8223  10.5240  10.5240  12.2667  12.2667  12.5802  12.5802
    12.8275  12.8275  12.9304  12.9304  12.9730  12.9730  13.0373  13.0373
    14.6491  14.6491  14.6765  14.6765  14.8748  14.8748  16.8062  16.8062
    20.8176  20.8176  23.2567  23.2568  33.4225  33.4226  34.7124  34.7125
    36.2208  36.2210  37.3177  37.3178  39.0739  39.0741  39.4133  39.4134
    44.6782  44.6783  44.8797  44.8798  46.0245  46.0245  48.5100  48.5100
    49.6585  49.6585  53.0865  53.0865

     the Fermi energy is    14.4921 ev

!    total energy              =    -343.63027680 Ry
     Harris-Foulkes estimate   =    -343.63027680 Ry
     estimated scf accuracy    <          7.2E-12 Ry

     The total energy is the sum of the following terms:

     one-electron contribution =      -6.38651972 Ry
     hartree contribution      =      60.35009010 Ry
     xc contribution           =    -120.51416371 Ry
     ewald contribution        =    -277.03126844 Ry
     Dispersion Correction     =      -0.04784177 Ry
     smearing contrib. (-TS)   =      -0.00057326 Ry

     total magnetization       =     2.84 Bohr mag/cell
     absolute magnetization    =     3.25 Bohr mag/cell

     convergence has been achieved in  12 iterations

     Forces acting on atoms (Ry/au):

     atom    1 type  1   force =    -0.00000113   -0.00000113    0.00000095
     atom    2 type  1   force =     0.00000131    0.00000131    0.00000131
     atom    3 type  1   force =    -0.00000113    0.00000095   -0.00000113
     atom    4 type  1   force =     0.00000095   -0.00000113   -0.00000113

     Total force =     0.000004     Total SCF correction =     0.000000


     entering subroutine stress ...

          total   stress  (Ry/bohr**3)                   (kbar)     P=   -0.01
  -0.00000004  -0.00000006  -0.00000006         -0.01     -0.01     -0.01
  -0.00000006  -0.00000004  -0.00000006         -0.01     -0.01     -0.01
  -0.00000006  -0.00000006  -0.00000004         -0.01     -0.01     -0.01


     bfgs converged in   5 scf cycles and   4 bfgs steps
     (criteria: energy <  1.0E-04, force <  1.0E-03, cell <  5.0E-01)

     End of BFGS Geometry Optimization

     Final enthalpy =    -343.6302767977 Ry
Begin final coordinates
     new unit-cell volume =    290.11650 a.u.^3 (    42.99083 Ang^3 )

CELL_PARAMETERS (alat=  1.88972590)
   3.503149411   0.000002203   0.000002203
   0.000002203   3.503149411   0.000002203
   0.000002203   0.000002203   3.503149411

ATOMIC_POSITIONS (alat)
Ni1      1.755476345   1.755476345   0.003878962
Ni1      0.003875281   0.003875281   0.003875281
Ni1      1.755476345   0.003878962   1.755476345
Ni1      0.003878962   1.755476345   1.755476345
End final coordinates



     A final scf calculation at the relaxed structure.
     The G-vectors are recalculated for the final unit cell
     Results may differ from those at the preceding step.

     G-vector sticks info
     --------------------
     sticks:   dense  smooth     PW     G-vecs:    dense   smooth      PW
     Sum        1389     697    221                39127    13949    2469

     Generating pointlists ...

     Title: 
     Ni-ferro-mag                                                               


     bravais-lattice index     =            0
     lattice parameter (alat)  =       1.8897  a.u.
     unit-cell volume          =     290.1165 (a.u.)^3
     number of atoms/cell      =            4
     number of atomic types    =            1
     number of electrons       =        40.00
     number of Kohn-Sham states=           52
     kinetic-energy cutoff     =      50.0000  Ry
     charge density cutoff     =     400.0000  Ry
     convergence threshold     =      1.0E-10
     mixing beta               =       0.2000
     number of iterations used =            8  plain     mixing
     Exchange-correlation      =  SLA  PW   PBE  PBE ( 1  4  3  4 0 0)

     celldm(1)=   1.889726  celldm(2)=   0.000000  celldm(3)=   0.000000
     celldm(4)=   0.000000  celldm(5)=   0.000000  celldm(6)=   0.000000

     crystal axes: (cart. coord. in units of alat)
               a(1) = (   3.503149   0.000002   0.000002 )  
               a(2) = (   0.000002   3.503149   0.000002 )  
               a(3) = (   0.000002   0.000002   3.503149 )  

     reciprocal axes: (cart. coord. in units 2 pi/alat)
               b(1) = (  0.285457 -0.000000 -0.000000 )  
               b(2) = ( -0.000000  0.285457 -0.000000 )  
               b(3) = ( -0.000000 -0.000000  0.285457 )  


     PseudoPot. # 1 for Ni read from file:
     /home/eliot/pseudo/Ni.pbe-nd-rrkjus.UPF
     MD5 check sum: 8081f0a005c9a5470caab1a58e82ecb2
     Pseudo is Ultrasoft + core correction, Zval = 10.0
     Generated by new atomic code, or converted to UPF format
     Using radial grid of 1203 points,  6 beta functions with: 
                l(1) =   0
                l(2) =   0
                l(3) =   1
                l(4) =   1
                l(5) =   2
                l(6) =   2
     Q(r) pseudized with 0 coefficients 


     atomic species   valence    mass     pseudopotential
        Ni1           10.00    58.69340     Ni( 1.00)

     Starting magnetic structure 
     atomic species   magnetization
        Ni1          0.500

      6 Sym. Ops. (no inversion) found



   Cartesian axes

     site n.     atom                  positions (alat units)
         1           Ni1 tau(   1) = (   1.7554763   1.7554763   0.0038790  )
         2           Ni1 tau(   2) = (   0.0038753   0.0038753   0.0038753  )
         3           Ni1 tau(   3) = (   1.7554763   0.0038790   1.7554763  )
         4           Ni1 tau(   4) = (   0.0038790   1.7554763   1.7554763  )

     number of k points=    32  Methfessel-Paxton smearing, width (Ry)=  0.0500
                       cart. coord. in units 2pi/alat
        k(    1) = (   0.0000000   0.0000000   0.0000000), wk =   0.0046296
        k(    2) = (  -0.0000000  -0.0000000   0.0475762), wk =   0.0277778
        k(    3) = (  -0.0000001  -0.0000001   0.0951525), wk =   0.0277778
        k(    4) = (   0.0000001   0.0000001  -0.1427287), wk =   0.0138889
        k(    5) = (  -0.0000001   0.0475762   0.0475762), wk =   0.0277778
        k(    6) = (  -0.0000001   0.0475762   0.0951524), wk =   0.0555556
        k(    7) = (   0.0000001   0.0475763  -0.1427287), wk =   0.0555556
        k(    8) = (  -0.0000001   0.0951524   0.0951524), wk =   0.0277778
        k(    9) = (   0.0000000   0.0951526  -0.1427288), wk =   0.0555556
        k(   10) = (   0.0000002  -0.1427286  -0.1427286), wk =   0.0138889
        k(   11) = (   0.0475762   0.0475762   0.0475762), wk =   0.0092593
        k(   12) = (   0.0475761   0.0475761   0.0951524), wk =   0.0277778
        k(   13) = (   0.0475763   0.0475763  -0.1427288), wk =   0.0277778
        k(   14) = (   0.0475761   0.0951524   0.0951524), wk =   0.0277778
        k(   15) = (   0.0475763   0.0951525  -0.1427288), wk =   0.0555556
        k(   16) = (   0.0475764  -0.1427287  -0.1427287), wk =   0.0277778
        k(   17) = (   0.0951524   0.0951524   0.0951524), wk =   0.0092593
        k(   18) = (   0.0951525   0.0951525  -0.1427288), wk =   0.0277778
        k(   19) = (   0.0951527  -0.1427287  -0.1427287), wk =   0.0277778
        k(   20) = (  -0.1427285  -0.1427285  -0.1427285), wk =   0.0046296
        k(   21) = (  -0.0475763  -0.0000000   0.0475763), wk =   0.0277778
        k(   22) = (  -0.0475763  -0.0000000   0.0951525), wk =   0.0555556
        k(   23) = (  -0.0951525  -0.0000000   0.0951525), wk =   0.0277778
        k(   24) = (   0.0475762  -0.0475763   0.0475762), wk =   0.0277778
        k(   25) = (   0.0475762  -0.0475763   0.0951525), wk =   0.0555556
        k(   26) = (  -0.0951525   0.0475763   0.0475763), wk =   0.0277778
        k(   27) = (   0.0475764  -0.0475762  -0.1427287), wk =   0.0277778
        k(   28) = (   0.0951524  -0.0475764   0.0951524), wk =   0.0277778
        k(   29) = (  -0.0951526   0.0475762   0.0951525), wk =   0.0555556
        k(   30) = (   0.0951526  -0.0475762  -0.1427287), wk =   0.0555556
        k(   31) = (   0.0951525  -0.0951526   0.0951525), wk =   0.0277778
        k(   32) = (   0.0951526  -0.0951524  -0.1427287), wk =   0.0277778

     Dense  grid:    39127 G-vectors     FFT dimensions: (  45,  45,  45)

     Smooth grid:    13949 G-vectors     FFT dimensions: (  30,  30,  30)

     Largest allocated arrays     est. size (Mb)     dimensions
        Kohn-Sham Wavefunctions         1.39 Mb     (    1755,   52)
        NL pseudopotentials             1.93 Mb     (    1755,   72)
        Each V/rho on FFT grid          2.78 Mb     (   91125,   2)
        Each G-vector array             0.30 Mb     (   39127)
        G-vector shells                 0.02 Mb     (    2639)
     Largest temporary arrays     est. size (Mb)     dimensions
        Auxiliary wavefunctions         5.57 Mb     (    1755,  208)
        Each subspace H/S matrix        0.66 Mb     (     208,  208)
        Each <psi_i|beta_j> matrix      0.06 Mb     (      72,   52)
        Arrays for rho mixing          11.12 Mb     (   91125,    8)

     Check: negative/imaginary core charge=   -0.000005    0.000000

     Initial potential from superposition of free atoms

     starting charge   39.99816, renormalised to   40.00000
     Starting wfc are   24 randomized atomic wfcs +   28 random wfc

     Writing output data file Ni-ferromag.save

     total cpu time spent up to now is     1919.1 secs

     Self-consistent Calculation

     iteration #  1     ecut=    50.00 Ry     beta=0.20
     Davidson diagonalization with overlap
     c_bands:  1 eigenvalues not converged
     c_bands:  2 eigenvalues not converged
     c_bands:  1 eigenvalues not converged
     c_bands:  1 eigenvalues not converged
     ethr =  1.00E-06,  avg # of iterations = 13.0

     total cpu time spent up to now is     2044.2 secs

     total energy              =    -342.90496530 Ry
     Harris-Foulkes estimate   =    -343.17844651 Ry
     estimated scf accuracy    <       2.41821664 Ry

     total magnetization       =     6.87 Bohr mag/cell
     absolute magnetization    =     6.88 Bohr mag/cell

     iteration #  2     ecut=    50.00 Ry     beta=0.20
     Davidson diagonalization with overlap
     ethr =  6.05E-03,  avg # of iterations =  1.0

     total cpu time spent up to now is     2070.4 secs

     total energy              =    -343.20671117 Ry
     Harris-Foulkes estimate   =    -343.03986868 Ry
     estimated scf accuracy    <       0.78014363 Ry

     total magnetization       =     5.74 Bohr mag/cell
     absolute magnetization    =     5.83 Bohr mag/cell

     iteration #  3     ecut=    50.00 Ry     beta=0.20
     Davidson diagonalization with overlap
     ethr =  1.95E-03,  avg # of iterations =  1.3

     total cpu time spent up to now is     2097.0 secs

     total energy              =    -343.53951964 Ry
     Harris-Foulkes estimate   =    -343.28061021 Ry
     estimated scf accuracy    <       0.35890772 Ry

     total magnetization       =     4.50 Bohr mag/cell
     absolute magnetization    =     4.82 Bohr mag/cell

     iteration #  4     ecut=    50.00 Ry     beta=0.20
     Davidson diagonalization with overlap
     ethr =  8.97E-04,  avg # of iterations =  1.3

     total cpu time spent up to now is     2123.5 secs

     total energy              =    -343.62408734 Ry
     Harris-Foulkes estimate   =    -343.65327385 Ry
     estimated scf accuracy    <       0.11950947 Ry

     total magnetization       =     2.58 Bohr mag/cell
     absolute magnetization    =     3.20 Bohr mag/cell

     iteration #  5     ecut=    50.00 Ry     beta=0.20
     Davidson diagonalization with overlap
     ethr =  2.99E-04,  avg # of iterations =  1.0

     total cpu time spent up to now is     2149.8 secs

     total energy              =    -343.62396354 Ry
     Harris-Foulkes estimate   =    -343.63100051 Ry
     estimated scf accuracy    <       0.02376239 Ry

     total magnetization       =     2.62 Bohr mag/cell
     absolute magnetization    =     3.23 Bohr mag/cell

     iteration #  6     ecut=    50.00 Ry     beta=0.20
     Davidson diagonalization with overlap
     ethr =  5.94E-05,  avg # of iterations =  2.2

     total cpu time spent up to now is     2177.4 secs

     total energy              =    -343.62663295 Ry
     Harris-Foulkes estimate   =    -343.62744532 Ry
     estimated scf accuracy    <       0.00100446 Ry

     total magnetization       =     2.69 Bohr mag/cell
     absolute magnetization    =     3.28 Bohr mag/cell

     iteration #  7     ecut=    50.00 Ry     beta=0.20
     Davidson diagonalization with overlap
     ethr =  2.51E-06,  avg # of iterations =  4.1

     total cpu time spent up to now is     2208.4 secs

     total energy              =    -343.62984743 Ry
     Harris-Foulkes estimate   =    -343.62860645 Ry
     estimated scf accuracy    <       0.00185516 Ry

     total magnetization       =     3.01 Bohr mag/cell
     absolute magnetization    =     3.48 Bohr mag/cell

     iteration #  8     ecut=    50.00 Ry     beta=0.20
     Davidson diagonalization with overlap
     ethr =  2.51E-06,  avg # of iterations =  1.0

     total cpu time spent up to now is     2234.5 secs

     total energy              =    -343.63018243 Ry
     Harris-Foulkes estimate   =    -343.63015048 Ry
     estimated scf accuracy    <       0.00014216 Ry

     total magnetization       =     2.90 Bohr mag/cell
     absolute magnetization    =     3.35 Bohr mag/cell

     iteration #  9     ecut=    50.00 Ry     beta=0.20
     Davidson diagonalization with overlap
     ethr =  3.55E-07,  avg # of iterations =  1.0

     total cpu time spent up to now is     2260.7 secs

     total energy              =    -343.63020616 Ry
     Harris-Foulkes estimate   =    -343.63018424 Ry
     estimated scf accuracy    <       0.00009943 Ry

     total magnetization       =     2.89 Bohr mag/cell
     absolute magnetization    =     3.34 Bohr mag/cell

     iteration # 10     ecut=    50.00 Ry     beta=0.20
     Davidson diagonalization with overlap
     ethr =  2.49E-07,  avg # of iterations =  1.1

     total cpu time spent up to now is     2286.9 secs

     total energy              =    -343.63028431 Ry
     Harris-Foulkes estimate   =    -343.63028354 Ry
     estimated scf accuracy    <       0.00000188 Ry

     total magnetization       =     2.84 Bohr mag/cell
     absolute magnetization    =     3.26 Bohr mag/cell

     iteration # 11     ecut=    50.00 Ry     beta=0.20
     Davidson diagonalization with overlap
     ethr =  4.69E-09,  avg # of iterations =  1.4

     total cpu time spent up to now is     2313.5 secs

     total energy              =    -343.63028448 Ry
     Harris-Foulkes estimate   =    -343.63028454 Ry
     estimated scf accuracy    <       0.00000054 Ry

     total magnetization       =     2.84 Bohr mag/cell
     absolute magnetization    =     3.26 Bohr mag/cell

     iteration # 12     ecut=    50.00 Ry     beta=0.20
     Davidson diagonalization with overlap
     ethr =  1.34E-09,  avg # of iterations =  1.0

     total cpu time spent up to now is     2339.7 secs

     total energy              =    -343.63028474 Ry
     Harris-Foulkes estimate   =    -343.63028462 Ry
     estimated scf accuracy    <       0.00000083 Ry

     total magnetization       =     2.84 Bohr mag/cell
     absolute magnetization    =     3.26 Bohr mag/cell

     iteration # 13     ecut=    50.00 Ry     beta=0.20
     Davidson diagonalization with overlap
     ethr =  1.34E-09,  avg # of iterations =  2.0

     total cpu time spent up to now is     2367.7 secs

     total energy              =    -343.63028570 Ry
     Harris-Foulkes estimate   =    -343.63028572 Ry
     estimated scf accuracy    <          8.2E-09 Ry

     total magnetization       =     2.84 Bohr mag/cell
     absolute magnetization    =     3.25 Bohr mag/cell

     iteration # 14     ecut=    50.00 Ry     beta=0.20
     Davidson diagonalization with overlap
     ethr =  2.05E-11,  avg # of iterations =  2.0

     total cpu time spent up to now is     2399.7 secs

     total energy              =    -343.63028592 Ry
     Harris-Foulkes estimate   =    -343.63028578 Ry
     estimated scf accuracy    <       0.00000008 Ry

     total magnetization       =     2.83 Bohr mag/cell
     absolute magnetization    =     3.25 Bohr mag/cell

     iteration # 15     ecut=    50.00 Ry     beta=0.20
     Davidson diagonalization with overlap
     ethr =  2.05E-11,  avg # of iterations =  2.1

     total cpu time spent up to now is     2431.8 secs

     total energy              =    -343.63028609 Ry
     Harris-Foulkes estimate   =    -343.63028602 Ry
     estimated scf accuracy    <          2.9E-10 Ry

     total magnetization       =     2.84 Bohr mag/cell
     absolute magnetization    =     3.25 Bohr mag/cell

     iteration # 16     ecut=    50.00 Ry     beta=0.20
     Davidson diagonalization with overlap
     ethr =  7.27E-13,  avg # of iterations =  2.1

     total cpu time spent up to now is     2463.1 secs

     total energy              =    -343.63028614 Ry
     Harris-Foulkes estimate   =    -343.63028610 Ry
     estimated scf accuracy    <          2.1E-09 Ry

     total magnetization       =     2.84 Bohr mag/cell
     absolute magnetization    =     3.25 Bohr mag/cell

     iteration # 17     ecut=    50.00 Ry     beta=0.20
     Davidson diagonalization with overlap
     ethr =  7.27E-13,  avg # of iterations =  2.0

     Magnetic moment per site:
     atom:    1    charge:    3.0536    magn:    0.3402    constr:    0.0000
     atom:    2    charge:    3.0515    magn:    0.3400    constr:    0.0000
     atom:    3    charge:    3.0536    magn:    0.3402    constr:    0.0000
     atom:    4    charge:    3.0536    magn:    0.3402    constr:    0.0000

     total cpu time spent up to now is     2493.7 secs

     End of self-consistent calculation

 ------ SPIN UP ------------


          k = 0.0000 0.0000 0.0000 (  1743 PWs)   bands (ev):

     5.4302   9.7140   9.7140   9.7140  10.1671  10.1671  10.1671  11.9460
    11.9460  11.9460  13.1247  13.1247  13.8424  13.8424  13.8424  13.9324
    13.9324  13.9324  13.9324  13.9324  13.9324  17.0709  17.0709  17.0709
    23.8088  23.8089  23.8089  29.5667  29.5667  29.5667  29.5668  29.5668
    29.5668  34.6446  34.6446  34.6446  37.9894  37.9895  37.9895  38.4944
    42.4703  42.4704  42.4704  46.0698  46.0699  46.0699  48.1726  55.1659
    55.1660  55.1660  57.6116  59.0321

          k =-0.0000-0.0000 0.0476 (  1755 PWs)   bands (ev):

     5.7964   9.7361   9.8982   9.8982  10.2776  10.2935  10.2935  11.8173
    12.0483  12.0483  13.0068  13.1714  13.2784  13.2784  13.6890  13.6890
    13.7564  13.7564  13.7929  13.9326  13.9326  15.4700  18.0295  18.0295
    23.9048  23.9048  26.0581  27.8150  27.8150  28.4432  28.4432  30.1269
    30.1270  34.7607  36.8175  36.8175  37.8588  38.1213  39.9468  39.9469
    40.2487  40.2487  40.9152  47.4890  48.1259  48.1259  49.1474  51.5564
    56.2618  56.2619  56.6719  56.6719

          k =-0.0000-0.0000 0.0952 (  1739 PWs)   bands (ev):

     6.8457   9.5068  10.3351  10.3351  10.5853  10.6766  10.6766  11.4732
    12.2227  12.2227  12.3449  12.3450  12.7189  13.3000  13.3059  13.3105
    13.3105  13.3177  13.3177  13.6587  13.9332  13.9332  19.9919  19.9919
    24.2221  24.2222  25.0416  25.0416  26.6751  26.6751  30.3579  31.7062
    31.7062  35.1239  36.7262  37.0280  37.0280  38.3479  38.6732  40.8617
    40.8617  44.1108  44.1109  44.1430  50.9246  51.0462  51.0463  51.0491
    51.0491  55.0341  55.9378  55.9379

          k = 0.0000 0.0000-0.1427 (  1750 PWs)   bands (ev):

     8.3449   8.3450  10.6112  10.6112  11.0201  11.0202  11.3231  11.3231
    11.3232  11.3232  12.5418  12.5419  12.7970  12.7970  12.7970  12.7970
    13.0620  13.0620  13.4779  13.4780  13.9334  13.9334  22.3773  22.3773
    22.3774  22.3774  24.5953  24.5953  25.7296  25.7296  34.0840  34.0840
    34.0841  34.0841  34.9076  34.9079  35.7716  35.7717  40.2666  40.2670
    45.6624  45.6624  45.6628  45.6628  47.6165  47.6165  52.2886  52.2887
    54.1738  54.1739  54.1742  54.1742

          k =-0.0000 0.0476 0.0476 (  1749 PWs)   bands (ev):

     6.1540   9.9344   9.9344  10.0613  10.3950  10.3950  10.4089  11.7573
    12.0933  12.1104  12.9324  12.9822  12.9907  12.9907  13.1666  13.5603
    13.6849  13.6849  13.7551  13.7551  13.8166  16.4021  16.4021  18.7992
    23.8990  25.0978  26.2454  26.2454  28.2927  28.2928  28.9354  28.9355
    30.6547  36.0339  36.1176  37.0258  37.0258  37.3312  40.1144  40.1144
    41.2696  42.6022  43.5296  45.2304  46.3623  49.7859  50.4539  53.0921
    53.6676  55.3483  55.3483  56.3020

          k =-0.0000 0.0476 0.0952 (  1742 PWs)   bands (ev):

     7.1755   9.7428  10.4164  10.4650  10.6767  10.7300  10.7491  11.4763
    11.9841  12.1238  12.2392  12.3566  12.3820  12.8152  13.2365  13.3151
    13.3219  13.3456  13.4980  13.7518  13.7578  14.4354  18.0163  20.5819
    22.0798  24.6073  25.5029  26.5321  27.3998  29.6060  29.9014  29.9540
    31.0140  33.7224  34.4656  37.6781  38.6307  40.3886  40.5674  40.7463
    41.1174  44.0382  45.0303  47.0566  47.7840  48.5869  49.8918  51.3337
    52.9386  53.2595  54.8162  56.2010

          k = 0.0000 0.0476-0.1427 (  1728 PWs)   bands (ev):

     8.6264   8.6265  10.7637  10.7637  11.0719  11.0720  11.1908  11.1909
    11.3376  11.3377  12.1684  12.1685  12.7978  12.7979  13.0272  13.0272
    13.0470  13.0470  13.6614  13.6614  13.7494  13.7494  19.8847  19.8848
    22.8765  22.8767  25.4108  25.4110  28.3081  28.3082  31.4957  31.4958
    32.0192  32.0193  35.8275  35.8278  38.8271  38.8271  42.2109  42.2112
    43.1131  43.1132  45.9386  45.9389  50.0804  50.0807  50.3533  50.3535
    52.6115  52.6116  53.2017  53.2018

          k =-0.0000 0.0952 0.0952 (  1734 PWs)   bands (ev):

     8.1020  10.3303  10.3303  10.6963  10.9448  10.9448  10.9586  11.4064
    11.6535  11.6535  11.8082  12.1265  12.4874  12.7290  13.0206  13.1758
    13.1758  13.3158  13.3158  13.4858  13.7011  15.6813  15.6813  19.2993
    22.1084  25.1580  26.7758  26.7758  27.8950  27.8950  30.9836  31.6395
    31.6395  31.7352  33.6028  36.8369  41.5260  41.8792  41.8792  43.0741
    43.4109  43.7700  43.7701  47.1875  47.3289  48.4739  48.4739  51.6723
    52.1762  52.1896  53.1992  55.3493

          k = 0.0000 0.0952-0.1427 (  1714 PWs)   bands (ev):

     9.3690   9.3690  10.8011  10.8012  11.1990  11.1991  11.2066  11.2066
    11.3563  11.3564  11.8626  11.8626  12.8345  12.8345  12.8352  12.8353
    12.9013  12.9013  13.3507  13.3508  14.3625  14.3626  17.2125  17.2126
    24.2324  24.2325  26.2259  26.2260  28.6513  28.6513  29.5368  29.5369
    32.9481  32.9482  36.7897  36.7900  40.3634  40.3635  43.0486  43.0487
    43.2154  43.2154  46.7390  46.7392  47.9229  47.9231  50.4266  50.4268
    51.7603  51.7606  53.5617  53.5618

          k = 0.0000-0.1427-0.1427 (  1740 PWs)   bands (ev):

    10.2220  10.2221  10.2221  10.2221  11.3182  11.3183  11.3183  11.3184
    11.6274  11.6274  11.6274  11.6275  12.6884  12.6884  12.6885  12.6885
    13.0024  13.0024  13.0025  13.0025  15.4327  15.4327  15.4328  15.4328
    26.2066  26.2067  26.2067  26.2068  27.5775  27.5776  27.5776  27.5777
    37.8918  37.8919  37.8919  37.8920  38.4986  38.4987  38.4987  38.4988
    47.1773  47.1773  47.1773  47.1773  49.1890  49.1891  49.1892  49.1893
    51.8170  51.8170  51.8171  51.8171

          k = 0.0476 0.0476 0.0476 (  1743 PWs)   bands (ev):

     6.4997  10.0953  10.0953  10.0953  10.5095  10.5095  10.5095  11.7224
    12.1300  12.1300  12.6868  12.6868  12.6868  13.0798  13.0798  13.3269
    13.3269  13.3269  13.8707  13.8707  13.8707  17.0292  17.0292  17.0292
    25.3246  25.3246  25.3246  26.5905  26.5905  26.5905  31.1700  31.1700
    31.1700  33.4810  36.1651  36.1652  36.1652  39.2515  41.1366  41.1366
    42.8095  42.8096  42.8096  46.5911  47.6468  47.6468  51.6415  51.6415
    55.1074  55.2268  55.2268  55.2268

          k = 0.0476 0.0476 0.0952 (  1746 PWs)   bands (ev):

     7.4811   9.9015  10.4784  10.4784  10.7951  10.8232  10.8233  11.5130
    11.9745  11.9745  12.1698  12.2092  12.2694  12.9248  12.9955  13.0811
    13.0811  13.3193  13.7735  13.7735  13.8057  14.7972  18.3714  18.3714
    22.7056  22.7056  26.6182  27.2418  27.2418  30.3569  30.3569  30.7438
    30.9463  32.6495  36.6441  37.7753  37.8492  38.7892  38.7892  42.3593
    43.5016  44.4681  47.0190  47.0190  47.8811  49.0818  50.1988  50.1989
    50.6943  53.0154  53.0762  55.6557

          k = 0.0476 0.0476-0.1427 (  1734 PWs)   bands (ev):

     8.8534   8.8535  10.8656  10.8656  10.9236  10.9236  11.1668  11.1669
    11.5806  11.5806  12.0726  12.0727  12.5426  12.5426  12.9135  12.9135
    13.4888  13.4889  13.5954  13.5954  13.7174  13.7174  19.5202  19.5202
    21.1445  21.1445  28.2062  28.2062  28.4449  28.4450  28.9257  28.9257
    34.9370  34.9371  35.4143  35.4145  38.0934  38.0936  42.2029  42.2029
    44.7543  44.7545  45.3684  45.3684  49.4791  49.4793  50.8978  50.8978
    52.1834  52.1834  54.0150  54.0151

          k = 0.0476 0.0952 0.0952 (  1727 PWs)   bands (ev):

     8.3199  10.2193  10.2193  10.5054  11.1106  11.1566  11.1566  11.5580
    11.7706  11.7706  11.9038  12.1285  12.2544  12.7327  12.7327  12.7491
    13.0518  13.6068  13.6761  13.6913  13.6913  15.8120  15.8120  18.6233
    20.8022  23.9023  23.9023  27.9426  28.0517  31.1331  31.1331  32.1191
    32.1191  34.0158  35.2403  36.9077  39.3233  39.3233  40.1531  43.0358
    43.7346  44.7830  46.4616  46.4616  49.1907  49.1907  50.4162  50.5942
    50.9231  51.6165  52.2996  52.9247

          k = 0.0476 0.0952-0.1427 (  1728 PWs)   bands (ev):

     9.4032   9.4032  10.4405  10.4405  11.3241  11.3241  11.4722  11.4723
    11.7775  11.7775  11.8982  11.8982  12.4037  12.4037  12.6144  12.6145
    13.3490  13.3491  13.5766  13.5766  14.2688  14.2689  17.1896  17.1896
    21.8179  21.8180  25.6629  25.6630  29.4343  29.4344  33.0383  33.0384
    33.2519  33.2520  36.9035  36.9037  40.1362  40.1362  40.4446  40.4447
    45.1916  45.1917  45.6835  45.6836  47.7025  47.7026  50.5713  50.5714
    51.7892  51.7892  53.9018  53.9019

          k = 0.0476-0.1427-0.1427 (  1724 PWs)   bands (ev):

     9.9726   9.9726   9.9726   9.9726  11.7152  11.7152  11.7152  11.7152
    11.8022  11.8023  11.8023  11.8023  12.3751  12.3752  12.3752  12.3752
    13.3316  13.3316  13.3316  13.3317  15.3436  15.3437  15.3437  15.3437
    23.4517  23.4517  23.4517  23.4518  30.9720  30.9720  30.9720  30.9721
    38.1723  38.1723  38.1724  38.1724  38.3423  38.3424  38.3424  38.3425
    46.6543  46.6543  46.6543  46.6544  46.7569  46.7569  46.7570  46.7571
    54.8086  54.8087  54.8087  54.8088

          k = 0.0952 0.0952 0.0952 (  1721 PWs)   bands (ev):

     8.8638  10.0543  10.0543  10.0543  11.5151  11.5151  11.5151  12.0290
    12.0899  12.0899  12.0899  12.0953  12.0953  12.3786  12.3786  12.3786
    13.4547  13.4547  13.8195  13.8195  13.8195  16.1903  16.1903  16.1903
    21.4095  21.4095  21.4095  25.1495  32.4989  32.4990  32.4990  35.2431
    35.2431  35.2431  37.2728  37.2729  37.2729  37.7908  39.9506  39.9506
    44.4446  44.4446  47.7724  48.0649  48.0649  48.0649  48.1391  48.1391
    48.1391  52.4476  52.4476  52.4476

          k = 0.0952 0.0952-0.1427 (  1726 PWs)   bands (ev):

     9.4899   9.4899   9.9858   9.9858  11.6349  11.6349  11.9214  11.9214
    12.1381  12.1381  12.2584  12.2584  12.2731  12.2731  12.3731  12.3731
    13.7400  13.7400  13.7479  13.7479  14.1589  14.1589  16.4745  16.4746
    20.3805  20.3805  22.9672  22.9673  33.4146  33.4147  34.6263  34.6264
    36.3295  36.3296  37.2454  37.2454  38.9937  38.9938  39.4387  39.4387
    44.6517  44.6517  44.9026  44.9027  46.0163  46.0163  48.5501  48.5501
    49.6050  49.6051  52.9774  52.9774

          k = 0.0952-0.1427-0.1427 (  1724 PWs)   bands (ev):

     9.6655   9.6655   9.6655   9.6655  11.8809  11.8809  11.8809  11.8809
    12.0706  12.0706  12.0706  12.0706  12.8200  12.8201  12.8201  12.8201
    13.6680  13.6680  13.6680  13.6680  14.9670  14.9671  14.9671  14.9671
    21.0940  21.0940  21.0940  21.0940  35.1542  35.1542  35.1543  35.1543
    38.2183  38.2184  38.2184  38.2184  38.9391  38.9391  38.9392  38.9392
    44.0936  44.0936  44.0936  44.0937  45.1566  45.1567  45.1567  45.1567
    50.4195  50.4195  50.4195  50.4196

          k =-0.1427-0.1427-0.1427 (  1736 PWs)   bands (ev):

     9.5495   9.5495   9.5495   9.5496  11.9591  11.9591  11.9591  11.9591
    11.9591  11.9591  11.9591  11.9591  13.7955  13.7955  13.7955  13.7955
    13.7955  13.7955  13.7955  13.7955  14.2919  14.2920  14.2920  14.2920
    20.2128  20.2128  20.2128  20.2129  36.9495  36.9497  36.9497  36.9497
    39.5753  39.5753  39.5754  39.5754  39.5754  39.5754  39.5754  39.5754
    42.8026  42.8026  42.8026  42.8026  42.8026  42.8027  42.8027  42.8027
    48.7733  48.7733  48.7733  48.7733

          k =-0.0476-0.0000 0.0476 (  1749 PWs)   bands (ev):

     6.1540   9.9344   9.9344  10.0613  10.3950  10.3950  10.4089  11.7573
    12.0933  12.1104  12.9324  12.9822  12.9907  12.9907  13.1666  13.5603
    13.6849  13.6849  13.7551  13.7551  13.8166  16.4021  16.4021  18.7992
    23.8990  25.0979  26.2454  26.2454  28.2927  28.2927  28.9354  28.9355
    30.6546  36.0338  36.1176  37.0258  37.0258  37.3312  40.1144  40.1144
    41.2696  42.6023  43.5295  45.2304  46.3623  49.7859  50.4539  53.0921
    53.6676  55.3484  55.3484  56.3020

          k =-0.0476-0.0000 0.0952 (  1742 PWs)   bands (ev):

     7.1755   9.7428  10.4164  10.4650  10.6767  10.7300  10.7491  11.4763
    11.9841  12.1238  12.2392  12.3566  12.3820  12.8151  13.2365  13.3151
    13.3219  13.3456  13.4980  13.7518  13.7578  14.4354  18.0163  20.5819
    22.0799  24.6073  25.5029  26.5321  27.3998  29.6060  29.9013  29.9539
    31.0140  33.7225  34.4656  37.6781  38.6307  40.3886  40.5674  40.7463
    41.1174  44.0382  45.0303  47.0567  47.7839  48.5868  49.8919  51.3337
    52.9386  53.2595  54.8162  57.0966

          k =-0.0952-0.0000 0.0952 (  1734 PWs)   bands (ev):

     8.1020  10.3303  10.3303  10.6963  10.9448  10.9448  10.9586  11.4064
    11.6535  11.6535  11.8082  12.1265  12.4874  12.7290  13.0206  13.1758
    13.1758  13.3158  13.3158  13.4858  13.7011  15.6813  15.6813  19.2993
    22.1084  25.1580  26.7757  26.7758  27.8950  27.8950  30.9836  31.6396
    31.6396  31.7352  33.6028  36.8368  41.5260  41.8792  41.8792  43.0740
    43.4109  43.7701  43.7701  47.1874  47.3288  48.4739  48.4739  51.6724
    52.1761  52.1896  53.1992  55.3493

          k = 0.0476-0.0476 0.0476 (  1743 PWs)   bands (ev):

     6.4997  10.0953  10.0953  10.0953  10.5095  10.5095  10.5095  11.7224
    12.1300  12.1300  12.6868  12.6868  12.6868  13.0798  13.0798  13.3269
    13.3269  13.3269  13.8707  13.8707  13.8707  17.0292  17.0292  17.0292
    25.3246  25.3246  25.3246  26.5905  26.5905  26.5905  31.1699  31.1699
    31.1700  33.4811  36.1651  36.1651  36.1652  39.2514  41.1365  41.1366
    42.8095  42.8096  42.8096  46.5911  47.6468  47.6469  51.6415  51.6415
    55.1073  55.2268  55.2268  55.2268

          k = 0.0476-0.0476 0.0952 (  1746 PWs)   bands (ev):

     7.4811   9.9015  10.4784  10.4784  10.7951  10.8232  10.8232  11.5130
    11.9745  11.9745  12.1698  12.2092  12.2694  12.9248  12.9954  13.0811
    13.0811  13.3193  13.7735  13.7735  13.8057  14.7972  18.3714  18.3714
    22.7056  22.7056  26.6182  27.2418  27.2419  30.3569  30.3569  30.7439
    30.9463  32.6495  36.6441  37.7753  37.8491  38.7892  38.7892  42.3593
    43.5017  44.4681  47.0190  47.0191  47.8811  49.0817  50.1988  50.1989
    50.6943  53.0155  53.0762  55.6556

          k =-0.0952 0.0476 0.0476 (  1746 PWs)   bands (ev):

     7.4811   9.9015  10.4784  10.4784  10.7951  10.8232  10.8232  11.5130
    11.9745  11.9745  12.1698  12.2092  12.2694  12.9248  12.9954  13.0811
    13.0811  13.3193  13.7735  13.7735  13.8057  14.7972  18.3714  18.3714
    22.7056  22.7056  26.6181  27.2418  27.2419  30.3569  30.3569  30.7439
    30.9463  32.6495  36.6441  37.7753  37.8491  38.7892  38.7892  42.3592
    43.5016  44.4680  47.0191  47.0191  47.8810  49.0818  50.1989  50.1989
    50.6943  53.0155  53.0762  55.6557

          k = 0.0476-0.0476-0.1427 (  1734 PWs)   bands (ev):

     8.8534   8.8535  10.8656  10.8656  10.9236  10.9236  11.1668  11.1669
    11.5806  11.5806  12.0726  12.0727  12.5426  12.5426  12.9135  12.9135
    13.4888  13.4889  13.5954  13.5954  13.7174  13.7174  19.5202  19.5202
    21.1444  21.1445  28.2062  28.2062  28.4450  28.4450  28.9257  28.9257
    34.9370  34.9371  35.4143  35.4145  38.0934  38.0936  42.2028  42.2029
    44.7544  44.7545  45.3684  45.3685  49.4791  49.4793  50.8977  50.8978
    52.1834  52.1834  54.0150  54.0150

          k = 0.0952-0.0476 0.0952 (  1727 PWs)   bands (ev):

     8.3199  10.2193  10.2193  10.5054  11.1106  11.1566  11.1566  11.5580
    11.7706  11.7706  11.9038  12.1285  12.2544  12.7327  12.7327  12.7491
    13.0518  13.6068  13.6761  13.6913  13.6913  15.8120  15.8120  18.6233
    20.8021  23.9023  23.9023  27.9426  28.0517  31.1331  31.1331  32.1191
    32.1192  34.0158  35.2402  36.9077  39.3232  39.3233  40.1530  43.0358
    43.7345  44.7830  46.4616  46.4616  49.1907  49.1907  50.4162  50.5942
    50.9230  51.6166  52.2996  52.9248

          k =-0.0952 0.0476 0.0952 (  1727 PWs)   bands (ev):

     8.3199  10.2193  10.2193  10.5054  11.1106  11.1566  11.1566  11.5580
    11.7705  11.7706  11.9038  12.1285  12.2544  12.7327  12.7327  12.7491
    13.0518  13.6068  13.6761  13.6913  13.6913  15.8120  15.8120  18.6233
    20.8022  23.9023  23.9023  27.9426  28.0517  31.1331  31.1331  32.1191
    32.1192  34.0157  35.2403  36.9077  39.3233  39.3233  40.1530  43.0358
    43.7345  44.7830  46.4616  46.4617  49.1907  49.1908  50.4162  50.5942
    50.9231  51.6165  52.2997  52.9248

          k = 0.0952-0.0476-0.1427 (  1728 PWs)   bands (ev):

     9.4032   9.4032  10.4405  10.4405  11.3241  11.3241  11.4722  11.4723
    11.7775  11.7775  11.8982  11.8982  12.4037  12.4037  12.6144  12.6145
    13.3490  13.3491  13.5766  13.5766  14.2688  14.2689  17.1896  17.1896
    21.8179  21.8180  25.6630  25.6630  29.4344  29.4344  33.0383  33.0383
    33.2519  33.2520  36.9035  36.9037  40.1361  40.1362  40.4446  40.4446
    45.1916  45.1917  45.6835  45.6836  47.7025  47.7026  50.5713  50.5714
    51.7892  51.7893  53.9018  53.9019

          k = 0.0952-0.0952 0.0952 (  1721 PWs)   bands (ev):

     8.8638  10.0543  10.0543  10.0543  11.5151  11.5151  11.5151  12.0290
    12.0899  12.0899  12.0899  12.0953  12.0954  12.3786  12.3786  12.3786
    13.4547  13.4547  13.8195  13.8195  13.8195  16.1903  16.1903  16.1903
    21.4095  21.4095  21.4095  25.1496  32.4990  32.4990  32.4990  35.2430
    35.2430  35.2431  37.2728  37.2728  37.2729  37.7907  39.9505  39.9505
    44.4445  44.4445  47.7724  48.0649  48.0649  48.0650  48.1391  48.1391
    48.1392  52.4476  52.4477  52.4477

          k = 0.0952-0.0952-0.1427 (  1726 PWs)   bands (ev):

     9.4899   9.4899   9.9858   9.9858  11.6349  11.6349  11.9214  11.9214
    12.1381  12.1381  12.2584  12.2584  12.2731  12.2731  12.3731  12.3731
    13.7400  13.7400  13.7479  13.7479  14.1589  14.1589  16.4745  16.4746
    20.3805  20.3805  22.9673  22.9673  33.4147  33.4147  34.6264  34.6264
    36.3295  36.3296  37.2453  37.2454  38.9936  38.9938  39.4386  39.4387
    44.6517  44.6517  44.9026  44.9027  46.0163  46.0163  48.5501  48.5501
    49.6051  49.6051  52.9774  52.9775

 ------ SPIN DOWN ----------


          k = 0.0000 0.0000 0.0000 (  1743 PWs)   bands (ev):

     5.3756  10.1761  10.1762  10.1762  10.8855  10.8855  10.8855  12.8266
    12.8266  12.8266  13.9050  13.9050  14.6567  14.6567  14.6567  14.9420
    14.9420  14.9420  14.9420  14.9420  14.9420  16.9921  16.9921  16.9921
    24.1146  24.1146  24.1146  29.5530  29.5530  29.5530  29.5531  29.5531
    29.5531  34.8089  34.8089  34.8089  38.1328  38.1331  38.1331  38.2889
    42.4410  42.4411  42.4411  46.1423  46.1423  46.1423  48.0131  55.3550
    55.3550  55.3550  58.1326  59.5936

          k =-0.0000-0.0000 0.0476 (  1755 PWs)   bands (ev):

     5.7418  10.1518  10.3704  10.3704  11.0048  11.0093  11.0093  12.6846
    12.9330  12.9330  13.7775  13.9538  14.0986  14.0986  14.4897  14.4897
    14.6048  14.7494  14.7494  14.9423  14.9423  15.5402  18.1363  18.1363
    24.1954  24.1954  26.2601  27.8837  27.8837  28.4705  28.4706  30.1296
    30.1297  34.9124  36.8985  36.8985  37.7201  38.2624  40.0673  40.0674
    40.2906  40.2906  40.8453  47.5096  48.0997  48.0998  49.2191  51.5472
    56.4731  56.4731  56.5986  56.5986

          k =-0.0000-0.0000 0.0952 (  1739 PWs)   bands (ev):

     6.7954   9.7150  10.8318  10.8318  11.3379  11.3871  11.3871  12.3063
    12.9522  12.9522  13.2427  13.2427  13.4568  13.6765  14.0778  14.0778
    14.0883  14.2744  14.2744  14.4641  14.9429  14.9429  20.1771  20.1771
    24.4684  24.4684  25.1824  25.1824  26.7733  26.7733  30.4536  31.7431
    31.7432  35.2379  36.6915  37.0995  37.0995  38.2576  38.8192  40.8672
    40.8672  44.2102  44.2103  44.3612  50.8802  50.9513  50.9514  50.9757
    50.9757  54.9297  56.1788  56.1788

          k = 0.0000 0.0000-0.1427 (  1750 PWs)   bands (ev):

     8.3385   8.3385  11.1235  11.1235  11.8108  11.8109  12.0325  12.0325
    12.0327  12.0327  13.1899  13.1900  13.7189  13.7189  13.7190  13.7190
    13.8082  13.8082  14.2746  14.2747  14.9432  14.9432  22.5590  22.5590
    22.5591  22.5591  24.7920  24.7921  25.8870  25.8871  34.1491  34.1491
    34.1492  34.1493  34.8878  34.8881  35.8230  35.8231  40.4586  40.4591
    45.6180  45.6180  45.6184  45.6184  47.6905  47.6906  52.4777  52.4777
    54.0636  54.0636  54.0639  54.0640

          k =-0.0000 0.0476 0.0476 (  1749 PWs)   bands (ev):

     6.1003  10.3627  10.3627  10.5524  11.1087  11.1192  11.1192  12.6109
    12.9834  12.9878  13.6976  13.7390  13.7390  13.7509  13.9539  14.3512
    14.4773  14.4774  14.7482  14.7482  14.8189  16.7167  16.7167  18.9649
    24.1578  25.2275  26.4341  26.4342  28.3757  28.3758  28.9765  28.9765
    30.6657  36.1093  36.1380  37.0965  37.0965  37.3487  40.2322  40.2323
    41.1888  42.6896  43.4987  45.1740  46.4230  49.9446  50.3794  53.2646
    53.6333  55.3103  55.3103  56.2424

          k =-0.0000 0.0476 0.0952 (  1742 PWs)   bands (ev):

     7.1300   9.9655  10.8789  10.9972  11.3921  11.4248  11.4662  12.2985
    12.6756  12.8448  13.0385  13.0787  13.2589  13.5798  14.0018  14.0873
    14.1573  14.2435  14.2728  14.7453  14.7545  15.1447  18.3550  20.7860
    22.2784  24.8354  25.6546  26.6670  27.5251  29.7146  29.9631  30.0246
    31.1115  33.8006  34.5081  37.7201  38.6687  40.3402  40.5150  40.8661
    41.1170  44.1204  45.2348  47.1231  47.7064  48.5693  49.8759  51.2590
    52.8942  53.1689  55.0360  56.9890

          k = 0.0000 0.0476-0.1427 (  1728 PWs)   bands (ev):

     8.6320   8.6321  11.2671  11.2671  11.8553  11.8554  11.8677  11.8678
    12.0498  12.0499  12.9095  12.9096  13.7224  13.7224  13.7970  13.7970
    13.7973  13.7974  14.5002  14.5002  14.7438  14.7438  20.1662  20.1663
    23.0697  23.0698  25.5824  25.5826  28.4252  28.4253  31.6098  31.6098
    32.0771  32.0772  35.8527  35.8530  38.8284  38.8285  42.3636  42.3639
    43.1062  43.1063  45.8907  45.8910  50.1458  50.1462  50.2858  50.2859
    52.5280  52.5281  53.3695  53.3697

          k =-0.0000 0.0952 0.0952 (  1734 PWs)   bands (ev):

     8.0799  10.6036  10.6036  11.3607  11.4429  11.6807  11.6807  12.2005
    12.3470  12.3470  12.5206  12.9179  13.4030  13.4762  13.7744  13.9133
    13.9134  14.2769  14.2769  14.4668  14.5437  16.2867  16.2867  19.6069
    22.3277  25.3565  26.9427  26.9427  27.9962  27.9962  31.1146  31.7284
    31.7284  31.8027  33.6554  36.8726  41.4625  41.8611  41.8612  43.1088
    43.2936  43.8125  43.8126  47.3088  47.3582  48.5188  48.5188  51.7318
    52.0665  52.1310  53.4026  55.2521

          k = 0.0000 0.0952-0.1427 (  1714 PWs)   bands (ev):

     9.4303   9.4304  11.2209  11.2209  11.8468  11.8468  11.9621  11.9622
    12.0771  12.0772  12.5996  12.5997  13.5691  13.5691  13.6429  13.6429
    13.7691  13.7692  14.3194  14.3195  15.1688  15.1688  17.6768  17.6768
    24.4376  24.4377  26.3777  26.3778  28.8136  28.8136  29.6269  29.6270
    33.0199  33.0200  36.8174  36.8177  40.3624  40.3625  42.9945  42.9945
    43.2337  43.2338  46.6773  46.6775  48.0052  48.0054  50.3739  50.3741
    51.8812  51.8814  53.4764  53.4765

          k = 0.0000-0.1427-0.1427 (  1740 PWs)   bands (ev):

    10.4415  10.4415  10.4415  10.4416  12.0564  12.0564  12.0565  12.0565
    12.2968  12.2968  12.2969  12.2969  13.4263  13.4263  13.4264  13.4264
    13.9517  13.9518  13.9518  13.9518  16.1148  16.1148  16.1148  16.1148
    26.4018  26.4018  26.4018  26.4019  27.7011  27.7012  27.7012  27.7013
    37.9661  37.9661  37.9662  37.9662  38.4647  38.4648  38.4648  38.4650
    47.0574  47.0574  47.0574  47.0575  49.1783  49.1784  49.1785  49.1786
    51.9182  51.9182  51.9183  51.9183

          k = 0.0476 0.0476 0.0476 (  1743 PWs)   bands (ev):

     6.4489  10.5506  10.5506  10.5506  11.2104  11.2104  11.2104  12.5560
    13.0084  13.0084  13.3977  13.3977  13.3977  13.8664  13.8664  14.1583
    14.1583  14.1583  14.8193  14.8193  14.8193  17.3703  17.3703  17.3703
    25.4561  25.4561  25.4562  26.7638  26.7638  26.7638  31.1919  31.1919
    31.1919  33.5476  36.2601  36.2602  36.2602  39.0961  41.1893  41.1893
    42.8936  42.8937  42.8937  46.5037  47.6041  47.6041  51.8083  51.8083
    55.1801  55.1801  55.1801  56.0502

          k = 0.0476 0.0476 0.0952 (  1746 PWs)   bands (ev):

     7.4461  10.1642  11.0101  11.0101  11.4518  11.4518  11.5077  12.3088
    12.6771  12.6771  12.8424  13.0399  13.1300  13.7713  13.8056  13.8682
    13.8683  14.1419  14.7072  14.7370  14.7370  15.4277  18.6984  18.6984
    22.9159  22.9159  26.7624  27.3909  27.3909  30.4318  30.4319  30.8580
    31.0338  32.6960  36.7187  37.6812  37.9264  38.8196  38.8196  42.3669
    43.5819  44.4856  47.0632  47.0632  47.9232  49.0276  50.1877  50.1877
    50.7013  52.9449  53.0364  55.7706

          k = 0.0476 0.0476-0.1427 (  1734 PWs)   bands (ev):

     8.8880   8.8881  11.4378  11.4378  11.5051  11.5051  11.9179  11.9180
    12.2948  12.2948  12.8225  12.8226  13.3934  13.3935  13.6774  13.6774
    14.2937  14.2938  14.4568  14.4568  14.6894  14.6894  19.7776  19.7776
    21.4485  21.4485  28.3211  28.3212  28.5869  28.5870  29.0404  29.0405
    35.0064  35.0065  35.3876  35.3878  38.1707  38.1709  42.1842  42.1843
    44.8413  44.8414  45.3575  45.3575  49.3996  49.3998  50.8521  50.8522
    52.2169  52.2169  54.0604  54.0604

          k = 0.0476 0.0952 0.0952 (  1727 PWs)   bands (ev):

     8.3319  10.6121  10.6121  11.1239  11.6178  11.7587  11.7587  12.2849
    12.4908  12.4909  12.6158  12.9294  13.0788  13.5323  13.5323  13.5345
    13.8954  14.4560  14.6047  14.6047  14.6215  16.3655  16.3655  18.8981
    21.1461  24.1194  24.1194  28.1045  28.1794  31.1969  31.1969  32.2118
    32.2118  34.0705  35.2659  36.9330  39.3381  39.3382  40.0768  43.1495
    43.7263  44.7288  46.4556  46.4557  49.2454  49.2454  50.3479  50.5779
    50.8995  51.6892  52.3652  52.8518

          k = 0.0476 0.0952-0.1427 (  1728 PWs)   bands (ev):

     9.5527   9.5527  10.9756  10.9756  11.8785  11.8786  12.1185  12.1185
    12.4714  12.4714  12.6587  12.6588  13.2080  13.2080  13.3891  13.3892
    14.2145  14.2145  14.5127  14.5127  15.0620  15.0621  17.6007  17.6007
    22.1182  22.1182  25.8630  25.8631  29.5349  29.5350  33.0951  33.0952
    33.3209  33.3210  36.9165  36.9168  40.1204  40.1205  40.4673  40.4673
    45.1789  45.1790  45.6753  45.6754  47.6834  47.6835  50.6096  50.6097
    51.7287  51.7287  53.9983  53.9984

          k = 0.0476-0.1427-0.1427 (  1724 PWs)   bands (ev):

    10.3295  10.3296  10.3296  10.3296  12.2857  12.2857  12.2857  12.2857
    12.5055  12.5056  12.5056  12.5056  13.1525  13.1525  13.1525  13.1526
    14.2438  14.2438  14.2438  14.2439  15.9894  15.9895  15.9895  15.9895
    23.7094  23.7095  23.7095  23.7095  31.0547  31.0548  31.0548  31.0548
    38.2446  38.2447  38.2447  38.2448  38.2932  38.2933  38.2933  38.2934
    46.5861  46.5861  46.5861  46.5862  46.7826  46.7827  46.7827  46.7828
    54.8730  54.8731  54.8731  54.8732

          k = 0.0952 0.0952 0.0952 (  1721 PWs)   bands (ev):

     8.9970  10.5642  10.5642  10.5642  12.0742  12.0742  12.0742  12.5519
    12.7696  12.7696  12.7696  12.8965  12.8965  13.1698  13.1698  13.1698
    14.3358  14.3358  14.7473  14.7473  14.7473  16.6169  16.6170  16.6170
    21.7481  21.7481  21.7482  25.3749  32.5454  32.5455  32.5455  35.3046
    35.3046  35.3046  37.2855  37.2856  37.2856  37.6199  40.0368  40.0368
    44.4539  44.4539  47.7876  48.0134  48.0134  48.0134  48.1406  48.1406
    48.1406  52.4788  52.4788  52.4788

          k = 0.0952 0.0952-0.1427 (  1726 PWs)   bands (ev):

     9.8223   9.8223  10.5240  10.5240  12.2667  12.2667  12.5802  12.5802
    12.8275  12.8275  12.9304  12.9304  12.9730  12.9731  13.0373  13.0374
    14.6491  14.6491  14.6765  14.6765  14.8748  14.8748  16.8062  16.8062
    20.8176  20.8177  23.2567  23.2568  33.4225  33.4226  34.7124  34.7124
    36.2208  36.2210  37.3178  37.3179  39.0740  39.0742  39.4133  39.4134
    44.6783  44.6783  44.8799  44.8800  46.0247  46.0248  48.5100  48.5100
    49.6585  49.6586  53.0864  53.0864

          k = 0.0952-0.1427-0.1427 (  1724 PWs)   bands (ev):

    10.1363  10.1363  10.1363  10.1363  12.6140  12.6140  12.6140  12.6140
    12.8466  12.8466  12.8466  12.8466  13.2604  13.2605  13.2605  13.2605
    14.5863  14.5863  14.5863  14.5864  15.4987  15.4987  15.4987  15.4987
    21.4868  21.4868  21.4868  21.4868  35.1283  35.1284  35.1284  35.1285
    38.1874  38.1875  38.1875  38.1876  39.0084  39.0084  39.0084  39.0085
    44.1257  44.1257  44.1258  44.1258  45.1494  45.1494  45.1494  45.1495
    50.5100  50.5100  50.5100  50.5100

          k =-0.1427-0.1427-0.1427 (  1736 PWs)   bands (ev):

    10.0510  10.0510  10.0510  10.0510  12.7322  12.7322  12.7322  12.7322
    12.7322  12.7322  12.7322  12.7322  14.1927  14.1928  14.1928  14.1928
    14.7190  14.7190  14.7190  14.7191  14.7191  14.7191  14.7191  14.7191
    20.6952  20.6952  20.6952  20.6953  36.7654  36.7657  36.7657  36.7657
    39.6455  39.6455  39.6455  39.6456  39.6456  39.6456  39.6456  39.6456
    42.8331  42.8331  42.8331  42.8331  42.8331  42.8331  42.8332  42.8332
    48.8873  48.8873  48.8873  48.8873

          k =-0.0476-0.0000 0.0476 (  1749 PWs)   bands (ev):

     6.1003  10.3627  10.3627  10.5524  11.1087  11.1192  11.1192  12.6109
    12.9834  12.9878  13.6976  13.7390  13.7390  13.7509  13.9539  14.3512
    14.4773  14.4774  14.7482  14.7482  14.8189  16.7167  16.7167  18.9649
    24.1578  25.2276  26.4342  26.4342  28.3757  28.3758  28.9765  28.9765
    30.6657  36.1094  36.1379  37.0965  37.0965  37.3488  40.2322  40.2323
    41.1888  42.6897  43.4987  45.1740  46.4229  49.9446  50.3794  53.2646
    53.6333  55.3104  55.3104  56.2423

          k =-0.0476-0.0000 0.0952 (  1742 PWs)   bands (ev):

     7.1300   9.9655  10.8789  10.9972  11.3921  11.4248  11.4662  12.2985
    12.6756  12.8448  13.0384  13.0787  13.2589  13.5798  14.0017  14.0873
    14.1572  14.2435  14.2728  14.7453  14.7545  15.1447  18.3550  20.7860
    22.2784  24.8354  25.6546  26.6670  27.5251  29.7145  29.9631  30.0245
    31.1115  33.8006  34.5081  37.7202  38.6686  40.3402  40.5150  40.8662
    41.1170  44.1204  45.2348  47.1232  47.7064  48.5693  49.8760  51.2590
    52.8942  53.1689  55.0360  56.9890

          k =-0.0952-0.0000 0.0952 (  1734 PWs)   bands (ev):

     8.0799  10.6036  10.6036  11.3607  11.4429  11.6807  11.6807  12.2005
    12.3469  12.3469  12.5206  12.9179  13.4030  13.4762  13.7744  13.9133
    13.9134  14.2769  14.2769  14.4668  14.5437  16.2867  16.2867  19.6070
    22.3277  25.3565  26.9426  26.9427  27.9962  27.9962  31.1146  31.7284
    31.7284  31.8028  33.6554  36.8726  41.4625  41.8611  41.8612  43.1088
    43.2936  43.8125  43.8126  47.3087  47.3581  48.5188  48.5188  51.7319
    52.0665  52.1309  53.4025  55.2521

          k = 0.0476-0.0476 0.0476 (  1743 PWs)   bands (ev):

     6.4489  10.5506  10.5506  10.5506  11.2104  11.2104  11.2104  12.5560
    13.0084  13.0084  13.3977  13.3977  13.3977  13.8663  13.8664  14.1583
    14.1583  14.1583  14.8193  14.8193  14.8193  17.3703  17.3703  17.3703
    25.4561  25.4562  25.4562  26.7638  26.7639  26.7639  31.1918  31.1919
    31.1919  33.5477  36.2601  36.2601  36.2602  39.0961  41.1892  41.1893
    42.8936  42.8937  42.8938  46.5037  47.6040  47.6041  51.8082  51.8083
    55.1801  55.1801  55.1802  56.0500

          k = 0.0476-0.0476 0.0952 (  1746 PWs)   bands (ev):

     7.4461  10.1642  11.0101  11.0101  11.4518  11.4518  11.5077  12.3088
    12.6771  12.6771  12.8424  13.0400  13.1300  13.7713  13.8056  13.8682
    13.8682  14.1419  14.7072  14.7370  14.7370  15.4277  18.6984  18.6984
    22.9159  22.9159  26.7625  27.3909  27.3909  30.4318  30.4319  30.8581
    31.0338  32.6960  36.7187  37.6812  37.9263  38.8195  38.8196  42.3669
    43.5820  44.4856  47.0632  47.0633  47.9232  49.0276  50.1877  50.1878
    50.7013  52.9449  53.0364  55.7706

          k =-0.0952 0.0476 0.0476 (  1746 PWs)   bands (ev):

     7.4461  10.1642  11.0101  11.0101  11.4518  11.4518  11.5077  12.3088
    12.6771  12.6771  12.8424  13.0399  13.1300  13.7713  13.8056  13.8682
    13.8682  14.1419  14.7072  14.7370  14.7370  15.4277  18.6984  18.6984
    22.9159  22.9159  26.7624  27.3909  27.3909  30.4318  30.4318  30.8581
    31.0338  32.6960  36.7187  37.6812  37.9264  38.8195  38.8196  42.3669
    43.5820  44.4855  47.0633  47.0633  47.9231  49.0276  50.1878  50.1878
    50.7013  52.9450  53.0364  55.7707

          k = 0.0476-0.0476-0.1427 (  1734 PWs)   bands (ev):

     8.8880   8.8881  11.4378  11.4378  11.5051  11.5051  11.9179  11.9180
    12.2948  12.2948  12.8225  12.8226  13.3934  13.3935  13.6774  13.6774
    14.2937  14.2938  14.4568  14.4568  14.6894  14.6894  19.7776  19.7776
    21.4484  21.4485  28.3211  28.3212  28.5870  28.5870  29.0404  29.0405
    35.0064  35.0065  35.3875  35.3878  38.1707  38.1709  42.1842  42.1843
    44.8413  44.8415  45.3574  45.3575  49.3997  49.3998  50.8521  50.8521
    52.2168  52.2170  54.0604  54.0604

          k = 0.0952-0.0476 0.0952 (  1727 PWs)   bands (ev):

     8.3319  10.6122  10.6122  11.1240  11.6178  11.7587  11.7587  12.2849
    12.4909  12.4909  12.6158  12.9294  13.0788  13.5323  13.5323  13.5345
    13.8954  14.4560  14.6047  14.6047  14.6215  16.3655  16.3655  18.8981
    21.1461  24.1194  24.1194  28.1046  28.1795  31.1969  31.1969  32.2118
    32.2118  34.0705  35.2658  36.9330  39.3381  39.3381  40.0768  43.1495
    43.7263  44.7288  46.4557  46.4557  49.2455  49.2455  50.3479  50.5779
    50.8994  51.6892  52.3652  52.8518

          k =-0.0952 0.0476 0.0952 (  1727 PWs)   bands (ev):

     8.3319  10.6121  10.6122  11.1240  11.6178  11.7587  11.7587  12.2849
    12.4908  12.4908  12.6158  12.9294  13.0788  13.5323  13.5323  13.5345
    13.8954  14.4560  14.6047  14.6047  14.6215  16.3655  16.3655  18.8981
    21.1461  24.1194  24.1194  28.1046  28.1794  31.1969  31.1969  32.2118
    32.2118  34.0704  35.2659  36.9329  39.3381  39.3382  40.0767  43.1495
    43.7263  44.7288  46.4557  46.4557  49.2455  49.2455  50.3479  50.5779
    50.8995  51.6891  52.3653  52.8518

          k = 0.0952-0.0476-0.1427 (  1728 PWs)   bands (ev):

     9.5527   9.5527  10.9756  10.9756  11.8785  11.8786  12.1184  12.1185
    12.4713  12.4714  12.6587  12.6588  13.2080  13.2080  13.3891  13.3892
    14.2145  14.2145  14.5127  14.5127  15.0620  15.0621  17.6007  17.6007
    22.1181  22.1182  25.8631  25.8631  29.5350  29.5350  33.0951  33.0951
    33.3210  33.3210  36.9165  36.9168  40.1204  40.1205  40.4672  40.4673
    45.1789  45.1790  45.6753  45.6754  47.6835  47.6836  50.6096  50.6097
    51.7287  51.7288  53.9983  53.9984

          k = 0.0952-0.0952 0.0952 (  1721 PWs)   bands (ev):

     8.9970  10.5642  10.5642  10.5642  12.0742  12.0742  12.0742  12.5519
    12.7696  12.7696  12.7696  12.8965  12.8966  13.1698  13.1698  13.1698
    14.3358  14.3358  14.7473  14.7474  14.7474  16.6169  16.6170  16.6170
    21.7481  21.7481  21.7482  25.3750  32.5454  32.5455  32.5455  35.3045
    35.3046  35.3046  37.2855  37.2856  37.2856  37.6198  40.0367  40.0367
    44.4539  44.4539  47.7876  48.0134  48.0134  48.0135  48.1406  48.1406
    48.1407  52.4789  52.4789  52.4790

          k = 0.0952-0.0952-0.1427 (  1726 PWs)   bands (ev):

     9.8223   9.8223  10.5240  10.5240  12.2667  12.2667  12.5802  12.5802
    12.8275  12.8275  12.9304  12.9304  12.9730  12.9731  13.0373  13.0373
    14.6491  14.6491  14.6765  14.6765  14.8748  14.8748  16.8062  16.8062
    20.8176  20.8177  23.2568  23.2568  33.4225  33.4226  34.7124  34.7125
    36.2208  36.2210  37.3178  37.3178  39.0740  39.0741  39.4133  39.4134
    44.6782  44.6783  44.8799  44.8800  46.0247  46.0247  48.5100  48.5100
    49.6585  49.6586  53.0865  53.0865

     the Fermi energy is    14.4921 ev

!    total energy              =    -343.63028623 Ry
     Harris-Foulkes estimate   =    -343.63028614 Ry
     estimated scf accuracy    <          1.2E-11 Ry

     The total energy is the sum of the following terms:

     one-electron contribution =      -6.38655134 Ry
     hartree contribution      =      60.35012561 Ry
     xc contribution           =    -120.51417709 Ry
     ewald contribution        =    -277.03126844 Ry
     Dispersion Correction     =      -0.04784177 Ry
     smearing contrib. (-TS)   =      -0.00057320 Ry

     total magnetization       =     2.84 Bohr mag/cell
     absolute magnetization    =     3.25 Bohr mag/cell

     convergence has been achieved in  17 iterations

     Forces acting on atoms (Ry/au):

     atom    1 type  1   force =     0.00000239    0.00000239   -0.00000188
     atom    2 type  1   force =    -0.00000290   -0.00000290   -0.00000290
     atom    3 type  1   force =     0.00000239   -0.00000188    0.00000239
     atom    4 type  1   force =    -0.00000188    0.00000239    0.00000239

     Total force =     0.000008     Total SCF correction =     0.000006
     SCF correction compared to forces is large: reduce conv_thr to get better values


     entering subroutine stress ...

          total   stress  (Ry/bohr**3)                   (kbar)     P=    0.03
   0.00000021  -0.00000006  -0.00000006          0.03     -0.01     -0.01
  -0.00000006   0.00000021  -0.00000006         -0.01      0.03     -0.01
  -0.00000006  -0.00000006   0.00000021         -0.01     -0.01      0.03


     Writing output data file Ni-ferromag.save

     init_run     :     24.53s CPU     25.24s WALL (       2 calls)
     electrons    :   2252.53s CPU   2326.02s WALL (       6 calls)
     update_pot   :     22.04s CPU     22.11s WALL (       4 calls)
     forces       :     44.70s CPU     45.02s WALL (       6 calls)
     stress       :     85.34s CPU     86.62s WALL (       6 calls)

     Called by init_run:
     wfcinit      :     18.18s CPU     18.79s WALL (       2 calls)
     potinit      :      1.81s CPU      1.84s WALL (       2 calls)

     Called by electrons:
     c_bands      :   1930.70s CPU   1989.94s WALL (      76 calls)
     sum_band     :    278.75s CPU    289.93s WALL (      76 calls)
     v_of_rho     :     22.83s CPU     23.71s WALL (      81 calls)
     newd         :     21.30s CPU     23.26s WALL (      81 calls)
     mix_rho      :      1.39s CPU      1.68s WALL (      76 calls)

     Called by c_bands:
     init_us_2    :     14.52s CPU     16.01s WALL (   10624 calls)
     cegterg      :   1879.83s CPU   1938.17s WALL (    4864 calls)

     Called by sum_band:
     sum_band:bec :      0.79s CPU      0.81s WALL (    4864 calls)
     addusdens    :     30.99s CPU     32.89s WALL (      76 calls)

     Called by *egterg:
     h_psi        :    974.03s CPU   1010.50s WALL (   14053 calls)
     s_psi        :    146.24s CPU    146.22s WALL (   14053 calls)
     g_psi        :      6.30s CPU      6.31s WALL (    9061 calls)
     cdiaghg      :    138.39s CPU    138.45s WALL (   13605 calls)

     Called by h_psi:
     add_vuspsi   :    146.13s CPU    146.36s WALL (   14053 calls)

     General routines
     calbec       :    254.94s CPU    255.04s WALL (   20837 calls)
     fft          :      7.80s CPU      8.60s WALL (    2723 calls)
     ffts         :      0.25s CPU      0.29s WALL (     314 calls)
     fftw         :    709.78s CPU    754.45s WALL ( 1387230 calls)
     interpolate  :      1.26s CPU      1.55s WALL (     314 calls)

     Parallel routines
     fft_scatter  :     40.10s CPU     52.27s WALL ( 1390267 calls)

     PWSCF        : 40m31.55s CPU    41m47.71s WALL


   This run was terminated on:   3:30: 5  27May2016            

=------------------------------------------------------------------------------=
   JOB DONE.
=------------------------------------------------------------------------------=
