
     Program PWSCF v.5.3.0 (svn rev. 11974) starts on 27May2016 at  3:30: 5 

     This program is part of the open-source Quantum ESPRESSO suite
     for quantum simulation of materials; please cite
         "P. Giannozzi et al., J. Phys.:Condens. Matter 21 395502 (2009);
          URL http://www.quantum-espresso.org", 
     in publications or presentations arising from this work. More details at
     http://www.quantum-espresso.org/quote

     Parallel version (MPI), running on     1 processors
     Waiting for input...
     Reading input from standard input
     Message from routine read_cards :
     DEPRECATED: no units specified in CELL_PARAMETERS card

     Current dimensions of program PWSCF are:
     Max number of different atomic species (ntypx) = 10
     Max number of k-points (npk) =  40000
     Max angular momentum in pseudopotentials (lmaxx) =  3
               file Ni.pbe-nd-rrkjus.UPF: wavefunction(s)  4S renormalized

     -------------------------------------
     Parameters for Dispersion Correction:
     -------------------------------------
       atom      VdW radius       C_6     

        Ni1        3.014        159.927

     Subspace diagonalization in iterative solution of the eigenvalue problem:
     a serial algorithm will be used


     G-vector sticks info
     --------------------
     sticks:   dense  smooth     PW     G-vecs:    dense   smooth      PW
     Sum        1413     853    261                39847    18613    3119

     Generating pointlists ...
     new r_m :   0.4125 (alat units)  0.7795 (a.u.) for type    1

     Title: 
     Ni-ferro-mag                                                               


     bravais-lattice index     =            0
     lattice parameter (alat)  =       1.8897  a.u.
     unit-cell volume          =     295.0010 (a.u.)^3
     number of atoms/cell      =            4
     number of atomic types    =            1
     number of electrons       =        40.00
     number of Kohn-Sham states=           52
     kinetic-energy cutoff     =      60.0000  Ry
     charge density cutoff     =     400.0000  Ry
     convergence threshold     =      1.0E-08
     mixing beta               =       0.2000
     number of iterations used =            8  plain     mixing
     Exchange-correlation      =  SLA  PW   PBE  PBE ( 1  4  3  4 0 0)
     nstep                     =           50


     celldm(1)=   1.889726  celldm(2)=   0.000000  celldm(3)=   0.000000
     celldm(4)=   0.000000  celldm(5)=   0.000000  celldm(6)=   0.000000

     crystal axes: (cart. coord. in units of alat)
               a(1) = (   3.522700   0.000000   0.000000 )  
               a(2) = (   0.000000   3.522700   0.000000 )  
               a(3) = (   0.000000   0.000000   3.522700 )  

     reciprocal axes: (cart. coord. in units 2 pi/alat)
               b(1) = (  0.283873  0.000000  0.000000 )  
               b(2) = (  0.000000  0.283873  0.000000 )  
               b(3) = (  0.000000  0.000000  0.283873 )  


     PseudoPot. # 1 for Ni read from file:
     /home/eliot/pseudo/Ni.pbe-nd-rrkjus.UPF
     MD5 check sum: 8081f0a005c9a5470caab1a58e82ecb2
     Pseudo is Ultrasoft + core correction, Zval = 10.0
     Generated by new atomic code, or converted to UPF format
     Using radial grid of 1203 points,  6 beta functions with: 
                l(1) =   0
                l(2) =   0
                l(3) =   1
                l(4) =   1
                l(5) =   2
                l(6) =   2
     Q(r) pseudized with 0 coefficients 


     atomic species   valence    mass     pseudopotential
        Ni1           10.00    58.69340     Ni( 1.00)

     Starting magnetic structure 
     atomic species   magnetization
        Ni1          0.500

      6 Sym. Ops. (no inversion) found



   Cartesian axes

     site n.     atom                  positions (alat units)
         1           Ni1 tau(   1) = (   1.7691699   1.7691699   0.0000000  )
         2           Ni1 tau(   2) = (   0.0000000   0.0000000   0.0000000  )
         3           Ni1 tau(   3) = (   1.7691699   0.0000000   1.7691699  )
         4           Ni1 tau(   4) = (   0.0000000   1.7691699   1.7691699  )

     number of k points=    32  Methfessel-Paxton smearing, width (Ry)=  0.0500
                       cart. coord. in units 2pi/alat
        k(    1) = (   0.0000000   0.0000000   0.0000000), wk =   0.0046296
        k(    2) = (   0.0000000   0.0000000   0.0473122), wk =   0.0277778
        k(    3) = (   0.0000000   0.0000000   0.0946244), wk =   0.0277778
        k(    4) = (   0.0000000   0.0000000  -0.1419366), wk =   0.0138889
        k(    5) = (   0.0000000   0.0473122   0.0473122), wk =   0.0277778
        k(    6) = (   0.0000000   0.0473122   0.0946244), wk =   0.0555556
        k(    7) = (   0.0000000   0.0473122  -0.1419366), wk =   0.0555556
        k(    8) = (   0.0000000   0.0946244   0.0946244), wk =   0.0277778
        k(    9) = (   0.0000000   0.0946244  -0.1419366), wk =   0.0555556
        k(   10) = (   0.0000000  -0.1419366  -0.1419366), wk =   0.0138889
        k(   11) = (   0.0473122   0.0473122   0.0473122), wk =   0.0092593
        k(   12) = (   0.0473122   0.0473122   0.0946244), wk =   0.0277778
        k(   13) = (   0.0473122   0.0473122  -0.1419366), wk =   0.0277778
        k(   14) = (   0.0473122   0.0946244   0.0946244), wk =   0.0277778
        k(   15) = (   0.0473122   0.0946244  -0.1419366), wk =   0.0555556
        k(   16) = (   0.0473122  -0.1419366  -0.1419366), wk =   0.0277778
        k(   17) = (   0.0946244   0.0946244   0.0946244), wk =   0.0092593
        k(   18) = (   0.0946244   0.0946244  -0.1419366), wk =   0.0277778
        k(   19) = (   0.0946244  -0.1419366  -0.1419366), wk =   0.0277778
        k(   20) = (  -0.1419366  -0.1419366  -0.1419366), wk =   0.0046296
        k(   21) = (  -0.0473122   0.0000000   0.0473122), wk =   0.0277778
        k(   22) = (  -0.0473122   0.0000000   0.0946244), wk =   0.0555556
        k(   23) = (  -0.0946244   0.0000000   0.0946244), wk =   0.0277778
        k(   24) = (   0.0473122  -0.0473122   0.0473122), wk =   0.0277778
        k(   25) = (   0.0473122  -0.0473122   0.0946244), wk =   0.0555556
        k(   26) = (  -0.0946244   0.0473122   0.0473122), wk =   0.0277778
        k(   27) = (   0.0473122  -0.0473122  -0.1419366), wk =   0.0277778
        k(   28) = (   0.0946244  -0.0473122   0.0946244), wk =   0.0277778
        k(   29) = (  -0.0946244   0.0473122   0.0946244), wk =   0.0555556
        k(   30) = (   0.0946244  -0.0473122  -0.1419366), wk =   0.0555556
        k(   31) = (   0.0946244  -0.0946244   0.0946244), wk =   0.0277778
        k(   32) = (   0.0946244  -0.0946244  -0.1419366), wk =   0.0277778

     Dense  grid:    39847 G-vectors     FFT dimensions: (  45,  45,  45)

     Smooth grid:    18613 G-vectors     FFT dimensions: (  36,  36,  36)

     Largest allocated arrays     est. size (Mb)     dimensions
        Kohn-Sham Wavefunctions         1.87 Mb     (    2360,   52)
        NL pseudopotentials             2.59 Mb     (    2360,   72)
        Each V/rho on FFT grid          2.78 Mb     (   91125,   2)
        Each G-vector array             0.30 Mb     (   39847)
        G-vector shells                 0.30 Mb     (   39847)
     Largest temporary arrays     est. size (Mb)     dimensions
        Auxiliary wavefunctions         7.49 Mb     (    2360,  208)
        Each subspace H/S matrix        0.66 Mb     (     208,  208)
        Each <psi_i|beta_j> matrix      0.06 Mb     (      72,   52)
        Arrays for rho mixing          11.12 Mb     (   91125,    8)

     Check: negative/imaginary core charge=   -0.000005    0.000000

     Initial potential from superposition of free atoms

     starting charge   39.99816, renormalised to   40.00000
     Starting wfc are   24 randomized atomic wfcs +   28 random wfc

     total cpu time spent up to now is       18.3 secs

     Self-consistent Calculation

     iteration #  1     ecut=    60.00 Ry     beta=0.20
     Davidson diagonalization with overlap
     ethr =  1.00E-02,  avg # of iterations =  6.4

     total cpu time spent up to now is      108.4 secs

     total energy              =    -342.90142234 Ry
     Harris-Foulkes estimate   =    -343.18551834 Ry
     estimated scf accuracy    <       2.43753736 Ry

     total magnetization       =     6.91 Bohr mag/cell
     absolute magnetization    =     6.92 Bohr mag/cell

     iteration #  2     ecut=    60.00 Ry     beta=0.20
     Davidson diagonalization with overlap
     ethr =  6.09E-03,  avg # of iterations =  1.0

     total cpu time spent up to now is      145.2 secs

     total energy              =    -343.20639285 Ry
     Harris-Foulkes estimate   =    -343.04086049 Ry
     estimated scf accuracy    <       0.77205980 Ry

     total magnetization       =     5.77 Bohr mag/cell
     absolute magnetization    =     5.87 Bohr mag/cell

     iteration #  3     ecut=    60.00 Ry     beta=0.20
     Davidson diagonalization with overlap
     ethr =  1.93E-03,  avg # of iterations =  1.7

     total cpu time spent up to now is      182.9 secs

     total energy              =    -343.53588465 Ry
     Harris-Foulkes estimate   =    -343.27849015 Ry
     estimated scf accuracy    <       0.36093852 Ry

     total magnetization       =     4.53 Bohr mag/cell
     absolute magnetization    =     4.85 Bohr mag/cell

     iteration #  4     ecut=    60.00 Ry     beta=0.20
     Davidson diagonalization with overlap
     ethr =  9.02E-04,  avg # of iterations =  1.7

     total cpu time spent up to now is      220.5 secs

     total energy              =    -343.61168801 Ry
     Harris-Foulkes estimate   =    -343.65311982 Ry
     estimated scf accuracy    <       0.12723893 Ry

     total magnetization       =     2.54 Bohr mag/cell
     absolute magnetization    =     3.16 Bohr mag/cell

     iteration #  5     ecut=    60.00 Ry     beta=0.20
     Davidson diagonalization with overlap
     ethr =  3.18E-04,  avg # of iterations =  1.1

     total cpu time spent up to now is      257.4 secs

     total energy              =    -343.62533360 Ry
     Harris-Foulkes estimate   =    -343.62618844 Ry
     estimated scf accuracy    <       0.00693757 Ry

     total magnetization       =     2.63 Bohr mag/cell
     absolute magnetization    =     3.24 Bohr mag/cell

     iteration #  6     ecut=    60.00 Ry     beta=0.20
     Davidson diagonalization with overlap
     ethr =  1.73E-05,  avg # of iterations =  4.7

     total cpu time spent up to now is      300.6 secs

     total energy              =    -343.62638314 Ry
     Harris-Foulkes estimate   =    -343.62755449 Ry
     estimated scf accuracy    <       0.00223653 Ry

     total magnetization       =     2.73 Bohr mag/cell
     absolute magnetization    =     3.31 Bohr mag/cell

     iteration #  7     ecut=    60.00 Ry     beta=0.20
     Davidson diagonalization with overlap
     ethr =  5.59E-06,  avg # of iterations =  1.5

     total cpu time spent up to now is      338.1 secs

     total energy              =    -343.62920347 Ry
     Harris-Foulkes estimate   =    -343.62812370 Ry
     estimated scf accuracy    <       0.00171812 Ry

     total magnetization       =     3.03 Bohr mag/cell
     absolute magnetization    =     3.52 Bohr mag/cell

     iteration #  8     ecut=    60.00 Ry     beta=0.20
     Davidson diagonalization with overlap
     ethr =  4.30E-06,  avg # of iterations =  1.2

     total cpu time spent up to now is      375.1 secs

     total energy              =    -343.62958316 Ry
     Harris-Foulkes estimate   =    -343.62955403 Ry
     estimated scf accuracy    <       0.00007248 Ry

     total magnetization       =     2.91 Bohr mag/cell
     absolute magnetization    =     3.37 Bohr mag/cell

     iteration #  9     ecut=    60.00 Ry     beta=0.20
     Davidson diagonalization with overlap
     ethr =  1.81E-07,  avg # of iterations =  1.7

     total cpu time spent up to now is      412.5 secs

     total energy              =    -343.62959649 Ry
     Harris-Foulkes estimate   =    -343.62961678 Ry
     estimated scf accuracy    <       0.00004161 Ry

     total magnetization       =     2.87 Bohr mag/cell
     absolute magnetization    =     3.32 Bohr mag/cell

     iteration # 10     ecut=    60.00 Ry     beta=0.20
     Davidson diagonalization with overlap
     ethr =  1.04E-07,  avg # of iterations =  1.0

     total cpu time spent up to now is      449.3 secs

     total energy              =    -343.62962042 Ry
     Harris-Foulkes estimate   =    -343.62961066 Ry
     estimated scf accuracy    <       0.00001596 Ry

     total magnetization       =     2.89 Bohr mag/cell
     absolute magnetization    =     3.33 Bohr mag/cell

     iteration # 11     ecut=    60.00 Ry     beta=0.20
     Davidson diagonalization with overlap
     ethr =  3.99E-08,  avg # of iterations =  1.0

     total cpu time spent up to now is      486.0 secs

     total energy              =    -343.62962784 Ry
     Harris-Foulkes estimate   =    -343.62962694 Ry
     estimated scf accuracy    <       0.00000234 Ry

     total magnetization       =     2.88 Bohr mag/cell
     absolute magnetization    =     3.31 Bohr mag/cell

     iteration # 12     ecut=    60.00 Ry     beta=0.20
     Davidson diagonalization with overlap
     ethr =  5.86E-09,  avg # of iterations =  1.1

     total cpu time spent up to now is      522.8 secs

     total energy              =    -343.62962923 Ry
     Harris-Foulkes estimate   =    -343.62962933 Ry
     estimated scf accuracy    <       0.00000038 Ry

     total magnetization       =     2.87 Bohr mag/cell
     absolute magnetization    =     3.30 Bohr mag/cell

     iteration # 13     ecut=    60.00 Ry     beta=0.20
     Davidson diagonalization with overlap
     ethr =  9.51E-10,  avg # of iterations =  1.7

     Magnetic moment per site:
     atom:    1    charge:    3.0543    magn:    0.3438    constr:    0.0000
     atom:    2    charge:    3.0526    magn:    0.3437    constr:    0.0000
     atom:    3    charge:    3.0543    magn:    0.3438    constr:    0.0000
     atom:    4    charge:    3.0543    magn:    0.3438    constr:    0.0000

     total cpu time spent up to now is      560.4 secs

     End of self-consistent calculation

 ------ SPIN UP ------------


          k = 0.0000 0.0000 0.0000 (  2325 PWs)   bands (ev):

     5.2288   9.4938   9.4938   9.4938   9.9343   9.9349   9.9349  11.6680
    11.6680  11.6680  12.8177  12.8177  13.5176  13.5176  13.5176  13.6032
    13.6032  13.6032  13.6035  13.6035  13.6035  16.7427  16.7430  16.7430
    23.3389  23.3389  23.3389  29.0912  29.0912  29.0912  29.0914  29.0914
    29.0915  34.1014  34.1014  34.1018  37.3458  37.3459  37.3459  38.0317
    41.8749  41.8749  41.8749  45.3830  45.3830  45.3830  47.5694  54.3400
    54.3400  54.3401  57.2496  58.5578

          k = 0.0000 0.0000 0.0473 (  2305 PWs)   bands (ev):

     5.5905   9.5131   9.6742   9.6742  10.0425  10.0576  10.0580  11.5430
    11.7678  11.7678  12.7025  12.8627  12.9704  12.9706  13.3678  13.3678
    13.4328  13.4328  13.4694  13.6038  13.6038  15.1468  17.6790  17.6792
    23.4378  23.4379  25.5826  27.3492  27.3495  27.9634  27.9635  29.6428
    29.6428  34.2199  36.2633  36.2635  37.3767  37.4764  39.2924  39.2925
    39.6484  39.6484  40.3559  46.8118  47.4726  47.4726  48.4055  50.8784
    55.3992  55.3993  55.9778  55.9782

          k = 0.0000 0.0000 0.0946 (  2316 PWs)   bands (ev):

     6.6278   9.2771  10.1020  10.1020  10.3424  10.4308  10.4315  11.2086
    11.9401  11.9408  12.0569  12.0569  12.4235  12.9887  12.9905  12.9905
    13.0033  13.0153  13.0153  13.3388  13.6043  13.6043  19.6088  19.6090
    23.7662  23.7662  24.5996  24.5996  26.1890  26.1890  29.8633  31.1977
    31.1977  34.5899  36.2198  36.4513  36.4513  37.8319  38.0183  40.2797
    40.2801  43.3964  43.4273  43.4274  50.2417  50.3920  50.3920  50.4106
    50.4106  54.3345  55.2814  55.2814

          k = 0.0000 0.0000-0.1419 (  2360 PWs)   bands (ev):

     8.1032   8.1259  10.3724  10.3724  10.7501  10.7819  11.0468  11.0471
    11.0785  11.0787  12.2295  12.2739  12.4851  12.4851  12.5090  12.5090
    12.7600  12.7600  13.1536  13.1712  13.6046  13.6046  21.9355  21.9356
    21.9917  21.9919  24.1630  24.1631  25.2227  25.2227  33.5224  33.5224
    33.5625  33.5625  34.3674  34.4497  35.2394  35.2580  39.5036  39.6343
    44.9891  44.9894  45.1023  45.1026  46.9027  46.9028  51.5754  51.5754
    53.4701  53.4701  53.5752  53.5752

          k = 0.0000 0.0473 0.0473 (  2309 PWs)   bands (ev):

     5.9438   9.7076   9.7076   9.8336  10.1566  10.1571  10.1704  11.4849
    11.8117  11.8284  12.6329  12.6671  12.6894  12.7017  12.8592  13.2435
    13.3644  13.3644  13.4312  13.4314  13.4912  16.0554  16.0554  18.4343
    23.4481  24.6341  25.7735  25.7738  27.8188  27.8188  28.4464  28.4470
    30.1617  35.4702  35.5989  36.4720  36.4724  36.7719  39.4615  39.4620
    40.7141  41.9445  42.9234  44.6222  45.6797  49.0062  49.8068  52.2831
    53.0104  54.6580  54.6591  55.6127

          k = 0.0000 0.0473 0.0946 (  2304 PWs)   bands (ev):

     6.9541   9.5095  10.1802  10.2280  10.4315  10.4838  10.5019  11.2118
    11.7071  11.8432  11.9549  12.0682  12.0957  12.5175  12.9286  12.9946
    13.0178  13.0350  13.1837  13.4270  13.4349  14.1034  17.6424  20.1896
    21.6670  24.1309  25.0541  26.0845  26.8876  29.1157  29.4123  29.4654
    30.4853  33.2001  33.9302  37.1243  38.0544  39.8308  40.0102  40.0861
    40.5346  43.3645  44.2794  46.3626  47.1620  47.9207  49.2225  50.6745
    52.2581  52.6002  54.0634  55.5551

          k = 0.0000 0.0473-0.1419 (  2312 PWs)   bands (ev):

     8.3824   8.4037  10.5204  10.5218  10.8002  10.8309  10.9207  10.9466
    11.0616  11.0923  11.8707  11.9035  12.4856  12.5099  12.7172  12.7278
    12.7452  12.7467  13.3413  13.3416  13.4233  13.4281  19.4747  19.5034
    22.4301  22.4808  24.9249  24.9619  27.8057  27.8173  30.9768  30.9945
    31.5013  31.5140  35.2388  35.3342  38.2671  38.2750  41.4784  41.5581
    42.4879  42.5165  45.2667  45.3738  49.3002  49.3977  49.6795  49.7248
    51.9261  51.9610  52.4863  52.5162

          k = 0.0000 0.0946 0.0946 (  2318 PWs)   bands (ev):

     7.8713  10.0872  10.0874  10.4492  10.6918  10.6931  10.7105  11.1444
    11.3847  11.3849  11.5358  11.8466  12.1954  12.4336  12.7186  12.8683
    12.8688  13.0040  13.0044  13.1696  13.3801  15.3280  15.3280  18.9092
    21.6946  24.6820  26.3093  26.3094  27.4156  27.4161  30.4793  31.1093
    31.1156  31.2274  33.0655  36.2829  40.9616  41.2935  41.2938  42.4382
    42.8503  43.1210  43.1211  46.4563  46.6543  47.7835  47.7844  50.9478
    51.5031  51.5320  52.4684  54.6637

          k = 0.0000 0.0946-0.1419 (  2306 PWs)   bands (ev):

     9.1196   9.1371  10.5390  10.5590  10.9224  10.9416  10.9571  10.9643
    11.0812  11.1099  11.5793  11.6008  12.5197  12.5357  12.5372  12.5435
    12.6039  12.6071  13.0305  13.0452  14.0253  14.0291  16.8297  16.8522
    23.7738  23.8125  25.7333  25.7632  28.1575  28.1765  29.0385  29.0415
    32.4123  32.4195  36.1862  36.2787  39.7703  39.7894  42.4546  42.4729
    42.5825  42.5912  46.0737  46.1610  47.1853  47.2379  49.7377  49.7860
    50.9648  51.0453  52.8754  52.8970

          k = 0.0000-0.1419-0.1419 (  2296 PWs)   bands (ev):

     9.9596   9.9747   9.9747   9.9892  11.0301  11.0574  11.0574  11.0845
    11.3547  11.3626  11.3626  11.3701  12.3912  12.3936  12.3936  12.3966
    12.6763  12.6989  12.6989  12.7212  15.0694  15.0800  15.0800  15.0908
    25.7169  25.7441  25.7441  25.7708  27.0759  27.0934  27.0934  27.1119
    37.2710  37.2967  37.2967  37.3237  37.9210  37.9541  37.9542  37.9828
    46.5749  46.5749  46.5762  46.5766  48.4719  48.5205  48.5206  48.5689
    51.0305  51.0339  51.0339  51.0366

          k = 0.0473 0.0473 0.0473 (  2298 PWs)   bands (ev):

     6.2857   9.8649   9.8650   9.8650  10.2683  10.2690  10.2690  11.4512
    11.8474  11.8474  12.3932  12.3932  12.3933  12.7744  12.7744  13.0155
    13.0160  13.0160  13.5441  13.5441  13.5442  16.6710  16.6712  16.6712
    24.8801  24.8803  24.8803  26.1044  26.1044  26.1048  30.6688  30.6692
    30.6692  32.9596  35.6021  35.6021  35.6025  38.7559  40.5180  40.5180
    42.1510  42.1511  42.1511  45.9789  47.0114  47.0114  50.8223  50.8223
    54.4868  54.5253  54.5263  54.5263

          k = 0.0473 0.0473 0.0946 (  2312 PWs)   bands (ev):

     7.2569   9.6658  10.2384  10.2388  10.5470  10.5762  10.5764  11.2477
    11.6975  11.6977  11.8835  11.9304  11.9843  12.6230  12.6908  12.7764
    12.7785  13.0084  13.4492  13.4493  13.4813  14.4608  17.9949  17.9950
    22.2749  22.2749  26.1511  26.7611  26.7612  29.8502  29.8504  30.2388
    30.4433  32.1271  36.0784  37.2593  37.2723  38.2137  38.2137  41.7453
    42.8374  43.8280  46.3352  46.3353  47.1845  48.4367  49.5252  49.5253
    50.0022  52.3479  52.3812  54.8104

          k = 0.0473 0.0473-0.1419 (  2306 PWs)   bands (ev):

     8.6091   8.6280  10.6123  10.6136  10.6770  10.6773  10.8959  10.9246
    11.3142  11.3143  11.7777  11.8099  12.2448  12.2558  12.6131  12.6135
    13.1633  13.1859  13.2742  13.2791  13.3948  13.3949  19.1395  19.1396
    20.7159  20.7160  27.7370  27.7415  27.9498  27.9659  28.4072  28.4140
    34.3664  34.4001  34.8808  34.9458  37.4625  37.5305  41.6078  41.6079
    44.0542  44.0894  44.7339  44.7343  48.8114  48.8619  50.2180  50.2358
    51.4393  51.4395  52.9809  52.9914

          k = 0.0473 0.0946 0.0946 (  2322 PWs)   bands (ev):

     8.0889   9.9782   9.9786  10.2613  10.8590  10.9018  10.9022  11.2920
    11.4983  11.4985  11.6291  11.8483  11.9698  12.4359  12.4364  12.4530
    12.7482  13.2881  13.3529  13.3699  13.3719  15.4604  15.4605  18.2542
    20.3728  23.4550  23.4550  27.4482  27.5767  30.6436  30.6438  31.5789
    31.5793  33.4733  34.7088  36.3563  38.7458  38.7461  39.6112  42.3602
    43.1182  44.1742  45.8093  45.8093  48.4878  48.4882  49.7489  49.9106
    50.2274  50.8619  51.5907  52.2445

          k = 0.0473 0.0946-0.1419 (  2316 PWs)   bands (ev):

     9.1598   9.1717  10.1939  10.1975  11.0663  11.0674  11.1972  11.2204
    11.5014  11.5111  11.6140  11.6352  12.1115  12.1195  12.3191  12.3242
    13.0327  13.0417  13.2535  13.2628  13.9352  13.9386  16.8167  16.8351
    21.3769  21.3916  25.1922  25.2030  28.9392  28.9468  32.5178  32.5227
    32.7132  32.7200  36.3138  36.3902  39.5531  39.5704  39.8410  39.8540
    44.5550  44.5615  45.0252  45.0607  47.0320  47.0504  49.8439  49.8742
    51.1000  51.1182  53.1371  53.1658

          k = 0.0473-0.1419-0.1419 (  2332 PWs)   bands (ev):

     9.7274   9.7328   9.7328   9.7374  11.4379  11.4457  11.4457  11.4527
    11.5178  11.5331  11.5331  11.5489  12.0804  12.0881  12.0881  12.0960
    13.0055  13.0196  13.0196  13.0338  14.9847  14.9964  14.9964  15.0082
    22.9924  23.0039  23.0039  23.0154  30.4661  30.4683  30.4683  30.4710
    37.5516  37.5722  37.5722  37.5982  37.7770  37.8080  37.8080  37.8311
    46.0259  46.0259  46.0300  46.0337  46.0617  46.0929  46.0929  46.1127
    54.0014  54.0193  54.0194  54.0441

          k = 0.0946 0.0946 0.0946 (  2329 PWs)   bands (ev):

     8.6326   9.8166   9.8172   9.8172  11.2527  11.2533  11.2533  11.7524
    11.8039  11.8039  11.8139  11.8229  11.8229  12.0912  12.0912  12.0917
    13.1396  13.1396  13.4943  13.4943  13.4945  15.8440  15.8442  15.8442
    20.9743  20.9743  20.9744  24.6861  31.9916  31.9916  31.9920  34.6847
    34.6850  34.6850  36.7183  36.7183  36.7189  37.3225  39.3287  39.3287
    43.8078  43.8078  47.0932  47.4185  47.4185  47.4202  47.4658  47.4660
    47.4660  51.6982  51.6989  51.6991

          k = 0.0946 0.0946-0.1419 (  2322 PWs)   bands (ev):

     9.2559   9.2593   9.7498   9.7502  11.3685  11.3688  11.6378  11.6555
    11.8555  11.8580  11.9698  11.9746  11.9871  12.0046  12.0912  12.0919
    13.4156  13.4175  13.4244  13.4259  13.8343  13.8356  16.1347  16.1348
    19.9443  19.9444  22.5146  22.5256  32.9194  32.9195  34.0586  34.0591
    35.8356  35.8670  36.6518  36.6699  38.3528  38.4068  38.8754  38.8755
    44.0027  44.0030  44.2645  44.2909  45.3588  45.3647  47.8924  47.8924
    48.8840  48.8956  52.2398  52.2416

          k = 0.0946-0.1419-0.1419 (  2324 PWs)   bands (ev):

     9.4337   9.4344   9.4344   9.4344  11.6020  11.6069  11.6069  11.6112
    11.7863  11.7911  11.7911  11.7963  12.5211  12.5311  12.5311  12.5412
    13.3393  13.3470  13.3470  13.3548  14.6264  14.6396  14.6397  14.6529
    20.6465  20.6557  20.6557  20.6650  34.6421  34.6453  34.6453  34.6488
    37.6577  37.6718  37.6718  37.6867  38.3182  38.3341  38.3341  38.3472
    43.4385  43.4502  43.4502  43.4612  44.5163  44.5190  44.5190  44.5212
    49.6868  49.6917  49.6918  49.6979

          k =-0.1419-0.1419-0.1419 (  2320 PWs)   bands (ev):

     9.3210   9.3217   9.3217   9.3217  11.6821  11.6821  11.6821  11.6823
    11.6823  11.6828  11.6828  11.6828  13.4700  13.4700  13.4700  13.4710
    13.4710  13.4711  13.4711  13.4711  14.0046  14.0054  14.0054  14.0054
    19.7739  19.7739  19.7739  19.7741  36.4958  36.4960  36.4960  36.4960
    38.9594  38.9594  38.9596  38.9596  38.9596  38.9605  38.9605  38.9605
    42.1752  42.1752  42.1755  42.1755  42.1755  42.1759  42.1759  42.1759
    48.0450  48.0450  48.0450  48.0453

          k =-0.0473 0.0000 0.0473 (  2309 PWs)   bands (ev):

     5.9438   9.7076   9.7076   9.8336  10.1566  10.1571  10.1704  11.4849
    11.8117  11.8284  12.6329  12.6671  12.6894  12.7017  12.8592  13.2435
    13.3643  13.3644  13.4312  13.4314  13.4912  16.0554  16.0554  18.4343
    23.4481  24.6341  25.7735  25.7738  27.8188  27.8188  28.4464  28.4470
    30.1617  35.4702  35.5989  36.4720  36.4724  36.7719  39.4614  39.4621
    40.7141  41.9445  42.9234  44.6222  45.6797  49.0062  49.8068  52.2831
    53.0104  54.6580  54.6591  55.6127

          k =-0.0473 0.0000 0.0946 (  2304 PWs)   bands (ev):

     6.9541   9.5095  10.1802  10.2280  10.4315  10.4838  10.5019  11.2118
    11.7071  11.8432  11.9549  12.0682  12.0957  12.5175  12.9286  12.9946
    13.0178  13.0350  13.1837  13.4270  13.4349  14.1034  17.6424  20.1896
    21.6670  24.1309  25.0541  26.0845  26.8876  29.1157  29.4123  29.4654
    30.4853  33.2001  33.9302  37.1243  38.0544  39.8308  40.0102  40.0861
    40.5346  43.3645  44.2794  46.3626  47.1620  47.9207  49.2225  50.6745
    52.2581  52.6002  54.0634  55.5551

          k =-0.0946 0.0000 0.0946 (  2318 PWs)   bands (ev):

     7.8713  10.0873  10.0874  10.4492  10.6918  10.6931  10.7105  11.1444
    11.3847  11.3849  11.5358  11.8466  12.1954  12.4336  12.7186  12.8683
    12.8688  13.0040  13.0044  13.1696  13.3801  15.3280  15.3280  18.9092
    21.6946  24.6820  26.3093  26.3094  27.4155  27.4162  30.4793  31.1093
    31.1156  31.2274  33.0655  36.2829  40.9616  41.2935  41.2938  42.4382
    42.8503  43.1210  43.1210  46.4563  46.6543  47.7836  47.7844  50.9478
    51.5031  51.5320  52.4684  54.6605

          k = 0.0473-0.0473 0.0473 (  2298 PWs)   bands (ev):

     6.2857   9.8649   9.8650   9.8650  10.2683  10.2690  10.2690  11.4512
    11.8474  11.8474  12.3932  12.3932  12.3934  12.7744  12.7744  13.0155
    13.0160  13.0160  13.5441  13.5441  13.5442  16.6710  16.6711  16.6712
    24.8801  24.8803  24.8803  26.1044  26.1044  26.1048  30.6689  30.6692
    30.6692  32.9596  35.6021  35.6021  35.6026  38.7559  40.5180  40.5180
    42.1510  42.1511  42.1511  45.9789  47.0114  47.0114  50.8223  50.8223
    54.4868  54.5251  54.5262  54.5264

          k = 0.0473-0.0473 0.0946 (  2312 PWs)   bands (ev):

     7.2569   9.6658  10.2384  10.2388  10.5470  10.5762  10.5764  11.2477
    11.6975  11.6977  11.8835  11.9304  11.9843  12.6230  12.6908  12.7764
    12.7785  13.0084  13.4492  13.4493  13.4813  14.4608  17.9949  17.9950
    22.2749  22.2749  26.1511  26.7611  26.7612  29.8502  29.8504  30.2388
    30.4433  32.1271  36.0784  37.2593  37.2723  38.2137  38.2138  41.7453
    42.8374  43.8280  46.3352  46.3353  47.1845  48.4367  49.5251  49.5253
    50.0022  52.3479  52.3813  54.8105

          k =-0.0946 0.0473 0.0473 (  2312 PWs)   bands (ev):

     7.2569   9.6658  10.2384  10.2388  10.5470  10.5762  10.5764  11.2477
    11.6975  11.6977  11.8835  11.9304  11.9843  12.6230  12.6908  12.7764
    12.7785  13.0084  13.4492  13.4493  13.4813  14.4608  17.9949  17.9950
    22.2749  22.2749  26.1511  26.7611  26.7612  29.8502  29.8504  30.2388
    30.4433  32.1271  36.0784  37.2593  37.2723  38.2137  38.2137  41.7453
    42.8374  43.8280  46.3352  46.3353  47.1845  48.4367  49.5252  49.5253
    50.0022  52.3479  52.3812  54.8107

          k = 0.0473-0.0473-0.1419 (  2306 PWs)   bands (ev):

     8.6091   8.6280  10.6123  10.6137  10.6770  10.6773  10.8959  10.9246
    11.3142  11.3143  11.7777  11.8099  12.2448  12.2558  12.6131  12.6135
    13.1633  13.1859  13.2742  13.2791  13.3948  13.3949  19.1396  19.1396
    20.7159  20.7160  27.7371  27.7415  27.9497  27.9659  28.4073  28.4140
    34.3664  34.4001  34.8808  34.9458  37.4625  37.5305  41.6078  41.6079
    44.0542  44.0894  44.7339  44.7343  48.8114  48.8619  50.2180  50.2358
    51.4392  51.4395  52.9810  52.9915

          k = 0.0946-0.0473 0.0946 (  2322 PWs)   bands (ev):

     8.0889   9.9782   9.9785  10.2613  10.8590  10.9018  10.9022  11.2920
    11.4983  11.4985  11.6291  11.8483  11.9698  12.4359  12.4364  12.4530
    12.7482  13.2881  13.3529  13.3699  13.3719  15.4604  15.4605  18.2542
    20.3728  23.4550  23.4550  27.4482  27.5767  30.6436  30.6438  31.5789
    31.5793  33.4733  34.7088  36.3563  38.7458  38.7461  39.6112  42.3602
    43.1182  44.1742  45.8093  45.8093  48.4878  48.4882  49.7489  49.9106
    50.2275  50.8619  51.5907  52.2446

          k =-0.0946 0.0473 0.0946 (  2322 PWs)   bands (ev):

     8.0889   9.9782   9.9786  10.2613  10.8590  10.9018  10.9022  11.2920
    11.4983  11.4986  11.6291  11.8483  11.9698  12.4359  12.4364  12.4530
    12.7482  13.2881  13.3529  13.3699  13.3719  15.4605  15.4605  18.2542
    20.3728  23.4550  23.4550  27.4482  27.5767  30.6436  30.6438  31.5789
    31.5793  33.4733  34.7088  36.3563  38.7458  38.7461  39.6112  42.3602
    43.1182  44.1742  45.8093  45.8093  48.4878  48.4882  49.7489  49.9106
    50.2274  50.8620  51.5907  52.2441

          k = 0.0946-0.0473-0.1419 (  2316 PWs)   bands (ev):

     9.1598   9.1717  10.1939  10.1975  11.0663  11.0674  11.1972  11.2204
    11.5014  11.5111  11.6140  11.6352  12.1115  12.1195  12.3191  12.3242
    13.0327  13.0417  13.2535  13.2628  13.9352  13.9386  16.8167  16.8351
    21.3769  21.3916  25.1922  25.2030  28.9392  28.9468  32.5178  32.5227
    32.7132  32.7200  36.3138  36.3902  39.5531  39.5704  39.8410  39.8540
    44.5550  44.5615  45.0252  45.0607  47.0320  47.0504  49.8440  49.8742
    51.1000  51.1182  53.1371  53.1657

          k = 0.0946-0.0946 0.0946 (  2329 PWs)   bands (ev):

     8.6326   9.8166   9.8172   9.8172  11.2527  11.2532  11.2533  11.7524
    11.8039  11.8039  11.8139  11.8229  11.8229  12.0912  12.0912  12.0917
    13.1396  13.1396  13.4943  13.4943  13.4945  15.8440  15.8441  15.8442
    20.9743  20.9743  20.9744  24.6861  31.9916  31.9916  31.9920  34.6847
    34.6850  34.6850  36.7183  36.7183  36.7189  37.3225  39.3287  39.3287
    43.8078  43.8078  47.0932  47.4185  47.4185  47.4203  47.4658  47.4660
    47.4660  51.6982  51.6988  51.6990

          k = 0.0946-0.0946-0.1419 (  2322 PWs)   bands (ev):

     9.2559   9.2593   9.7498   9.7502  11.3685  11.3688  11.6378  11.6555
    11.8555  11.8580  11.9698  11.9746  11.9871  12.0046  12.0912  12.0919
    13.4156  13.4175  13.4244  13.4259  13.8343  13.8356  16.1348  16.1348
    19.9443  19.9444  22.5146  22.5256  32.9193  32.9195  34.0586  34.0591
    35.8356  35.8670  36.6518  36.6699  38.3528  38.4068  38.8754  38.8755
    44.0027  44.0030  44.2645  44.2909  45.3588  45.3647  47.8924  47.8924
    48.8840  48.8956  52.2398  52.2416

 ------ SPIN DOWN ----------


          k = 0.0000 0.0000 0.0000 (  2325 PWs)   bands (ev):

     5.1726   9.9641   9.9641   9.9641  10.6610  10.6618  10.6618  12.5572
    12.5572  12.5572  13.6079  13.6079  14.3421  14.3421  14.3421  14.6212
    14.6212  14.6212  14.6216  14.6216  14.6216  16.6616  16.6619  16.6619
    23.6460  23.6460  23.6460  29.0763  29.0764  29.0764  29.0767  29.0767
    29.0767  34.2634  34.2634  34.2637  37.4880  37.4882  37.4882  37.8218
    41.8475  41.8475  41.8475  45.4540  45.4540  45.4540  47.4059  54.5234
    54.5234  54.5235  58.5863  58.5873

          k = 0.0000 0.0000 0.0473 (  2305 PWs)   bands (ev):

     5.5342   9.9355  10.1547  10.1547  10.7781  10.7818  10.7823  12.4189
    12.6610  12.6610  13.4830  13.6548  13.8004  13.8009  14.1793  14.1793
    14.2914  14.4337  14.4337  14.6218  14.6218  15.2180  17.7821  17.7824
    23.7297  23.7297  25.7842  27.4165  27.4168  27.9900  27.9901  29.6443
    29.6443  34.3692  36.3420  36.3423  37.2352  37.6161  39.4105  39.4106
    39.6920  39.6920  40.2868  46.8292  47.4447  47.4447  48.4826  50.8547
    55.6061  55.6061  55.9013  55.9019

          k = 0.0000 0.0000 0.0946 (  2316 PWs)   bands (ev):

     6.5758   9.4861  10.6076  10.6076  11.1036  11.1495  11.1504  12.0503
    12.6782  12.6791  12.9632  12.9632  13.1696  13.3834  13.7772  13.7772
    13.7872  13.9714  13.9714  14.1543  14.6224  14.6224  19.7914  19.7917
    24.0130  24.0130  24.7386  24.7387  26.2867  26.2867  29.9585  31.2335
    31.2335  34.7013  36.1828  36.5224  36.5224  37.7404  38.1618  40.2832
    40.2836  43.5249  43.5250  43.6137  50.1936  50.3125  50.3125  50.3164
    50.3164  54.2235  55.5008  55.5008

          k = 0.0000 0.0000-0.1419 (  2360 PWs)   bands (ev):

     8.0946   8.1180  10.8939  10.8939  11.5478  11.5819  11.7642  11.7649
    11.7967  11.7973  12.8858  12.9345  13.4133  13.4133  13.4381  13.4381
    13.5200  13.5201  13.9601  13.9784  14.6227  14.6227  22.1145  22.1147
    22.1720  22.1722  24.3586  24.3586  25.3811  25.3811  33.5866  33.5866
    33.6266  33.6266  34.3451  34.4297  35.2865  35.3089  39.6934  39.8263
    44.9414  44.9417  45.0575  45.0578  46.9759  46.9760  51.7534  51.7534
    53.3563  53.3563  53.4614  53.4614

          k = 0.0000 0.0473 0.0473 (  2309 PWs)   bands (ev):

     5.8885  10.1429  10.1429  10.3333  10.8785  10.8892  10.8898  12.3471
    12.7103  12.7144  13.4073  13.4311  13.4470  13.4739  13.6566  14.0446
    14.1674  14.1675  14.4324  14.4326  14.5019  16.3698  16.3699  18.5966
    23.7094  24.7612  25.9619  25.9622  27.9003  27.9003  28.4866  28.4873
    30.1717  35.5717  35.5917  36.5405  36.5409  36.7904  39.5776  39.5782
    40.6301  42.0296  42.8947  44.5613  45.7389  49.1612  49.7288  52.4582
    52.9596  54.6143  54.6155  55.5500

          k = 0.0000 0.0473 0.0946 (  2304 PWs)   bands (ev):

     6.9068   9.7333  10.6505  10.7697  11.1535  11.1881  11.2273  12.0427
    12.4070  12.5733  12.7561  12.8079  12.9790  13.2921  13.7040  13.7857
    13.8545  13.9401  13.9698  14.4290  14.4398  14.8196  17.9813  20.3911
    21.8642  24.3597  25.2040  26.2178  27.0132  29.2225  29.4741  29.5332
    30.5830  33.2771  33.9731  37.1644  38.0911  39.7809  39.9553  40.2034
    40.5324  43.4455  44.4845  46.4265  47.0810  47.9004  49.2035  50.5976
    52.2104  52.5057  54.2677  55.7840

          k = 0.0000 0.0473-0.1419 (  2312 PWs)   bands (ev):

     8.3858   8.4081  11.0319  11.0347  11.5831  11.6134  11.6138  11.6413
    11.7819  11.8136  12.6189  12.6568  13.4164  13.4408  13.4960  13.5021
    13.5103  13.5130  14.1892  14.1903  14.4258  14.4312  19.7555  19.7846
    22.6210  22.6721  25.0945  25.1346  27.9209  27.9349  31.0900  31.1059
    31.5597  31.5708  35.2632  35.3585  38.2679  38.2737  41.6276  41.7101
    42.4782  42.5102  45.2156  45.3253  49.3647  49.4604  49.6093  49.6550
    51.8389  51.8752  52.6419  52.6714

          k = 0.0000 0.0946 0.0946 (  2318 PWs)   bands (ev):

     7.8475  10.3633  10.3635  11.1214  11.2036  11.4360  11.4375  11.9473
    12.0873  12.0874  12.2568  12.6473  13.1192  13.1910  13.4827  13.6166
    13.6172  13.9732  13.9734  14.1590  14.2321  15.9384  15.9385  19.2169
    21.9115  24.8805  26.4741  26.4742  27.5161  27.5167  30.6086  31.1967
    31.2038  31.2957  33.1172  36.3173  40.8949  41.2738  41.2741  42.4752
    42.7307  43.1629  43.1630  46.5742  46.6819  47.8245  47.8254  51.0027
    51.4072  51.4555  52.6580  54.5534

          k = 0.0000 0.0946-0.1419 (  2306 PWs)   bands (ev):

     9.1791   9.1982  10.9648  10.9847  11.5983  11.5999  11.6982  11.7283
    11.8103  11.8403  12.3247  12.3486  13.2809  13.2815  13.3501  13.3535
    13.4666  13.4923  14.0071  14.0230  14.8398  14.8445  17.2965  17.3185
    23.9773  24.0151  25.8832  25.9160  28.3188  28.3358  29.1274  29.1319
    32.4823  32.4916  36.2133  36.3061  39.7689  39.7860  42.3998  42.4168
    42.6005  42.6082  46.0094  46.0985  47.2631  47.3181  49.6817  49.7313
    51.0808  51.1609  52.7880  52.8084

          k = 0.0000-0.1419-0.1419 (  2296 PWs)   bands (ev):

    10.1783  10.1953  10.1953  10.2118  11.7744  11.8037  11.8037  11.8324
    12.0327  12.0418  12.0418  12.0507  13.1391  13.1419  13.1419  13.1454
    13.6327  13.6564  13.6564  13.6801  15.7595  15.7686  15.7686  15.7775
    25.9113  25.9369  25.9370  25.9620  27.1969  27.2165  27.2166  27.2373
    37.3455  37.3702  37.3702  37.3970  37.8873  37.9188  37.9188  37.9451
    46.4529  46.4529  46.4530  46.4561  48.4578  48.5077  48.5078  48.5574
    51.1284  51.1344  51.1344  51.1396

          k = 0.0473 0.0473 0.0473 (  2298 PWs)   bands (ev):

     6.2332  10.3275  10.3276  10.3276  10.9772  10.9782  10.9782  12.2936
    12.7342  12.7342  13.1130  13.1130  13.1130  13.5710  13.5710  13.8565
    13.8571  13.8571  14.5014  14.5014  14.5018  17.0123  17.0126  17.0126
    25.0099  25.0101  25.0101  26.2777  26.2777  26.2781  30.6896  30.6901
    30.6901  33.0256  35.6957  35.6957  35.6960  38.5975  40.5716  40.5716
    42.2329  42.2329  42.2329  45.8878  46.9654  46.9654  50.9885  50.9885
    54.4765  54.4776  54.4776  54.8093

          k = 0.0473 0.0473 0.0946 (  2312 PWs)   bands (ev):

     7.2201   9.9301  10.7788  10.7790  11.2118  11.2126  11.2685  12.0524
    12.4087  12.4088  12.5683  12.7670  12.8537  13.4787  13.5096  13.5734
    13.5765  13.8408  14.3917  14.4213  14.4219  15.0976  18.3219  18.3221
    22.4839  22.4839  26.2938  26.9095  26.9096  29.9241  29.9244  30.3517
    30.5303  32.1726  36.1515  37.1767  37.3362  38.2428  38.2428  41.7555
    42.9152  43.8418  46.3779  46.3780  47.2244  48.3811  49.5105  49.5108
    50.0038  52.2723  52.3404  54.9240

          k = 0.0473 0.0473-0.1419 (  2306 PWs)   bands (ev):

     8.6412   8.6618  11.1999  11.2001  11.2598  11.2610  11.6542  11.6855
    12.0368  12.0372  12.5353  12.5712  13.1057  13.1147  13.3870  13.3874
    13.9765  14.0007  14.1464  14.1489  14.3752  14.3754  19.3956  19.3957
    21.0199  21.0199  27.8506  27.8548  28.0903  28.1055  28.5218  28.5292
    34.4352  34.4684  34.8513  34.9185  37.5398  37.6083  41.5880  41.5881
    44.1367  44.1750  44.7217  44.7221  48.7286  48.7792  50.1715  50.1894
    51.4711  51.4713  53.1390  53.1559

          k = 0.0473 0.0946 0.0946 (  2322 PWs)   bands (ev):

     8.0989  10.3743  10.3746  10.8870  11.3753  11.5121  11.5130  12.0277
    12.2275  12.2279  12.3498  12.6584  12.8036  13.2439  13.2455  13.2495
    13.6010  14.1468  14.2903  14.2924  14.3112  16.0182  16.0184  18.5277
    20.7172  23.6705  23.6706  27.6047  27.7077  30.7060  30.7062  31.6712
    31.6717  33.5272  34.7352  36.3801  38.7593  38.7596  39.5302  42.4757
    43.1076  44.1187  45.8024  45.8025  48.5384  48.5389  49.6799  49.8933
    50.2033  50.9323  51.6475  52.1684

          k = 0.0473 0.0946-0.1419 (  2316 PWs)   bands (ev):

     9.3062   9.3217  10.7329  10.7398  11.6293  11.6325  11.8506  11.8771
    12.2028  12.2150  12.3821  12.4059  12.9262  12.9323  13.1040  13.1082
    13.9053  13.9184  14.1977  14.2083  14.7361  14.7408  17.2296  17.2472
    21.6769  21.6901  25.3915  25.4007  29.0378  29.0477  32.5756  32.5782
    32.7803  32.7892  36.3265  36.4021  39.5367  39.5526  39.8616  39.8757
    44.5413  44.5469  45.0149  45.0525  47.0100  47.0312  49.8788  49.9090
    51.0382  51.0556  53.2157  53.2527

          k = 0.0473-0.1419-0.1419 (  2332 PWs)   bands (ev):

    10.0817  10.0915  10.0915  10.1006  12.0137  12.0268  12.0268  12.0396
    12.2280  12.2437  12.2437  12.2593  12.8684  12.8751  12.8751  12.8823
    13.9244  13.9407  13.9407  13.9572  15.6380  15.6479  15.6479  15.6575
    23.2505  23.2602  23.2603  23.2699  30.5461  30.5504  30.5504  30.5553
    37.6243  37.6402  37.6402  37.6695  37.7275  37.7608  37.7609  37.7781
    45.9590  45.9591  45.9608  45.9630  46.0845  46.1145  46.1145  46.1395
    54.0623  54.0811  54.0812  54.1083

          k = 0.0946 0.0946 0.0946 (  2329 PWs)   bands (ev):

     8.7638  10.3314  10.3320  10.3320  11.8211  11.8217  11.8217  12.2851
    12.4989  12.4989  12.5008  12.6264  12.6264  12.8919  12.8919  12.8924
    14.0301  14.0301  14.4311  14.4311  14.4315  16.2723  16.2726  16.2726
    21.3125  21.3125  21.3126  24.9100  32.0380  32.0380  32.0384  34.7454
    34.7459  34.7459  36.7289  36.7289  36.7295  37.1478  39.4148  39.4148
    43.8164  43.8164  47.1069  47.3642  47.3642  47.3662  47.4666  47.4669
    47.4669  51.7277  51.7283  51.7283

          k = 0.0946 0.0946-0.1419 (  2322 PWs)   bands (ev):

     9.5871   9.5946  10.2937  10.2941  12.0103  12.0107  12.3064  12.3239
    12.5448  12.5669  12.6571  12.6590  12.6999  12.6999  12.7628  12.7630
    14.3338  14.3366  14.3618  14.3629  14.5556  14.5595  16.4645  16.4646
    20.3832  20.3833  22.8036  22.8131  32.9265  32.9266  34.1444  34.1450
    35.7240  35.7572  36.7243  36.7413  38.4331  38.4867  38.8479  38.8480
    44.0283  44.0286  44.2388  44.2655  45.3660  45.3733  47.8500  47.8501
    48.9359  48.9472  52.3406  52.3424

          k = 0.0946-0.1419-0.1419 (  2324 PWs)   bands (ev):

     9.9068   9.9094   9.9094   9.9112  12.3452  12.3497  12.3498  12.3541
    12.5721  12.5766  12.5766  12.5816  12.9686  12.9804  12.9805  12.9923
    14.2657  14.2743  14.2743  14.2832  15.1610  15.1719  15.1719  15.1824
    21.0409  21.0487  21.0487  21.0566  34.6159  34.6215  34.6215  34.6274
    37.6231  37.6357  37.6357  37.6492  38.3882  38.4032  38.4032  38.4156
    43.4681  43.4812  43.4812  43.4938  44.5065  44.5099  44.5100  44.5130
    49.7733  49.7783  49.7783  49.7847

          k =-0.1419-0.1419-0.1419 (  2320 PWs)   bands (ev):

     9.8275   9.8282   9.8282   9.8283  12.4646  12.4646  12.4646  12.4650
    12.4650  12.4653  12.4653  12.4653  13.9019  13.9020  13.9020  13.9030
    14.4035  14.4035  14.4039  14.4039  14.4039  14.4043  14.4043  14.4043
    20.2587  20.2587  20.2587  20.2588  36.3078  36.3080  36.3080  36.3080
    39.0298  39.0298  39.0298  39.0299  39.0299  39.0308  39.0308  39.0309
    42.2045  42.2045  42.2046  42.2047  42.2047  42.2051  42.2051  42.2051
    48.1558  48.1558  48.1558  48.1563

          k =-0.0473 0.0000 0.0473 (  2309 PWs)   bands (ev):

     5.8885  10.1429  10.1429  10.3333  10.8785  10.8892  10.8898  12.3471
    12.7103  12.7144  13.4073  13.4311  13.4470  13.4739  13.6566  14.0446
    14.1674  14.1675  14.4324  14.4326  14.5019  16.3698  16.3699  18.5966
    23.7094  24.7612  25.9619  25.9622  27.9002  27.9003  28.4866  28.4873
    30.1717  35.5717  35.5917  36.5405  36.5409  36.7904  39.5775  39.5783
    40.6301  42.0296  42.8947  44.5613  45.7389  49.1612  49.7288  52.4582
    52.9596  54.6143  54.6155  55.5500

          k =-0.0473 0.0000 0.0946 (  2304 PWs)   bands (ev):

     6.9068   9.7333  10.6505  10.7697  11.1535  11.1881  11.2273  12.0427
    12.4070  12.5733  12.7561  12.8079  12.9790  13.2921  13.7040  13.7857
    13.8545  13.9401  13.9698  14.4290  14.4398  14.8196  17.9813  20.3911
    21.8642  24.3597  25.2040  26.2178  27.0132  29.2225  29.4741  29.5332
    30.5830  33.2771  33.9731  37.1644  38.0911  39.7809  39.9553  40.2034
    40.5324  43.4455  44.4845  46.4265  47.0810  47.9004  49.2035  50.5976
    52.2104  52.5057  54.2677  55.7841

          k =-0.0946 0.0000 0.0946 (  2318 PWs)   bands (ev):

     7.8475  10.3633  10.3635  11.1214  11.2036  11.4359  11.4375  11.9473
    12.0873  12.0874  12.2568  12.6473  13.1192  13.1910  13.4827  13.6166
    13.6172  13.9732  13.9734  14.1590  14.2321  15.9384  15.9385  19.2169
    21.9115  24.8805  26.4740  26.4742  27.5160  27.5168  30.6086  31.1967
    31.2038  31.2957  33.1172  36.3173  40.8949  41.2738  41.2741  42.4752
    42.7307  43.1629  43.1630  46.5742  46.6819  47.8245  47.8254  51.0027
    51.4072  51.4555  52.6580  54.5625

          k = 0.0473-0.0473 0.0473 (  2298 PWs)   bands (ev):

     6.2332  10.3275  10.3276  10.3276  10.9772  10.9782  10.9782  12.2936
    12.7342  12.7342  13.1130  13.1130  13.1130  13.5710  13.5710  13.8565
    13.8571  13.8571  14.5014  14.5014  14.5018  17.0123  17.0125  17.0126
    25.0099  25.0101  25.0101  26.2777  26.2777  26.2781  30.6897  30.6900
    30.6901  33.0256  35.6956  35.6957  35.6961  38.5975  40.5716  40.5716
    42.2328  42.2329  42.2330  45.8878  46.9654  46.9654  50.9885  50.9885
    54.4765  54.4776  54.4776  54.8091

          k = 0.0473-0.0473 0.0946 (  2312 PWs)   bands (ev):

     7.2201   9.9301  10.7788  10.7790  11.2118  11.2126  11.2685  12.0524
    12.4087  12.4088  12.5683  12.7670  12.8537  13.4787  13.5096  13.5734
    13.5765  13.8408  14.3917  14.4213  14.4219  15.0976  18.3219  18.3221
    22.4839  22.4839  26.2938  26.9095  26.9096  29.9241  29.9244  30.3517
    30.5303  32.1726  36.1515  37.1767  37.3362  38.2428  38.2428  41.7555
    42.9152  43.8418  46.3779  46.3780  47.2244  48.3811  49.5105  49.5108
    50.0038  52.2723  52.3404  54.9241

          k =-0.0946 0.0473 0.0473 (  2312 PWs)   bands (ev):

     7.2201   9.9301  10.7788  10.7790  11.2118  11.2126  11.2685  12.0524
    12.4087  12.4088  12.5683  12.7670  12.8537  13.4787  13.5096  13.5734
    13.5765  13.8408  14.3917  14.4213  14.4219  15.0976  18.3219  18.3221
    22.4839  22.4839  26.2938  26.9095  26.9096  29.9241  29.9244  30.3517
    30.5303  32.1726  36.1515  37.1767  37.3362  38.2428  38.2428  41.7555
    42.9152  43.8418  46.3779  46.3780  47.2244  48.3811  49.5105  49.5108
    50.0038  52.2723  52.3404  54.9243

          k = 0.0473-0.0473-0.1419 (  2306 PWs)   bands (ev):

     8.6412   8.6618  11.2000  11.2001  11.2598  11.2611  11.6542  11.6855
    12.0368  12.0372  12.5353  12.5712  13.1057  13.1147  13.3869  13.3874
    13.9765  14.0007  14.1464  14.1489  14.3752  14.3754  19.3956  19.3957
    21.0199  21.0199  27.8507  27.8548  28.0902  28.1055  28.5218  28.5292
    34.4352  34.4684  34.8513  34.9185  37.5398  37.6083  41.5879  41.5881
    44.1367  44.1750  44.7217  44.7221  48.7286  48.7792  50.1715  50.1894
    51.4711  51.4714  53.1389  53.1559

          k = 0.0946-0.0473 0.0946 (  2322 PWs)   bands (ev):

     8.0989  10.3743  10.3746  10.8870  11.3753  11.5121  11.5130  12.0277
    12.2275  12.2279  12.3498  12.6584  12.8036  13.2439  13.2455  13.2495
    13.6010  14.1468  14.2903  14.2924  14.3112  16.0182  16.0184  18.5277
    20.7172  23.6705  23.6706  27.6047  27.7077  30.7060  30.7062  31.6712
    31.6717  33.5272  34.7352  36.3801  38.7593  38.7596  39.5302  42.4757
    43.1076  44.1187  45.8024  45.8025  48.5384  48.5389  49.6799  49.8933
    50.2033  50.9323  51.6475  52.1692

          k =-0.0946 0.0473 0.0946 (  2322 PWs)   bands (ev):

     8.0989  10.3743  10.3746  10.8869  11.3753  11.5121  11.5130  12.0277
    12.2275  12.2279  12.3498  12.6584  12.8036  13.2439  13.2455  13.2495
    13.6010  14.1468  14.2903  14.2924  14.3112  16.0182  16.0184  18.5277
    20.7172  23.6705  23.6706  27.6047  27.7077  30.7060  30.7062  31.6713
    31.6717  33.5272  34.7352  36.3801  38.7593  38.7596  39.5302  42.4757
    43.1076  44.1187  45.8025  45.8025  48.5384  48.5389  49.6799  49.8933
    50.2033  50.9323  51.6475  52.1685

          k = 0.0946-0.0473-0.1419 (  2316 PWs)   bands (ev):

     9.3062   9.3217  10.7329  10.7398  11.6293  11.6325  11.8506  11.8771
    12.2028  12.2150  12.3821  12.4059  12.9262  12.9323  13.1040  13.1082
    13.9053  13.9184  14.1977  14.2083  14.7361  14.7408  17.2296  17.2472
    21.6769  21.6901  25.3915  25.4007  29.0378  29.0477  32.5756  32.5782
    32.7803  32.7892  36.3265  36.4021  39.5367  39.5526  39.8616  39.8757
    44.5413  44.5469  45.0149  45.0525  47.0100  47.0312  49.8788  49.9090
    51.0382  51.0556  53.2152  53.2490

          k = 0.0946-0.0946 0.0946 (  2329 PWs)   bands (ev):

     8.7638  10.3314  10.3320  10.3321  11.8211  11.8217  11.8217  12.2851
    12.4989  12.4989  12.5008  12.6264  12.6264  12.8919  12.8919  12.8924
    14.0301  14.0301  14.4311  14.4311  14.4315  16.2723  16.2725  16.2726
    21.3125  21.3125  21.3125  24.9100  32.0380  32.0380  32.0385  34.7455
    34.7458  34.7459  36.7289  36.7289  36.7296  37.1478  39.4148  39.4148
    43.8164  43.8164  47.1069  47.3642  47.3642  47.3662  47.4666  47.4669
    47.4669  51.7277  51.7283  51.7283

          k = 0.0946-0.0946-0.1419 (  2322 PWs)   bands (ev):

     9.5871   9.5946  10.2937  10.2942  12.0103  12.0107  12.3064  12.3239
    12.5448  12.5669  12.6571  12.6590  12.6999  12.6999  12.7628  12.7630
    14.3338  14.3366  14.3618  14.3629  14.5556  14.5595  16.4645  16.4646
    20.3832  20.3832  22.8036  22.8131  32.9264  32.9266  34.1444  34.1450
    35.7240  35.7572  36.7243  36.7413  38.4331  38.4867  38.8479  38.8481
    44.0283  44.0286  44.2388  44.2655  45.3660  45.3733  47.8500  47.8501
    48.9359  48.9472  52.3406  52.3424

     the Fermi energy is    14.1791 ev

!    total energy              =    -343.62962944 Ry
     Harris-Foulkes estimate   =    -343.62962942 Ry
     estimated scf accuracy    <          7.1E-09 Ry

     The total energy is the sum of the following terms:

     one-electron contribution =      -8.70009738 Ry
     hartree contribution      =      61.07860571 Ry
     xc contribution           =    -120.47468861 Ry
     ewald contribution        =    -275.48620515 Ry
     Dispersion Correction     =      -0.04675218 Ry
     smearing contrib. (-TS)   =      -0.00049183 Ry

     total magnetization       =     2.87 Bohr mag/cell
     absolute magnetization    =     3.29 Bohr mag/cell

     convergence has been achieved in  13 iterations

     Forces acting on atoms (Ry/au):

     atom    1 type  1   force =    -0.00230646   -0.00230646    0.00230681
     atom    2 type  1   force =     0.00230612    0.00230612    0.00230612
     atom    3 type  1   force =    -0.00230646    0.00230681   -0.00230646
     atom    4 type  1   force =     0.00230681   -0.00230646   -0.00230646

     Total force =     0.007990     Total SCF correction =     0.000013


     entering subroutine stress ...

          total   stress  (Ry/bohr**3)                   (kbar)     P=  -32.25
  -0.00021926   0.00000000   0.00000000        -32.25      0.00      0.00
   0.00000000  -0.00021926   0.00000000          0.00    -32.25      0.00
   0.00000000   0.00000000  -0.00021926          0.00      0.00    -32.25


     BFGS Geometry Optimization

     number of scf cycles    =   1
     number of bfgs steps    =   0

     enthalpy new            =    -343.6296294369 Ry

     new trust radius        =       0.0188294751 bohr
     new conv_thr            =       0.0000000100 Ry

     new unit-cell volume =    290.17639 a.u.^3 (    42.99970 Ang^3 )

CELL_PARAMETERS (alat=  1.88972590)
   3.503390449   0.000000076   0.000000076
   0.000000076   3.503390449   0.000000076
   0.000000076   0.000000076   3.503390449

ATOMIC_POSITIONS (alat)
Ni1      1.758258507   1.758258507   0.001214097
Ni1      0.001213657   0.001213657   0.001213657
Ni1      1.758258507   0.001214097   1.758258507
Ni1      0.001214097   1.758258507   1.758258507



     Writing output data file Ni-ferromag.save
     NEW-OLD atomic charge density approx. for the potential

     Check: negative/imaginary core charge=   -0.000005    0.000000
     extrapolated charge   39.33498, renormalised to   40.00000

     total cpu time spent up to now is      592.6 secs

     Self-consistent Calculation

     iteration #  1     ecut=    60.00 Ry     beta=0.20
     Davidson diagonalization with overlap
     c_bands:  1 eigenvalues not converged
     c_bands:  3 eigenvalues not converged
     c_bands:  2 eigenvalues not converged
     ethr =  1.00E-06,  avg # of iterations =  6.9

     total cpu time spent up to now is      684.2 secs

     total energy              =    -343.54228320 Ry
     Harris-Foulkes estimate   =    -344.36341198 Ry
     estimated scf accuracy    <       0.14425009 Ry

     total magnetization       =     2.55 Bohr mag/cell
     absolute magnetization    =     2.97 Bohr mag/cell

     iteration #  2     ecut=    60.00 Ry     beta=0.20
     Davidson diagonalization with overlap
     ethr =  3.61E-04,  avg # of iterations =  3.3

     total cpu time spent up to now is      725.0 secs

     total energy              =    -343.63317223 Ry
     Harris-Foulkes estimate   =    -343.64376912 Ry
     estimated scf accuracy    <       0.05436365 Ry

     total magnetization       =     2.94 Bohr mag/cell
     absolute magnetization    =     3.35 Bohr mag/cell

     iteration #  3     ecut=    60.00 Ry     beta=0.20
     Davidson diagonalization with overlap
     ethr =  1.36E-04,  avg # of iterations =  1.2

     total cpu time spent up to now is      761.9 secs

     total energy              =    -343.62672701 Ry
     Harris-Foulkes estimate   =    -343.63490753 Ry
     estimated scf accuracy    <       0.01880506 Ry

     total magnetization       =     2.90 Bohr mag/cell
     absolute magnetization    =     3.32 Bohr mag/cell

     iteration #  4     ecut=    60.00 Ry     beta=0.20
     Davidson diagonalization with overlap
     ethr =  4.70E-05,  avg # of iterations =  2.8

     total cpu time spent up to now is      800.9 secs

     total energy              =    -343.63029294 Ry
     Harris-Foulkes estimate   =    -343.63022198 Ry
     estimated scf accuracy    <       0.00003347 Ry

     total magnetization       =     2.84 Bohr mag/cell
     absolute magnetization    =     3.26 Bohr mag/cell

     iteration #  5     ecut=    60.00 Ry     beta=0.20
     Davidson diagonalization with overlap
     ethr =  8.37E-08,  avg # of iterations =  4.5

     total cpu time spent up to now is      853.8 secs

     total energy              =    -343.63060930 Ry
     Harris-Foulkes estimate   =    -343.63037496 Ry
     estimated scf accuracy    <       0.00061941 Ry

     total magnetization       =     2.83 Bohr mag/cell
     absolute magnetization    =     3.25 Bohr mag/cell

     iteration #  6     ecut=    60.00 Ry     beta=0.20
     Davidson diagonalization with overlap
     ethr =  8.37E-08,  avg # of iterations =  2.1

     total cpu time spent up to now is      896.1 secs

     total energy              =    -343.63029636 Ry
     Harris-Foulkes estimate   =    -343.63066199 Ry
     estimated scf accuracy    <       0.00177978 Ry

     total magnetization       =     2.82 Bohr mag/cell
     absolute magnetization    =     3.24 Bohr mag/cell

     iteration #  7     ecut=    60.00 Ry     beta=0.20
     Davidson diagonalization with overlap
     ethr =  8.37E-08,  avg # of iterations =  2.0

     total cpu time spent up to now is      939.1 secs

     total energy              =    -343.63020185 Ry
     Harris-Foulkes estimate   =    -343.63035844 Ry
     estimated scf accuracy    <       0.00054442 Ry

     total magnetization       =     2.83 Bohr mag/cell
     absolute magnetization    =     3.25 Bohr mag/cell

     iteration #  8     ecut=    60.00 Ry     beta=0.20
     Davidson diagonalization with overlap
     ethr =  8.37E-08,  avg # of iterations =  2.2

     total cpu time spent up to now is      980.5 secs

     total energy              =    -343.63024792 Ry
     Harris-Foulkes estimate   =    -343.63024140 Ry
     estimated scf accuracy    <       0.00006852 Ry

     total magnetization       =     2.84 Bohr mag/cell
     absolute magnetization    =     3.25 Bohr mag/cell

     iteration #  9     ecut=    60.00 Ry     beta=0.20
     Davidson diagonalization with overlap
     ethr =  8.37E-08,  avg # of iterations =  1.0

     total cpu time spent up to now is     1017.1 secs

     total energy              =    -343.63023311 Ry
     Harris-Foulkes estimate   =    -343.63024838 Ry
     estimated scf accuracy    <       0.00009587 Ry

     total magnetization       =     2.83 Bohr mag/cell
     absolute magnetization    =     3.25 Bohr mag/cell

     iteration # 10     ecut=    60.00 Ry     beta=0.20
     Davidson diagonalization with overlap
     ethr =  8.37E-08,  avg # of iterations =  1.0

     total cpu time spent up to now is     1053.8 secs

     total energy              =    -343.63021776 Ry
     Harris-Foulkes estimate   =    -343.63023506 Ry
     estimated scf accuracy    <       0.00004158 Ry

     total magnetization       =     2.83 Bohr mag/cell
     absolute magnetization    =     3.25 Bohr mag/cell

     iteration # 11     ecut=    60.00 Ry     beta=0.20
     Davidson diagonalization with overlap
     ethr =  8.37E-08,  avg # of iterations =  1.0

     Magnetic moment per site:
     atom:    1    charge:    3.0062    magn:    0.3351    constr:    0.0000
     atom:    2    charge:    3.0044    magn:    0.3350    constr:    0.0000
     atom:    3    charge:    3.0062    magn:    0.3351    constr:    0.0000
     atom:    4    charge:    3.0062    magn:    0.3351    constr:    0.0000

     total cpu time spent up to now is     1090.5 secs

     End of self-consistent calculation

 ------ SPIN UP ------------


          k = 0.0000 0.0000 0.0000 (  2325 PWs)   bands (ev):

     5.4277   9.7109   9.7109   9.7109  10.1635  10.1638  10.1638  11.9421
    11.9421  11.9421  13.1203  13.1203  13.8380  13.8380  13.8380  13.9277
    13.9277  13.9277  13.9278  13.9278  13.9278  17.0670  17.0671  17.0671
    23.8025  23.8026  23.8026  29.5611  29.5611  29.5611  29.5612  29.5612
    29.5612  34.6369  34.6369  34.6371  37.9806  37.9807  37.9807  38.4893
    42.4634  42.4634  42.4634  46.0588  46.0588  46.0588  48.1647  55.1558
    55.1558  55.1558  57.6038  59.0260

          k =-0.0000-0.0000 0.0476 (  2305 PWs)   bands (ev):

     5.7939   9.7330   9.8950   9.8950  10.2741  10.2899  10.2901  11.8134
    12.0444  12.0444  13.0021  13.1667  13.2745  13.2746  13.6843  13.6843
    13.7522  13.7522  13.7885  13.9281  13.9281  15.4662  18.0252  18.0253
    23.8985  23.8985  26.0518  27.8093  27.8094  28.4373  28.4373  30.1213
    30.1213  34.7532  36.8097  36.8099  37.8530  38.1125  39.9367  39.9368
    40.2423  40.2423  40.9086  47.4790  48.1168  48.1168  49.1381  51.5472
    56.2508  56.2508  56.6634  56.6637

          k =-0.0000-0.0000 0.0951 (  2316 PWs)   bands (ev):

     6.8430   9.5037  10.3318  10.3318  10.5816  10.6728  10.6731  11.4697
    12.2185  12.2189  12.3408  12.3408  12.7148  13.2955  13.3006  13.3006
    13.3024  13.3191  13.3191  13.6544  13.9286  13.9286  19.9870  19.9871
    24.2160  24.2160  25.0361  25.0361  26.6689  26.6689  30.3513  31.7001
    31.7001  35.1166  36.7196  37.0206  37.0206  38.3411  38.6647  40.8536
    40.8538  44.1017  44.1018  44.1337  50.9149  51.0381  51.0381  51.0409
    51.0409  55.0248  55.9285  55.9286

          k = 0.0000 0.0000-0.1427 (  2360 PWs)   bands (ev):

     8.3344   8.3498  10.6078  10.6078  11.0049  11.0273  11.3085  11.3086
    11.3307  11.3308  12.5223  12.5537  12.7840  12.7840  12.8008  12.8008
    13.0587  13.0587  13.4674  13.4798  13.9289  13.9289  22.3527  22.3528
    22.3916  22.3917  24.5895  24.5896  25.7231  25.7232  34.0637  34.0637
    34.0910  34.0910  34.8724  34.9299  35.7578  35.7713  40.2119  40.3038
    45.6146  45.6148  45.6946  45.6947  47.6071  47.6072  52.2787  52.2788
    54.1293  54.1293  54.2031  54.2031

          k =-0.0000 0.0476 0.0476 (  2309 PWs)   bands (ev):

     6.1514   9.9312   9.9313  10.0581  10.3914  10.3916  10.4054  11.7535
    12.0893  12.1063  12.9282  12.9697  12.9866  12.9947  13.1624  13.5561
    13.6803  13.6803  13.7507  13.7508  13.8123  16.3978  16.3978  18.7947
    23.8930  25.0918  26.2392  26.2393  28.2864  28.2865  28.9297  28.9300
    30.6488  36.0259  36.1111  37.0182  37.0184  37.3240  40.1057  40.1059
    41.2629  42.5935  43.5223  45.2225  46.3520  49.7757  50.4453  53.0805
    53.6587  55.3394  55.3400  56.2937

          k =-0.0000 0.0476 0.0951 (  2304 PWs)   bands (ev):

     7.1728   9.7397  10.4131  10.4616  10.6730  10.7263  10.7454  11.4728
    11.9803  12.1195  12.2352  12.3524  12.3785  12.8112  13.2324  13.3053
    13.3223  13.3420  13.4938  13.7469  13.7540  14.4311  18.0115  20.5770
    22.0746  24.6009  25.4972  26.5264  27.3930  29.6001  29.8912  29.9517
    31.0073  33.7158  34.4588  37.6707  38.6230  40.3816  40.5602  40.7377
    41.1095  44.0294  45.0210  47.0470  47.7760  48.5774  49.8833  51.3255
    52.9298  53.2510  54.8055  56.1918

          k = 0.0000 0.0476-0.1427 (  2312 PWs)   bands (ev):

     8.6163   8.6307  10.7598  10.7608  11.0566  11.0782  11.1787  11.1969
    11.3233  11.3450  12.1530  12.1762  12.7846  12.8018  13.0185  13.0261
    13.0434  13.0444  13.6571  13.6572  13.7433  13.7467  19.8698  19.8895
    22.8538  22.8887  25.3915  25.4181  28.2973  28.3061  31.4835  31.4951
    32.0089  32.0170  35.7875  35.8535  38.8172  38.8223  42.1739  42.2305
    43.0947  43.1158  45.8929  45.9685  50.0369  50.1043  50.3292  50.3610
    52.5900  52.6152  53.1818  53.2022

          k =-0.0000 0.0951 0.0951 (  2318 PWs)   bands (ev):

     8.0991  10.3270  10.3271  10.6926  10.9405  10.9412  10.9551  11.4032
    11.6498  11.6499  11.8043  12.1229  12.4830  12.7249  13.0167  13.1709
    13.1711  13.3118  13.3120  13.4818  13.6968  15.6766  15.6766  19.2943
    22.1031  25.1516  26.7692  26.7692  27.8894  27.8896  30.9772  31.6294
    31.6327  31.7321  33.5962  36.8296  41.5192  41.8713  41.8714  43.0655
    43.4043  43.7620  43.7621  47.1780  47.3191  48.4641  48.4645  51.6630
    52.1677  52.1807  53.1893  55.3404

          k = 0.0000 0.0951-0.1427 (  2306 PWs)   bands (ev):

     9.3600   9.3718  10.7907  10.8045  11.1821  11.1956  11.2066  11.2117
    11.3429  11.3631  11.8513  11.8665  12.8207  12.8297  12.8308  12.8379
    12.8976  12.9002  13.3415  13.3518  14.3566  14.3594  17.2000  17.2154
    24.2134  24.2400  26.2086  26.2302  28.6391  28.6517  29.5292  29.5319
    32.9385  32.9442  36.7504  36.8148  40.3497  40.3624  43.0348  43.0473
    43.2046  43.2105  46.7003  46.7618  47.8947  47.9320  50.4002  50.4344
    51.7227  51.7777  53.5459  53.5604

          k = 0.0000-0.1427-0.1427 (  2296 PWs)   bands (ev):

    10.2087  10.2188  10.2189  10.2288  11.2953  11.3145  11.3145  11.3336
    11.6184  11.6239  11.6239  11.6293  12.6821  12.6840  12.6840  12.6861
    12.9828  12.9987  12.9987  13.0144  15.4208  15.4280  15.4281  15.4354
    26.1818  26.2001  26.2002  26.2183  27.5590  27.5719  27.5720  27.5854
    37.8660  37.8835  37.8835  37.9019  38.4707  38.4929  38.4930  38.5129
    47.1693  47.1693  47.1697  47.1703  49.1455  49.1802  49.1802  49.2148
    51.8037  51.8067  51.8067  51.8094

          k = 0.0476 0.0476 0.0476 (  2298 PWs)   bands (ev):

     6.4971  10.0920  10.0921  10.0921  10.5057  10.5061  10.5061  11.7187
    12.1259  12.1259  12.6828  12.6828  12.6828  13.0755  13.0755  13.3227
    13.3229  13.3229  13.8662  13.8662  13.8663  17.0246  17.0247  17.0247
    25.3187  25.3189  25.3189  26.5842  26.5842  26.5843  31.1638  31.1640
    31.1640  33.4744  36.1574  36.1574  36.1576  39.2457  41.1284  41.1284
    42.8008  42.8008  42.8008  46.5835  47.6384  47.6384  51.6298  51.6298
    55.0984  55.2176  55.2181  55.2182

          k = 0.0476 0.0476 0.0951 (  2312 PWs)   bands (ev):

     7.4783   9.8983  10.4749  10.4750  10.7913  10.8197  10.8198  11.5095
    11.9705  11.9706  12.1638  12.2076  12.2656  12.9204  12.9904  13.0768
    13.0778  13.3153  13.7690  13.7690  13.8014  14.7928  18.3666  18.3666
    22.7001  22.7001  26.6119  27.2355  27.2356  30.3505  30.3506  30.7373
    30.9402  32.6431  36.6365  37.7691  37.8414  38.7817  38.7817  42.3513
    43.4929  44.4602  47.0098  47.0098  47.8716  49.0736  50.1901  50.1901
    50.6851  53.0069  53.0672  55.6429

          k = 0.0476 0.0476-0.1427 (  2306 PWs)   bands (ev):

     8.8441   8.8568  10.8613  10.8619  10.9201  10.9202  11.1532  11.1735
    11.5771  11.5771  12.0575  12.0803  12.5346  12.5423  12.9091  12.9093
    13.4766  13.4927  13.5893  13.5928  13.7131  13.7131  19.5153  19.5154
    21.1389  21.1389  28.1982  28.2002  28.4336  28.4429  28.9191  28.9222
    34.9187  34.9416  35.3852  35.4305  38.0620  38.1094  42.1954  42.1954
    44.7329  44.7585  45.3595  45.3597  49.4529  49.4885  50.8829  50.8953
    52.1736  52.1737  53.6661  53.6706

          k = 0.0476 0.0951 0.0951 (  2322 PWs)   bands (ev):

     8.3170  10.2158  10.2160  10.5018  11.1070  11.1528  11.1530  11.5545
    11.7668  11.7669  11.8999  12.1249  12.2505  12.7282  12.7284  12.7450
    13.0480  13.6025  13.6707  13.6869  13.6879  15.8074  15.8074  18.6186
    20.7965  23.8965  23.8965  27.9310  28.0507  31.1269  31.1269  32.1122
    32.1124  34.0090  35.2335  36.9006  39.3158  39.3160  40.1467  43.0272
    43.7258  44.7752  46.4530  46.4531  49.1807  49.1809  50.4075  50.5853
    50.9138  51.6063  52.2903  52.9162

          k = 0.0476 0.0951-0.1427 (  2316 PWs)   bands (ev):

     9.3961   9.4040  10.4358  10.4381  11.3199  11.3206  11.4605  11.4769
    11.7702  11.7771  11.8872  11.9022  12.3968  12.4024  12.6085  12.6121
    13.3416  13.3480  13.5691  13.5757  14.2631  14.2656  17.1786  17.1912
    21.8073  21.8171  25.6533  25.6602  29.4253  29.4313  33.0303  33.0329
    33.2426  33.2481  36.8702  36.9229  40.1233  40.1349  40.4325  40.4419
    45.1808  45.1851  45.6620  45.6875  47.6873  47.7009  50.5508  50.5719
    51.7743  51.7866  53.8644  53.8879

          k = 0.0476-0.1427-0.1427 (  2332 PWs)   bands (ev):

     9.9659   9.9693   9.9693   9.9724  11.7056  11.7110  11.7110  11.7160
    11.7880  11.7991  11.7991  11.8104  12.3656  12.3711  12.3711  12.3766
    13.3174  13.3274  13.3274  13.3375  15.3311  15.3391  15.3391  15.3471
    23.4382  23.4458  23.4458  23.4533  30.9634  30.9656  30.9657  30.9682
    38.1486  38.1625  38.1625  38.1802  38.3173  38.3383  38.3384  38.3542
    46.6444  46.6444  46.6450  46.6475  46.7289  46.7494  46.7494  46.7664
    54.7833  54.7963  54.7964  55.0592

          k = 0.0951 0.0951 0.0951 (  2329 PWs)   bands (ev):

     8.8608  10.0507  10.0510  10.0510  11.5111  11.5114  11.5114  12.0246
    12.0817  12.0817  12.0871  12.0959  12.0959  12.3744  12.3744  12.3747
    13.4504  13.4504  13.8150  13.8150  13.8151  16.1858  16.1859  16.1859
    21.4037  21.4037  21.4038  25.1434  32.4924  32.4924  32.4926  35.2360
    35.2361  35.2361  37.2657  37.2657  37.2660  37.7854  39.9426  39.9426
    44.4356  44.4356  47.7626  48.0561  48.0561  48.0570  48.1298  48.1300
    48.1300  52.4372  52.4376  52.4376

          k = 0.0951 0.0951-0.1427 (  2322 PWs)   bands (ev):

     9.4857   9.4877   9.9823   9.9825  11.6310  11.6312  11.9113  11.9237
    12.1332  12.1350  12.2515  12.2545  12.2645  12.2770  12.3693  12.3696
    13.7346  13.7359  13.7433  13.7441  14.1542  14.1550  16.4702  16.4703
    20.3747  20.3747  22.9577  22.9650  33.4084  33.4084  34.6191  34.6193
    36.3127  36.3347  37.2320  37.2439  38.9673  39.0048  39.4319  39.4320
    44.6422  44.6424  44.8845  44.9033  46.0048  46.0098  48.5411  48.5412
    49.5915  49.5993  52.9663  52.9672

          k = 0.0951-0.1427-0.1427 (  2324 PWs)   bands (ev):

     9.6620   9.6623   9.6623   9.6623  11.8737  11.8771  11.8771  11.8801
    12.0632  12.0666  12.0667  12.0702  12.8091  12.8162  12.8162  12.8234
    13.6581  13.6636  13.6636  13.6691  14.9538  14.9629  14.9629  14.9719
    21.0820  21.0881  21.0881  21.0943  35.1449  35.1479  35.1479  35.1510
    38.2020  38.2116  38.2117  38.2217  38.9217  38.9320  38.9320  38.9410
    44.0758  44.0845  44.0845  44.0929  45.1455  45.1478  45.1478  45.1499
    50.4055  50.4091  50.4091  50.4133

          k =-0.1427-0.1427-0.1427 (  2320 PWs)   bands (ev):

     9.5461   9.5464   9.5464   9.5464  11.9550  11.9550  11.9550  11.9551
    11.9551  11.9554  11.9554  11.9554  13.7905  13.7905  13.7905  13.7910
    13.7910  13.7911  13.7911  13.7911  14.2886  14.2890  14.2890  14.2890
    20.2069  20.2069  20.2069  20.2070  36.9444  36.9446  36.9446  36.9446
    39.5678  39.5678  39.5678  39.5679  39.5679  39.5683  39.5683  39.5683
    42.7932  42.7932  42.7933  42.7933  42.7933  42.7935  42.7935  42.7935
    48.7629  48.7629  48.7629  48.7631

          k =-0.0476 0.0000 0.0476 (  2309 PWs)   bands (ev):

     6.1514   9.9313   9.9313  10.0581  10.3914  10.3916  10.4054  11.7535
    12.0893  12.1063  12.9282  12.9697  12.9866  12.9947  13.1624  13.5561
    13.6803  13.6803  13.7507  13.7508  13.8123  16.3978  16.3978  18.7947
    23.8930  25.0918  26.2392  26.2394  28.2864  28.2865  28.9297  28.9300
    30.6488  36.0259  36.1111  37.0182  37.0184  37.3240  40.1056  40.1059
    41.2629  42.5935  43.5223  45.2225  46.3520  49.7757  50.4453  53.0805
    53.6587  55.3394  55.3400  56.2937

          k =-0.0476-0.0000 0.0951 (  2304 PWs)   bands (ev):

     7.1728   9.7397  10.4131  10.4616  10.6730  10.7263  10.7454  11.4728
    11.9803  12.1195  12.2352  12.3524  12.3785  12.8112  13.2324  13.3053
    13.3223  13.3420  13.4938  13.7469  13.7540  14.4311  18.0115  20.5770
    22.0746  24.6009  25.4972  26.5264  27.3930  29.6001  29.8912  29.9517
    31.0073  33.7158  34.4588  37.6707  38.6230  40.3816  40.5602  40.7377
    41.1095  44.0294  45.0210  47.0470  47.7760  48.5774  49.8833  51.3255
    52.9298  53.2510  54.8055  56.1918

          k =-0.0951 0.0000 0.0951 (  2318 PWs)   bands (ev):

     8.0991  10.3270  10.3271  10.6926  10.9405  10.9412  10.9551  11.4032
    11.6498  11.6499  11.8043  12.1229  12.4830  12.7249  13.0167  13.1709
    13.1711  13.3118  13.3120  13.4818  13.6968  15.6766  15.6766  19.2943
    22.1031  25.1516  26.7692  26.7692  27.8893  27.8897  30.9773  31.6294
    31.6327  31.7321  33.5962  36.8296  41.5192  41.8713  41.8714  43.0655
    43.4043  43.7620  43.7621  47.1780  47.3191  48.4641  48.4645  51.6630
    52.1677  52.1807  53.1893  55.3389

          k = 0.0476-0.0476 0.0476 (  2298 PWs)   bands (ev):

     6.4971  10.0921  10.0921  10.0921  10.5057  10.5061  10.5061  11.7187
    12.1259  12.1259  12.6827  12.6828  12.6828  13.0755  13.0755  13.3227
    13.3229  13.3229  13.8662  13.8662  13.8663  17.0246  17.0247  17.0247
    25.3187  25.3188  25.3189  26.5842  26.5842  26.5843  31.1638  31.1640
    31.1640  33.4744  36.1574  36.1574  36.1576  39.2457  41.1284  41.1284
    42.8007  42.8008  42.8008  46.5835  47.6384  47.6384  51.6298  51.6298
    55.0984  55.2176  55.2181  55.2182

          k = 0.0476-0.0476 0.0951 (  2312 PWs)   bands (ev):

     7.4783   9.8983  10.4749  10.4750  10.7913  10.8197  10.8198  11.5095
    11.9705  11.9706  12.1638  12.2076  12.2656  12.9204  12.9904  13.0768
    13.0778  13.3153  13.7690  13.7690  13.8014  14.7928  18.3666  18.3666
    22.7001  22.7001  26.6119  27.2356  27.2356  30.3505  30.3506  30.7373
    30.9402  32.6431  36.6365  37.7691  37.8414  38.7817  38.7817  42.3513
    43.4929  44.4602  47.0097  47.0098  47.8716  49.0736  50.1900  50.1902
    50.6851  53.0069  53.0672  55.6429

          k =-0.0951 0.0476 0.0476 (  2312 PWs)   bands (ev):

     7.4783   9.8983  10.4749  10.4750  10.7913  10.8197  10.8198  11.5095
    11.9705  11.9706  12.1638  12.2076  12.2656  12.9204  12.9904  13.0768
    13.0778  13.3153  13.7690  13.7690  13.8014  14.7928  18.3666  18.3666
    22.7001  22.7001  26.6119  27.2355  27.2356  30.3505  30.3506  30.7373
    30.9402  32.6431  36.6365  37.7691  37.8414  38.7817  38.7817  42.3513
    43.4929  44.4602  47.0098  47.0098  47.8716  49.0736  50.1901  50.1901
    50.6851  53.0069  53.0672  55.6429

          k = 0.0476-0.0476-0.1427 (  2306 PWs)   bands (ev):

     8.8441   8.8568  10.8613  10.8619  10.9201  10.9202  11.1532  11.1735
    11.5771  11.5771  12.0575  12.0803  12.5346  12.5423  12.9091  12.9093
    13.4766  13.4927  13.5893  13.5928  13.7131  13.7131  19.5153  19.5153
    21.1389  21.1389  28.1983  28.2002  28.4336  28.4429  28.9191  28.9222
    34.9187  34.9416  35.3852  35.4305  38.0620  38.1094  42.1953  42.1954
    44.7330  44.7586  45.3595  45.3597  49.4529  49.4885  50.8829  50.8953
    52.1735  52.1737  53.6661  53.6706

          k = 0.0951-0.0476 0.0951 (  2322 PWs)   bands (ev):

     8.3170  10.2158  10.2160  10.5018  11.1070  11.1528  11.1530  11.5545
    11.7668  11.7669  11.8999  12.1249  12.2505  12.7282  12.7284  12.7450
    13.0480  13.6025  13.6707  13.6869  13.6879  15.8074  15.8074  18.6186
    20.7965  23.8965  23.8965  27.9311  28.0507  31.1269  31.1269  32.1122
    32.1124  34.0090  35.2335  36.9006  39.3158  39.3160  40.1467  43.0272
    43.7258  44.7752  46.4530  46.4531  49.1807  49.1809  50.4075  50.5853
    50.9138  51.6063  52.2903  52.9163

          k =-0.0951 0.0476 0.0951 (  2322 PWs)   bands (ev):

     8.3170  10.2158  10.2160  10.5018  11.1070  11.1528  11.1530  11.5545
    11.7668  11.7669  11.8999  12.1249  12.2505  12.7282  12.7284  12.7450
    13.0480  13.6025  13.6707  13.6869  13.6879  15.8074  15.8074  18.6186
    20.7965  23.8965  23.8965  27.9311  28.0507  31.1268  31.1270  32.1122
    32.1124  34.0090  35.2335  36.9006  39.3158  39.3160  40.1467  43.0272
    43.7258  44.7752  46.4530  46.4531  49.1807  49.1810  50.4075  50.5853
    50.9138  51.6063  52.2903  52.9160

          k = 0.0951-0.0476-0.1427 (  2316 PWs)   bands (ev):

     9.3961   9.4040  10.4358  10.4381  11.3199  11.3206  11.4605  11.4769
    11.7702  11.7771  11.8872  11.9022  12.3968  12.4024  12.6085  12.6121
    13.3416  13.3480  13.5691  13.5757  14.2631  14.2656  17.1786  17.1912
    21.8073  21.8171  25.6533  25.6602  29.4253  29.4313  33.0303  33.0329
    33.2426  33.2481  36.8702  36.9229  40.1233  40.1349  40.4325  40.4419
    45.1808  45.1851  45.6620  45.6875  47.6873  47.7009  50.5508  50.5719
    51.7743  51.7866  53.8644  53.8876

          k = 0.0951-0.0951 0.0951 (  2329 PWs)   bands (ev):

     8.8608  10.0507  10.0510  10.0510  11.5111  11.5114  11.5114  12.0246
    12.0817  12.0817  12.0872  12.0959  12.0959  12.3744  12.3744  12.3747
    13.4504  13.4504  13.8150  13.8150  13.8151  16.1858  16.1859  16.1859
    21.4037  21.4037  21.4038  25.1434  32.4924  32.4924  32.4926  35.2360
    35.2361  35.2361  37.2657  37.2657  37.2660  37.7854  39.9426  39.9426
    44.4356  44.4356  47.7626  48.0560  48.0561  48.0570  48.1298  48.1300
    48.1300  52.4373  52.4376  52.4376

          k = 0.0951-0.0951-0.1427 (  2322 PWs)   bands (ev):

     9.4857   9.4877   9.9823   9.9825  11.6310  11.6312  11.9113  11.9237
    12.1332  12.1350  12.2515  12.2545  12.2645  12.2770  12.3693  12.3696
    13.7346  13.7359  13.7433  13.7441  14.1542  14.1550  16.4703  16.4703
    20.3747  20.3747  22.9577  22.9650  33.4084  33.4085  34.6191  34.6193
    36.3127  36.3347  37.2320  37.2439  38.9673  39.0048  39.4319  39.4320
    44.6422  44.6424  44.8845  44.9033  46.0048  46.0098  48.5411  48.5412
    49.5915  49.5993  52.9663  52.9672

 ------ SPIN DOWN ----------


          k = 0.0000 0.0000 0.0000 (  2325 PWs)   bands (ev):

     5.3730  10.1732  10.1732  10.1732  10.8821  10.8825  10.8825  12.8230
    12.8230  12.8230  13.9008  13.9008  14.6525  14.6526  14.6526  14.9376
    14.9377  14.9377  14.9378  14.9378  14.9378  16.9881  16.9882  16.9882
    24.1082  24.1083  24.1083  29.5472  29.5472  29.5472  29.5474  29.5474
    29.5474  34.8011  34.8011  34.8013  38.1239  38.1242  38.1242  38.2835
    42.4341  42.4341  42.4341  46.1311  46.1311  46.1311  48.0050  55.3448
    55.3448  55.3448  58.1239  59.5434

          k =-0.0000-0.0000 0.0476 (  2305 PWs)   bands (ev):

     5.7391  10.1488  10.3674  10.3674  11.0016  11.0060  11.0063  12.6811
    12.9294  12.9294  13.7729  13.9492  14.0951  14.0953  14.4855  14.4855
    14.6006  14.7452  14.7452  14.9381  14.9381  15.5363  18.1319  18.1320
    24.1891  24.1891  26.2536  27.8778  27.8779  28.4645  28.4645  30.1239
    30.1239  34.9048  36.8906  36.8907  37.7142  38.2535  40.0566  40.0567
    40.2847  40.2847  40.8386  47.4994  48.0905  48.0905  49.2098  51.5377
    56.4620  56.4620  56.5898  56.5901

          k =-0.0000-0.0000 0.0951 (  2316 PWs)   bands (ev):

     6.7925   9.7119  10.8287  10.8287  11.3345  11.3835  11.3839  12.3031
    12.9483  12.9487  13.2389  13.2389  13.4520  13.6740  14.0735  14.0735
    14.0842  14.2709  14.2709  14.4600  14.9387  14.9387  20.1721  20.1722
    24.4622  24.4622  25.1767  25.1768  26.7670  26.7671  30.4469  31.7369
    31.7369  35.2304  36.6848  37.0920  37.0920  38.2508  38.8105  40.8589
    40.8591  44.2010  44.2011  44.3518  50.8703  50.9430  50.9430  50.9672
    50.9673  54.9203  56.1690  56.1690

          k = 0.0000 0.0000-0.1427 (  2360 PWs)   bands (ev):

     8.3275   8.3434  11.1203  11.1203  11.7949  11.8188  12.0179  12.0182
    12.0407  12.0410  13.1692  13.2035  13.7050  13.7050  13.7225  13.7225
    13.8069  13.8069  14.2641  14.2770  14.9390  14.9390  22.5338  22.5339
    22.5736  22.5737  24.7862  24.7862  25.8805  25.8805  34.1287  34.1287
    34.1560  34.1560  34.8516  34.9107  35.8077  35.8239  40.4032  40.4965
    45.5691  45.5692  45.6510  45.6511  47.6810  47.6811  52.4676  52.4677
    54.0188  54.0188  54.0927  54.0927

          k =-0.0000 0.0476 0.0476 (  2309 PWs)   bands (ev):

     6.0975  10.3596  10.3597  10.5493  11.1055  11.1158  11.1161  12.6075
    12.9797  12.9841  13.6936  13.7254  13.7352  13.7566  13.9501  14.3472
    14.4732  14.4732  14.7440  14.7441  14.8150  16.7123  16.7123  18.9603
    24.1518  25.2214  26.4279  26.4280  28.3693  28.3693  28.9707  28.9710
    30.6598  36.1021  36.1305  37.0888  37.0890  37.3414  40.2234  40.2236
    41.1820  42.6808  43.4913  45.1658  46.4126  49.9343  50.3706  53.2531
    53.6239  55.3012  55.3018  56.2338

          k =-0.0000 0.0476 0.0951 (  2304 PWs)   bands (ev):

     7.1270   9.9624  10.8757  10.9940  11.3887  11.4213  11.4627  12.2953
    12.6721  12.8410  13.0325  13.0775  13.2550  13.5761  13.9979  14.0825
    14.1530  14.2400  14.2692  14.7408  14.7509  15.1406  18.3501  20.7810
    22.2731  24.8289  25.6488  26.6612  27.5182  29.7085  29.9534  30.0217
    31.1047  33.7938  34.5013  37.7126  38.6609  40.3331  40.5077  40.8573
    41.1090  44.1115  45.2255  47.1133  47.6982  48.5597  49.8673  51.2506
    52.8852  53.1602  55.0249  56.4440

          k = 0.0000 0.0476-0.1427 (  2312 PWs)   bands (ev):

     8.6214   8.6365  11.2629  11.2648  11.8353  11.8573  11.8603  11.8789
    12.0356  12.0579  12.8927  12.9194  13.7082  13.7258  13.7876  13.7916
    13.7970  13.7996  14.4958  14.4966  14.7378  14.7417  20.1511  20.1712
    23.0467  23.0819  25.5619  25.5906  28.4134  28.4238  31.5980  31.6085
    32.0673  32.0742  35.8127  35.8786  38.8191  38.8228  42.3256  42.3841
    43.0866  43.1099  45.8440  45.9213  50.1028  50.1691  50.2614  50.2935
    52.5058  52.5320  53.3495  53.3697

          k =-0.0000 0.0951 0.0951 (  2318 PWs)   bands (ev):

     8.0768  10.6004  10.6004  11.3573  11.4397  11.6766  11.6773  12.1976
    12.3435  12.3435  12.5170  12.9146  13.3988  13.4724  13.7708  13.9090
    13.9092  14.2730  14.2732  14.4632  14.5397  16.2821  16.2822  19.6020
    22.3223  25.3500  26.9359  26.9360  27.9905  27.9908  31.1082  31.7176
    31.7214  31.8001  33.6486  36.8652  41.4555  41.8530  41.8532  43.1002
    43.2868  43.8043  43.8044  47.2992  47.3483  48.5088  48.5093  51.7223
    52.0575  52.1223  53.3922  55.2384

          k = 0.0000 0.0951-0.1427 (  2306 PWs)   bands (ev):

     9.4207   9.4336  11.2107  11.2244  11.8419  11.8431  11.9482  11.9696
    12.0638  12.0849  12.5879  12.6047  13.5649  13.5653  13.6367  13.6393
    13.7571  13.7754  14.3101  14.3213  15.1629  15.1663  17.6645  17.6796
    24.4188  24.4448  26.3593  26.3829  28.8020  28.8132  29.6187  29.6225
    33.0095  33.0167  36.7779  36.8425  40.3492  40.3605  42.9810  42.9925
    43.2232  43.2283  46.6379  46.7005  47.9760  48.0150  50.3469  50.3821
    51.8435  51.8984  53.4608  53.4745

          k = 0.0000-0.1427-0.1427 (  2296 PWs)   bands (ev):

    10.4269  10.4383  10.4383  10.4495  12.0322  12.0527  12.0527  12.0730
    12.2874  12.2937  12.2938  12.3001  13.4202  13.4222  13.4222  13.4246
    13.9315  13.9482  13.9482  13.9649  16.1041  16.1103  16.1103  16.1164
    26.3778  26.3951  26.3951  26.4121  27.6811  27.6955  27.6955  27.7105
    37.9405  37.9574  37.9574  37.9756  38.4380  38.4591  38.4591  38.4775
    47.0488  47.0492  47.0493  47.0512  49.1337  49.1693  49.1693  49.2048
    51.9031  51.9078  51.9079  51.9122

          k = 0.0476 0.0476 0.0476 (  2298 PWs)   bands (ev):

     6.4461  10.5474  10.5475  10.5475  11.2067  11.2072  11.2072  12.5526
    13.0045  13.0045  13.3940  13.3940  13.3940  13.8623  13.8623  14.1542
    14.1545  14.1545  14.8151  14.8151  14.8153  17.3657  17.3658  17.3658
    25.4502  25.4503  25.4503  26.7574  26.7574  26.7576  31.1855  31.1858
    31.1858  33.5409  36.2523  36.2523  36.2524  39.0901  41.1810  41.1810
    42.8847  42.8848  42.8848  46.4960  47.5955  47.5955  51.7966  51.7966
    55.1707  55.1713  55.1713  55.4354

          k = 0.0476 0.0476 0.0951 (  2312 PWs)   bands (ev):

     7.4431  10.1611  11.0068  11.0069  11.4482  11.4486  11.5042  12.3056
    12.6734  12.6735  12.8383  13.0370  13.1265  13.7671  13.8004  13.8641
    13.8657  14.1382  14.7030  14.7328  14.7331  15.4235  18.6935  18.6936
    22.9103  22.9103  26.7560  27.3845  27.3846  30.4253  30.4255  30.8513
    31.0276  32.6895  36.7109  37.6749  37.9185  38.8119  38.8120  42.3588
    43.5731  44.4775  47.0539  47.0539  47.9135  49.0192  50.1788  50.1789
    50.6919  52.9361  53.0273  55.7575

          k = 0.0476 0.0476-0.1427 (  2306 PWs)   bands (ev):

     8.8780   8.8919  11.4343  11.4344  11.5013  11.5019  11.9035  11.9256
    12.2915  12.2917  12.8064  12.8317  13.3864  13.3927  13.6733  13.6735
    14.2813  14.2984  14.4519  14.4537  14.6853  14.6854  19.7726  19.7727
    21.4428  21.4429  28.3132  28.3151  28.5757  28.5842  29.0337  29.0372
    34.9882  35.0107  35.3575  35.4044  38.1391  38.1868  42.1766  42.1766
    44.8187  44.8464  45.3484  45.3486  49.3732  49.4089  50.8371  50.8495
    52.2070  52.2070  53.8420  53.8498

          k = 0.0476 0.0951 0.0951 (  2322 PWs)   bands (ev):

     8.3289  10.6088  10.6090  11.1206  11.6145  11.7549  11.7553  12.2816
    12.4873  12.4875  12.6123  12.9261  13.0752  13.5273  13.5283  13.5315
    13.8919  14.4520  14.5996  14.6006  14.6186  16.3609  16.3610  18.8933
    21.1404  24.1134  24.1134  28.0906  28.1806  31.1906  31.1906  32.2047
    32.2049  34.0636  35.2590  36.9257  39.3305  39.3307  40.0702  43.1408
    43.7174  44.7208  46.4469  46.4470  49.2353  49.2355  50.3390  50.5689
    50.8901  51.6788  52.3555  52.8428

          k = 0.0476 0.0951-0.1427 (  2316 PWs)   bands (ev):

     9.5443   9.5547  10.9699  10.9746  11.8739  11.8761  12.1056  12.1243
    12.4637  12.4723  12.6470  12.6638  13.2021  13.2064  13.3838  13.3868
    14.2060  14.2152  14.5051  14.5125  15.0562  15.0595  17.5900  17.6021
    22.1080  22.1168  25.8538  25.8597  29.5250  29.5326  33.0878  33.0888
    33.3108  33.3177  36.8834  36.9356  40.1078  40.1186  40.4546  40.4647
    45.1682  45.1719  45.6530  45.6799  47.6672  47.6826  50.5889  50.6101
    51.7139  51.7257  53.9465  53.9686

          k = 0.0476-0.1427-0.1427 (  2332 PWs)   bands (ev):

    10.3200  10.3264  10.3264  10.3324  12.2728  12.2819  12.2819  12.2909
    12.4913  12.5024  12.5024  12.5135  13.1439  13.1487  13.1487  13.1537
    14.2285  14.2399  14.2399  14.2515  15.9783  15.9850  15.9851  15.9917
    23.6971  23.7035  23.7035  23.7098  31.0445  31.0483  31.0483  31.0523
    38.2213  38.2296  38.2296  38.2520  38.2692  38.2942  38.2942  38.3038
    46.5767  46.5768  46.5771  46.5787  46.7532  46.7742  46.7743  46.7933
    54.8460  54.8602  54.8603  55.0770

          k = 0.0951 0.0951 0.0951 (  2329 PWs)   bands (ev):

     8.9939  10.5608  10.5610  10.5610  12.0705  12.0708  12.0708  12.5482
    12.7657  12.7657  12.7666  12.8934  12.8934  13.1660  13.1660  13.1662
    14.3319  14.3319  14.7431  14.7431  14.7433  16.6124  16.6126  16.6126
    21.7423  21.7423  21.7424  25.3687  32.5388  32.5388  32.5390  35.2973
    35.2976  35.2976  37.2784  37.2784  37.2786  37.6143  40.0287  40.0287
    44.4449  44.4449  47.7776  48.0044  48.0044  48.0054  48.1312  48.1314
    48.1314  52.4684  52.4688  52.4688

          k = 0.0951 0.0951-0.1427 (  2322 PWs)   bands (ev):

     9.8167   9.8216  10.5207  10.5209  12.2630  12.2632  12.5703  12.5827
    12.8161  12.8317  12.9259  12.9271  12.9698  12.9698  13.0336  13.0337
    14.6439  14.6459  14.6722  14.6727  14.8694  14.8721  16.8018  16.8019
    20.8118  20.8119  23.2477  23.2539  33.4161  33.4161  34.7050  34.7054
    36.2032  36.2266  37.3048  37.3159  39.0477  39.0849  39.4064  39.4065
    44.6686  44.6688  44.8615  44.8805  46.0126  46.0186  48.5009  48.5009
    49.6449  49.6526  53.0751  53.0760

          k = 0.0951-0.1427-0.1427 (  2324 PWs)   bands (ev):

    10.1318  10.1333  10.1333  10.1344  12.6072  12.6103  12.6104  12.6134
    12.8397  12.8429  12.8429  12.8463  13.2486  13.2569  13.2569  13.2652
    14.5761  14.5822  14.5822  14.5885  15.4871  15.4945  15.4946  15.5018
    21.4757  21.4809  21.4810  21.4861  35.1173  35.1219  35.1220  35.1267
    38.1719  38.1806  38.1806  38.1897  38.9913  39.0011  39.0011  39.0096
    44.1068  44.1165  44.1165  44.1260  45.1376  45.1404  45.1404  45.1430
    50.4957  50.4994  50.4994  50.5037

          k =-0.1427-0.1427-0.1427 (  2320 PWs)   bands (ev):

    10.0477  10.0480  10.0480  10.0481  12.7284  12.7284  12.7284  12.7286
    12.7286  12.7287  12.7288  12.7288  14.1886  14.1887  14.1887  14.1892
    14.7149  14.7149  14.7150  14.7150  14.7150  14.7152  14.7152  14.7152
    20.6894  20.6894  20.6894  20.6894  36.7601  36.7603  36.7603  36.7604
    39.6379  39.6379  39.6379  39.6379  39.6379  39.6384  39.6384  39.6384
    42.8235  42.8235  42.8236  42.8236  42.8236  42.8238  42.8238  42.8238
    48.8768  48.8768  48.8768  48.8770

          k =-0.0476 0.0000 0.0476 (  2309 PWs)   bands (ev):

     6.0975  10.3596  10.3597  10.5493  11.1055  11.1158  11.1161  12.6075
    12.9797  12.9841  13.6936  13.7254  13.7352  13.7566  13.9501  14.3472
    14.4732  14.4732  14.7440  14.7441  14.8150  16.7123  16.7123  18.9603
    24.1518  25.2214  26.4278  26.4281  28.3692  28.3693  28.9706  28.9710
    30.6598  36.1021  36.1305  37.0888  37.0890  37.3414  40.2233  40.2237
    41.1820  42.6808  43.4913  45.1658  46.4125  49.9343  50.3706  53.2531
    53.6239  55.3012  55.3018  56.2338

          k =-0.0476-0.0000 0.0951 (  2304 PWs)   bands (ev):

     7.1270   9.9624  10.8757  10.9940  11.3887  11.4213  11.4627  12.2953
    12.6721  12.8410  13.0325  13.0775  13.2550  13.5761  13.9979  14.0825
    14.1530  14.2400  14.2692  14.7408  14.7509  15.1406  18.3501  20.7810
    22.2731  24.8289  25.6488  26.6612  27.5182  29.7085  29.9534  30.0217
    31.1047  33.7938  34.5013  37.7126  38.6609  40.3331  40.5077  40.8573
    41.1090  44.1115  45.2255  47.1133  47.6982  48.5597  49.8673  51.2506
    52.8852  53.1603  55.0249  56.4440

          k =-0.0951 0.0000 0.0951 (  2318 PWs)   bands (ev):

     8.0768  10.6004  10.6004  11.3573  11.4397  11.6766  11.6773  12.1976
    12.3435  12.3435  12.5170  12.9146  13.3988  13.4724  13.7708  13.9090
    13.9092  14.2730  14.2732  14.4632  14.5397  16.2821  16.2822  19.6020
    22.3223  25.3500  26.9359  26.9360  27.9905  27.9909  31.1082  31.7176
    31.7214  31.8001  33.6486  36.8652  41.4555  41.8531  41.8532  43.1002
    43.2868  43.8043  43.8044  47.2992  47.3483  48.5089  48.5093  51.7223
    52.0575  52.1223  53.3922  55.2426

          k = 0.0476-0.0476 0.0476 (  2298 PWs)   bands (ev):

     6.4461  10.5474  10.5475  10.5475  11.2067  11.2072  11.2072  12.5526
    13.0045  13.0045  13.3940  13.3940  13.3940  13.8623  13.8623  14.1543
    14.1545  14.1545  14.8151  14.8151  14.8153  17.3657  17.3658  17.3658
    25.4502  25.4503  25.4503  26.7574  26.7574  26.7576  31.1856  31.1858
    31.1858  33.5409  36.2522  36.2523  36.2525  39.0901  41.1810  41.1810
    42.8847  42.8848  42.8849  46.4960  47.5955  47.5955  51.7966  51.7966
    55.1707  55.1713  55.1713  55.4354

          k = 0.0476-0.0476 0.0951 (  2312 PWs)   bands (ev):

     7.4431  10.1611  11.0068  11.0069  11.4482  11.4486  11.5042  12.3056
    12.6734  12.6735  12.8383  13.0370  13.1265  13.7671  13.8004  13.8642
    13.8657  14.1382  14.7030  14.7328  14.7331  15.4235  18.6935  18.6936
    22.9103  22.9103  26.7560  27.3845  27.3846  30.4253  30.4254  30.8513
    31.0276  32.6895  36.7109  37.6749  37.9185  38.8119  38.8120  42.3588
    43.5731  44.4775  47.0538  47.0539  47.9135  49.0192  50.1788  50.1789
    50.6919  52.9361  53.0273  55.7575

          k =-0.0951 0.0476 0.0476 (  2312 PWs)   bands (ev):

     7.4431  10.1611  11.0068  11.0069  11.4482  11.4486  11.5042  12.3056
    12.6734  12.6735  12.8383  13.0370  13.1265  13.7671  13.8004  13.8641
    13.8657  14.1382  14.7030  14.7328  14.7331  15.4235  18.6935  18.6936
    22.9103  22.9103  26.7560  27.3845  27.3846  30.4253  30.4255  30.8513
    31.0276  32.6895  36.7109  37.6749  37.9185  38.8119  38.8120  42.3588
    43.5731  44.4775  47.0539  47.0539  47.9135  49.0192  50.1788  50.1789
    50.6919  52.9361  53.0273  55.7575

          k = 0.0476-0.0476-0.1427 (  2306 PWs)   bands (ev):

     8.8780   8.8919  11.4343  11.4344  11.5013  11.5019  11.9035  11.9256
    12.2915  12.2917  12.8064  12.8317  13.3864  13.3927  13.6732  13.6735
    14.2813  14.2984  14.4519  14.4537  14.6853  14.6854  19.7726  19.7727
    21.4429  21.4429  28.3132  28.3150  28.5756  28.5842  29.0338  29.0371
    34.9882  35.0107  35.3575  35.4044  38.1391  38.1868  42.1765  42.1767
    44.8187  44.8464  45.3484  45.3486  49.3732  49.4089  50.8371  50.8495
    52.2069  52.2071  53.8420  53.8498

          k = 0.0951-0.0476 0.0951 (  2322 PWs)   bands (ev):

     8.3289  10.6088  10.6090  11.1206  11.6145  11.7549  11.7553  12.2816
    12.4873  12.4875  12.6123  12.9261  13.0752  13.5273  13.5283  13.5315
    13.8919  14.4520  14.5996  14.6006  14.6186  16.3609  16.3610  18.8933
    21.1404  24.1134  24.1134  28.0906  28.1806  31.1905  31.1906  32.2047
    32.2049  34.0636  35.2590  36.9257  39.3305  39.3307  40.0702  43.1408
    43.7174  44.7208  46.4469  46.4470  49.2353  49.2355  50.3390  50.5689
    50.8901  51.6788  52.3555  52.8432

          k =-0.0951 0.0476 0.0951 (  2322 PWs)   bands (ev):

     8.3289  10.6088  10.6090  11.1206  11.6145  11.7549  11.7553  12.2816
    12.4873  12.4875  12.6123  12.9261  13.0752  13.5273  13.5283  13.5315
    13.8919  14.4520  14.5996  14.6006  14.6186  16.3609  16.3610  18.8933
    21.1404  24.1134  24.1135  28.0906  28.1806  31.1905  31.1907  32.2047
    32.2049  34.0636  35.2590  36.9257  39.3305  39.3307  40.0702  43.1408
    43.7174  44.7208  46.4470  46.4470  49.2353  49.2356  50.3390  50.5689
    50.8901  51.6788  52.3555  52.8428

          k = 0.0951-0.0476-0.1427 (  2316 PWs)   bands (ev):

     9.5443   9.5547  10.9699  10.9746  11.8739  11.8761  12.1056  12.1243
    12.4637  12.4723  12.6470  12.6638  13.2021  13.2064  13.3838  13.3868
    14.2060  14.2152  14.5051  14.5125  15.0562  15.0595  17.5900  17.6021
    22.1080  22.1168  25.8538  25.8597  29.5250  29.5326  33.0878  33.0887
    33.3108  33.3177  36.8834  36.9356  40.1078  40.1186  40.4546  40.4647
    45.1682  45.1719  45.6530  45.6799  47.6672  47.6826  50.5889  50.6101
    51.7139  51.7257  53.9465  53.9687

          k = 0.0951-0.0951 0.0951 (  2329 PWs)   bands (ev):

     8.9939  10.5607  10.5610  10.5611  12.0705  12.0707  12.0708  12.5482
    12.7657  12.7657  12.7666  12.8934  12.8934  13.1659  13.1660  13.1662
    14.3319  14.3319  14.7431  14.7431  14.7433  16.6124  16.6126  16.6126
    21.7423  21.7424  21.7424  25.3687  32.5388  32.5388  32.5390  35.2974
    35.2975  35.2976  37.2783  37.2784  37.2787  37.6143  40.0287  40.0287
    44.4449  44.4449  47.7776  48.0043  48.0044  48.0055  48.1312  48.1313
    48.1314  52.4684  52.4688  52.4688

          k = 0.0951-0.0951-0.1427 (  2322 PWs)   bands (ev):

     9.8167   9.8216  10.5207  10.5209  12.2630  12.2632  12.5703  12.5827
    12.8161  12.8317  12.9259  12.9271  12.9698  12.9698  13.0336  13.0337
    14.6439  14.6459  14.6722  14.6727  14.8694  14.8721  16.8018  16.8018
    20.8119  20.8119  23.2477  23.2539  33.4161  33.4162  34.7051  34.7053
    36.2032  36.2266  37.3048  37.3159  39.0477  39.0849  39.4064  39.4065
    44.6687  44.6688  44.8615  44.8805  46.0126  46.0186  48.5009  48.5009
    49.6449  49.6526  53.0751  53.0760

     the Fermi energy is    14.4880 ev

!    total energy              =    -343.63022487 Ry
     Harris-Foulkes estimate   =    -343.63022486 Ry
     estimated scf accuracy    <          6.2E-09 Ry

     The total energy is the sum of the following terms:

     one-electron contribution =      -6.42200670 Ry
     hartree contribution      =      60.36275321 Ry
     xc contribution           =    -120.51396161 Ry
     ewald contribution        =    -277.00860668 Ry
     Dispersion Correction     =      -0.04782898 Ry
     smearing contrib. (-TS)   =      -0.00057411 Ry

     total magnetization       =     2.84 Bohr mag/cell
     absolute magnetization    =     3.25 Bohr mag/cell

     convergence has been achieved in  11 iterations

     Forces acting on atoms (Ry/au):

     atom    1 type  1   force =    -0.00171149   -0.00171149    0.00171202
     atom    2 type  1   force =     0.00171097    0.00171097    0.00171097
     atom    3 type  1   force =    -0.00171149    0.00171202   -0.00171149
     atom    4 type  1   force =     0.00171202   -0.00171149   -0.00171149

     Total force =     0.005929     Total SCF correction =     0.000015


     entering subroutine stress ...

          total   stress  (Ry/bohr**3)                   (kbar)     P=    0.39
   0.00000263  -0.00000001  -0.00000001          0.39     -0.00     -0.00
  -0.00000001   0.00000263  -0.00000001         -0.00      0.39     -0.00
  -0.00000001  -0.00000001   0.00000263         -0.00     -0.00      0.39


     number of scf cycles    =   2
     number of bfgs steps    =   1

     enthalpy old            =    -343.6296294369 Ry
     enthalpy new            =    -343.6302248680 Ry

     CASE: enthalpy_new < enthalpy_old

     new trust radius        =       0.0031518116 bohr
     new conv_thr            =       0.0000000002 Ry

     new unit-cell volume =    290.08176 a.u.^3 (    42.98568 Ang^3 )

CELL_PARAMETERS (alat=  1.88972590)
   3.503009573  -0.000000512  -0.000000512
  -0.000000512   3.503009573  -0.000000512
  -0.000000512  -0.000000512   3.503009573

ATOMIC_POSITIONS (alat)
Ni1      1.757104318   1.757104318   0.002176408
Ni1      0.002175974   0.002175974   0.002175974
Ni1      1.757104318   0.002176408   1.757104318
Ni1      0.002176408   1.757104318   1.757104318



     Writing output data file Ni-ferromag.save
     NEW-OLD atomic charge density approx. for the potential

     Check: negative/imaginary core charge=   -0.000005    0.000000
     extrapolated charge   39.98695, renormalised to   40.00000

     total cpu time spent up to now is     1123.5 secs

     Self-consistent Calculation

     iteration #  1     ecut=    60.00 Ry     beta=0.20
     Davidson diagonalization with overlap
     ethr =  1.00E-06,  avg # of iterations =  2.3

     total cpu time spent up to now is     1180.3 secs

     total energy              =    -343.63019218 Ry
     Harris-Foulkes estimate   =    -343.64395918 Ry
     estimated scf accuracy    <       0.00005464 Ry

     total magnetization       =     2.83 Bohr mag/cell
     absolute magnetization    =     3.25 Bohr mag/cell

     iteration #  2     ecut=    60.00 Ry     beta=0.20
     Davidson diagonalization with overlap
     ethr =  1.37E-07,  avg # of iterations =  1.6

     total cpu time spent up to now is     1217.9 secs

     total energy              =    -343.63022652 Ry
     Harris-Foulkes estimate   =    -343.63023079 Ry
     estimated scf accuracy    <       0.00002376 Ry

     total magnetization       =     2.84 Bohr mag/cell
     absolute magnetization    =     3.25 Bohr mag/cell

     iteration #  3     ecut=    60.00 Ry     beta=0.20
     Davidson diagonalization with overlap
     ethr =  5.94E-08,  avg # of iterations =  1.0

     total cpu time spent up to now is     1254.7 secs

     total energy              =    -343.63022130 Ry
     Harris-Foulkes estimate   =    -343.63022724 Ry
     estimated scf accuracy    <       0.00000887 Ry

     total magnetization       =     2.84 Bohr mag/cell
     absolute magnetization    =     3.25 Bohr mag/cell

     iteration #  4     ecut=    60.00 Ry     beta=0.20
     Davidson diagonalization with overlap
     ethr =  2.22E-08,  avg # of iterations =  2.0

     total cpu time spent up to now is     1294.1 secs

     total energy              =    -343.63022690 Ry
     Harris-Foulkes estimate   =    -343.63022904 Ry
     estimated scf accuracy    <       0.00001502 Ry

     total magnetization       =     2.83 Bohr mag/cell
     absolute magnetization    =     3.25 Bohr mag/cell

     iteration #  5     ecut=    60.00 Ry     beta=0.20
     Davidson diagonalization with overlap
     ethr =  2.22E-08,  avg # of iterations =  1.0

     total cpu time spent up to now is     1330.9 secs

     total energy              =    -343.63022468 Ry
     Harris-Foulkes estimate   =    -343.63022716 Ry
     estimated scf accuracy    <       0.00000741 Ry

     total magnetization       =     2.84 Bohr mag/cell
     absolute magnetization    =     3.25 Bohr mag/cell

     iteration #  6     ecut=    60.00 Ry     beta=0.20
     Davidson diagonalization with overlap
     ethr =  1.85E-08,  avg # of iterations =  1.0

     total cpu time spent up to now is     1367.7 secs

     total energy              =    -343.63022520 Ry
     Harris-Foulkes estimate   =    -343.63022544 Ry
     estimated scf accuracy    <       0.00000040 Ry

     total magnetization       =     2.84 Bohr mag/cell
     absolute magnetization    =     3.25 Bohr mag/cell

     iteration #  7     ecut=    60.00 Ry     beta=0.20
     Davidson diagonalization with overlap
     ethr =  1.01E-09,  avg # of iterations =  1.2

     total cpu time spent up to now is     1404.7 secs

     total energy              =    -343.63022527 Ry
     Harris-Foulkes estimate   =    -343.63022537 Ry
     estimated scf accuracy    <       0.00000012 Ry

     total magnetization       =     2.84 Bohr mag/cell
     absolute magnetization    =     3.25 Bohr mag/cell

     iteration #  8     ecut=    60.00 Ry     beta=0.20
     Davidson diagonalization with overlap
     ethr =  3.01E-10,  avg # of iterations =  2.0

     total cpu time spent up to now is     1446.7 secs

     total energy              =    -343.63022537 Ry
     Harris-Foulkes estimate   =    -343.63022544 Ry
     estimated scf accuracy    <       0.00000040 Ry

     total magnetization       =     2.84 Bohr mag/cell
     absolute magnetization    =     3.25 Bohr mag/cell

     iteration #  9     ecut=    60.00 Ry     beta=0.20
     Davidson diagonalization with overlap
     ethr =  3.01E-10,  avg # of iterations =  1.0

     total cpu time spent up to now is     1483.5 secs

     total energy              =    -343.63022541 Ry
     Harris-Foulkes estimate   =    -343.63022538 Ry
     estimated scf accuracy    <       0.00000014 Ry

     total magnetization       =     2.84 Bohr mag/cell
     absolute magnetization    =     3.25 Bohr mag/cell

     iteration # 10     ecut=    60.00 Ry     beta=0.20
     Davidson diagonalization with overlap
     ethr =  3.01E-10,  avg # of iterations =  1.0

     total cpu time spent up to now is     1520.3 secs

     total energy              =    -343.63022529 Ry
     Harris-Foulkes estimate   =    -343.63022542 Ry
     estimated scf accuracy    <       0.00000030 Ry

     total magnetization       =     2.84 Bohr mag/cell
     absolute magnetization    =     3.25 Bohr mag/cell

     iteration # 11     ecut=    60.00 Ry     beta=0.20
     Davidson diagonalization with overlap
     ethr =  3.01E-10,  avg # of iterations =  1.0

     Magnetic moment per site:
     atom:    1    charge:    3.0051    magn:    0.3349    constr:    0.0000
     atom:    2    charge:    3.0033    magn:    0.3347    constr:    0.0000
     atom:    3    charge:    3.0051    magn:    0.3349    constr:    0.0000
     atom:    4    charge:    3.0051    magn:    0.3349    constr:    0.0000

     total cpu time spent up to now is     1557.2 secs

     End of self-consistent calculation

 ------ SPIN UP ------------


          k = 0.0000 0.0000 0.0000 (  2325 PWs)   bands (ev):

     5.4316   9.7154   9.7154   9.7154  10.1685  10.1686  10.1686  11.9478
    11.9478  11.9478  13.1267  13.1267  13.8446  13.8446  13.8446  13.9345
    13.9345  13.9345  13.9346  13.9346  13.9346  17.0733  17.0734  17.0734
    23.8119  23.8120  23.8120  29.5702  29.5703  29.5703  29.5703  29.5703
    29.5703  34.6478  34.6478  34.6478  37.9935  37.9936  37.9936  38.4980
    42.4748  42.4748  42.4748  46.0724  46.0724  46.0724  48.1767  55.1719
    55.1719  55.1719  57.6110  59.0328

          k = 0.0000 0.0000 0.0476 (  2305 PWs)   bands (ev):

     5.7979   9.7375   9.8996   9.8996  10.2791  10.2949  10.2950  11.8191
    12.0502  12.0502  13.0086  13.1732  13.2806  13.2807  13.6910  13.6910
    13.7587  13.7587  13.7951  13.9349  13.9349  15.4724  18.0320  18.0321
    23.9078  23.9079  26.0613  27.8183  27.8184  28.4466  28.4467  30.1306
    30.1306  34.7639  36.8207  36.8207  37.8622  38.1254  39.9505  39.9505
    40.2532  40.2533  40.9193  47.4924  48.1296  48.1296  49.1525  51.5607
    56.2677  56.2677  56.6768  56.6769

          k = 0.0000 0.0000 0.0952 (  2316 PWs)   bands (ev):

     6.8472   9.5083  10.3366  10.3366  10.5868  10.6781  10.6782  11.4750
    12.2245  12.2246  12.3468  12.3468  12.7209  13.3020  13.3082  13.3097
    13.3097  13.3228  13.3228  13.6609  13.9354  13.9354  19.9946  19.9946
    24.2251  24.2251  25.0447  25.0447  26.6785  26.6785  30.3611  31.7099
    31.7099  35.1272  36.7294  37.0319  37.0319  38.3513  38.6776  40.8651
    40.8652  44.1153  44.1154  44.1482  50.9284  51.0505  51.0505  51.0536
    51.0536  55.0385  55.9413  55.9414

          k =-0.0000-0.0000-0.1427 (  2360 PWs)   bands (ev):

     8.3417   8.3515  10.6127  10.6127  11.0145  11.0288  11.3178  11.3179
    11.3321  11.3321  12.5338  12.5539  12.7935  12.7935  12.8042  12.8042
    13.0644  13.0644  13.4761  13.4840  13.9357  13.9357  22.3678  22.3679
    22.3927  22.3928  24.5982  24.5982  25.7331  25.7331  34.0791  34.0791
    34.0966  34.0966  34.8925  34.9293  35.7704  35.7791  40.2422  40.3010
    45.6410  45.6411  45.6922  45.6923  47.6213  47.6214  52.2928  52.2928
    54.1552  54.1552  54.2024  54.2025

          k = 0.0000 0.0476 0.0476 (  2309 PWs)   bands (ev):

     6.1555   9.9359   9.9359  10.0628  10.3964  10.3965  10.4104  11.7591
    12.0952  12.1122  12.9344  12.9798  12.9928  12.9971  13.1687  13.5625
    13.6870  13.6870  13.7573  13.7574  13.8189  16.4046  16.4046  18.8019
    23.9020  25.1010  26.2486  26.2486  28.2959  28.2959  28.9391  28.9392
    30.6583  36.0372  36.1211  37.0292  37.0292  37.3349  40.1187  40.1187
    41.2737  42.6065  43.5339  45.2344  46.3655  49.7909  50.4580  53.0965
    53.6718  55.3529  55.3531  56.3069

          k = 0.0000 0.0476 0.0952 (  2304 PWs)   bands (ev):

     7.1771   9.7444  10.4180  10.4665  10.6782  10.7315  10.7506  11.4782
    11.9860  12.1255  12.2411  12.3585  12.3841  12.8172  13.2387  13.3144
    13.3265  13.3480  13.5002  13.7538  13.7603  14.4377  18.0189  20.5847
    22.0827  24.6104  25.5060  26.5352  27.4032  29.6095  29.9029  29.9591
    31.0177  33.7260  34.4693  37.6815  38.6343  40.3924  40.5711  40.7508
    41.1209  44.0427  45.0356  47.0609  47.7881  48.5905  49.8962  51.3382
    52.9431  53.2640  54.8201  56.2043

          k =-0.0000 0.0476-0.1427 (  2312 PWs)   bands (ev):

     8.6235   8.6327  10.7650  10.7656  11.0663  11.0802  11.1870  11.1986
    11.3325  11.3464  12.1629  12.1778  12.7941  12.8051  13.0265  13.0314
    13.0492  13.0498  13.6636  13.6637  13.7506  13.7527  19.8812  19.8938
    22.8683  22.8907  25.4055  25.4226  28.3087  28.3143  31.4955  31.5029
    32.0202  32.0254  35.8100  35.8522  38.8290  38.8322  42.1977  42.2340
    43.1105  43.1240  45.9185  45.9669  50.0635  50.1067  50.3476  50.3680
    52.6077  52.6238  53.1993  53.2123

          k = 0.0000 0.0952 0.0952 (  2318 PWs)   bands (ev):

     8.1036  10.3319  10.3320  10.6978  10.9462  10.9464  10.9602  11.4084
    11.6553  11.6554  11.8099  12.1285  12.4892  12.7310  13.0227  13.1776
    13.1777  13.3180  13.3181  13.4881  13.7033  15.6837  15.6837  19.3020
    22.1113  25.1611  26.7787  26.7787  27.8985  27.8986  30.9870  31.6416
    31.6430  31.7402  33.6066  36.8405  41.5301  41.8828  41.8828  43.0780
    43.4151  43.7747  43.7747  47.1925  47.3324  48.4779  48.4780  51.6771
    52.1806  52.1939  53.2033  55.3539

          k =-0.0000 0.0952-0.1427 (  2306 PWs)   bands (ev):

     9.3669   9.3744  10.7984  10.8072  11.1926  11.2023  11.2103  11.2125
    11.3517  11.3647  11.8596  11.8693  12.8310  12.8361  12.8368  12.8422
    12.9031  12.9050  13.3497  13.3563  14.3640  14.3657  17.2102  17.2201
    24.2269  24.2439  26.2221  26.2359  28.6507  28.6587  29.5394  29.5411
    32.9499  32.9536  36.7729  36.8141  40.3634  40.3715  43.0485  43.0564
    43.2179  43.2216  46.7235  46.7628  47.9155  47.9393  50.4195  50.4415
    51.7474  51.7826  53.5616  53.5709

          k =-0.0000-0.1427-0.1427 (  2296 PWs)   bands (ev):

    10.2173  10.2238  10.2238  10.2302  11.3077  11.3200  11.3200  11.3322
    11.6257  11.6293  11.6293  11.6327  12.6890  12.6902  12.6902  12.6916
    12.9945  13.0047  13.0047  13.0148  15.4305  15.4352  15.4352  15.4399
    26.1979  26.2096  26.2096  26.2212  27.5728  27.5811  27.5812  27.5897
    37.8842  37.8955  37.8955  37.9072  38.4890  38.5029  38.5030  38.5160
    47.1813  47.1813  47.1815  47.1818  49.1709  49.1931  49.1932  49.2153
    51.8201  51.8220  51.8221  51.8238

          k = 0.0476 0.0476 0.0476 (  2298 PWs)   bands (ev):

     6.5012  10.0968  10.0968  10.0968  10.5109  10.5111  10.5111  11.7243
    12.1318  12.1318  12.6888  12.6888  12.6888  13.0818  13.0818  13.3291
    13.3292  13.3292  13.8729  13.8729  13.8730  17.0317  17.0318  17.0318
    25.3276  25.3276  25.3276  26.5938  26.5938  26.5938  31.1735  31.1736
    31.1736  33.4846  36.1685  36.1685  36.1686  39.2552  41.1405  41.1405
    42.8138  42.8138  42.8138  46.5955  47.6508  47.6508  51.6460  51.6460
    55.1105  55.2314  55.2316  55.2316

          k = 0.0476 0.0476 0.0952 (  2312 PWs)   bands (ev):

     7.4827   9.9031  10.4799  10.4800  10.7966  10.8248  10.8249  11.5148
    11.9763  11.9763  12.1708  12.2121  12.2714  12.9268  12.9971  13.0831
    13.0835  13.3215  13.7756  13.7757  13.8080  14.7996  18.3740  18.3741
    22.7086  22.7086  26.6212  27.2450  27.2451  30.3604  30.3605  30.7472
    30.9498  32.6532  36.6476  37.7788  37.8530  38.7930  38.7930  42.3633
    43.5060  44.4726  47.0234  47.0234  47.8853  49.0861  50.2032  50.2032
    50.6986  53.0199  53.0807  55.6601

          k = 0.0476 0.0476-0.1427 (  2306 PWs)   bands (ev):

     8.8510   8.8592  10.8670  10.8672  10.9252  10.9252  11.1621  11.1751
    11.5825  11.5825  12.0673  12.0819  12.5420  12.5470  12.9154  12.9155
    13.4859  13.4962  13.5965  13.5987  13.7197  13.7197  19.5228  19.5229
    21.1474  21.1474  28.2085  28.2093  28.4454  28.4508  28.9293  28.9306
    34.9336  34.9482  35.4031  35.4321  38.0822  38.1126  42.2070  42.2070
    44.7509  44.7673  45.3720  45.3721  49.4719  49.4947  50.8983  50.9062
    52.1882  52.1882  53.6821  53.6840

          k = 0.0476 0.0952 0.0952 (  2322 PWs)   bands (ev):

     8.3215  10.2208  10.2209  10.5069  11.1122  11.1582  11.1583  11.5599
    11.7724  11.7724  11.9056  12.1305  12.2563  12.7345  12.7346  12.7511
    13.0541  13.6090  13.6779  13.6935  13.6939  15.8144  15.8145  18.6259
    20.8051  23.9053  23.9053  27.9436  28.0572  31.1364  31.1364  32.1228
    32.1229  34.0195  35.2438  36.9114  39.3271  39.3272  40.1571  43.0403
    43.7379  44.7871  46.4658  46.4659  49.1949  49.1949  50.4206  50.5984
    50.9275  51.6210  52.3042  52.9293

          k = 0.0476 0.0952-0.1427 (  2316 PWs)   bands (ev):

     9.4023   9.4073  10.4413  10.4428  11.3254  11.3259  11.4688  11.4793
    11.7770  11.7815  11.8954  11.9050  12.4038  12.4074  12.6152  12.6175
    13.3491  13.3532  13.5768  13.5810  14.2703  14.2719  17.1881  17.1962
    21.8177  21.8240  25.6638  25.6683  29.4358  29.4397  33.0409  33.0426
    33.2539  33.2574  36.8904  36.9242  40.1365  40.1439  40.4458  40.4518
    45.1940  45.1968  45.6792  45.6955  47.7027  47.7114  50.5688  50.5823
    51.7897  51.7976  53.8884  53.9036

          k = 0.0476-0.1427-0.1427 (  2332 PWs)   bands (ev):

     9.9720   9.9742   9.9742   9.9762  11.7134  11.7168  11.7168  11.7200
    11.7971  11.8043  11.8043  11.8116  12.3735  12.3770  12.3770  12.3806
    13.3274  13.3338  13.3338  13.3402  15.3410  15.3461  15.3461  15.3512
    23.4499  23.4547  23.4547  23.4595  30.9740  30.9755  30.9755  30.9771
    38.1661  38.1754  38.1754  38.1863  38.3344  38.3473  38.3473  38.3581
    46.6576  46.6577  46.6577  46.6593  46.7488  46.7615  46.7615  46.7728
    54.8040  54.8130  54.8130  55.0763

          k = 0.0952 0.0952 0.0952 (  2329 PWs)   bands (ev):

     8.8654  10.0558  10.0559  10.0559  11.5167  11.5168  11.5168  12.0306
    12.0895  12.0895  12.0922  12.0995  12.0995  12.3804  12.3804  12.3805
    13.4568  13.4568  13.8217  13.8217  13.8217  16.1927  16.1928  16.1928
    21.4124  21.4124  21.4125  25.1526  32.5024  32.5024  32.5024  35.2469
    35.2469  35.2469  37.2766  37.2766  37.2767  37.7943  39.9547  39.9547
    44.4481  44.4481  47.7765  48.0689  48.0689  48.0692  48.1431  48.1431
    48.1431  52.4523  52.4525  52.4525

          k = 0.0952 0.0952-0.1427 (  2322 PWs)   bands (ev):

     9.4908   9.4921   9.9872   9.9873  11.6366  11.6367  11.9192  11.9272
    12.1394  12.1405  12.2591  12.2603  12.2715  12.2797  12.3750  12.3752
    13.7417  13.7425  13.7500  13.7503  14.1609  14.1614  16.4770  16.4770
    20.3834  20.3835  22.9679  22.9726  33.4180  33.4180  34.6302  34.6303
    36.3258  36.3399  37.2455  37.2531  38.9860  39.0100  39.4428  39.4428
    44.6551  44.6551  44.9002  44.9122  46.0185  46.0217  48.5541  48.5541
    49.6071  49.6121  52.9815  52.9818

          k = 0.0952-0.1427-0.1427 (  2324 PWs)   bands (ev):

     9.6669   9.6670   9.6670   9.6671  11.8806  11.8827  11.8827  11.8847
    12.0702  12.0724  12.0724  12.0747  12.8175  12.8220  12.8221  12.8266
    13.6667  13.6702  13.6702  13.6737  14.9636  14.9694  14.9694  14.9752
    21.0930  21.0969  21.0969  21.1008  35.1558  35.1577  35.1578  35.1597
    38.2161  38.2223  38.2223  38.2287  38.9370  38.9435  38.9435  38.9494
    44.0916  44.0971  44.0971  44.1026  45.1589  45.1603  45.1603  45.1617
    50.4213  50.4237  50.4237  50.4263

          k =-0.1427-0.1427-0.1427 (  2320 PWs)   bands (ev):

     9.5509   9.5511   9.5511   9.5511  11.9608  11.9608  11.9608  11.9609
    11.9609  11.9610  11.9610  11.9610  13.7975  13.7975  13.7975  13.7977
    13.7977  13.7977  13.7977  13.7977  14.2941  14.2943  14.2943  14.2943
    20.2157  20.2157  20.2158  20.2158  36.9530  36.9532  36.9532  36.9532
    39.5798  39.5798  39.5798  39.5799  39.5799  39.5800  39.5800  39.5800
    42.8057  42.8057  42.8057  42.8057  42.8057  42.8058  42.8058  42.8058
    48.7776  48.7776  48.7776  48.7776

          k =-0.0476 0.0000 0.0476 (  2309 PWs)   bands (ev):

     6.1555   9.9359   9.9359  10.0628  10.3964  10.3965  10.4104  11.7591
    12.0952  12.1122  12.9344  12.9798  12.9928  12.9971  13.1687  13.5625
    13.6870  13.6870  13.7573  13.7574  13.8189  16.4046  16.4046  18.8019
    23.9020  25.1010  26.2485  26.2486  28.2959  28.2959  28.9391  28.9392
    30.6583  36.0372  36.1210  37.0292  37.0292  37.3349  40.1186  40.1188
    41.2737  42.6065  43.5340  45.2344  46.3655  49.7909  50.4580  53.0965
    53.6717  55.3529  55.3531  56.3069

          k =-0.0476 0.0000 0.0952 (  2304 PWs)   bands (ev):

     7.1771   9.7444  10.4180  10.4665  10.6782  10.7315  10.7506  11.4782
    11.9860  12.1255  12.2411  12.3585  12.3841  12.8172  13.2387  13.3144
    13.3265  13.3480  13.5002  13.7538  13.7603  14.4377  18.0189  20.5847
    22.0827  24.6104  25.5060  26.5352  27.4032  29.6095  29.9029  29.9591
    31.0176  33.7260  34.4693  37.6815  38.6343  40.3924  40.5711  40.7508
    41.1209  44.0427  45.0356  47.0609  47.7881  48.5905  49.8962  51.3382
    52.9431  53.2640  54.8202  56.2043

          k =-0.0952 0.0000 0.0952 (  2318 PWs)   bands (ev):

     8.1036  10.3319  10.3320  10.6978  10.9462  10.9464  10.9602  11.4084
    11.6553  11.6554  11.8099  12.1285  12.4892  12.7310  13.0227  13.1776
    13.1777  13.3180  13.3181  13.4881  13.7033  15.6837  15.6837  19.3020
    22.1113  25.1611  26.7787  26.7787  27.8985  27.8986  30.9870  31.6416
    31.6430  31.7402  33.6066  36.8405  41.5301  41.8828  41.8828  43.0780
    43.4151  43.7747  43.7747  47.1925  47.3324  48.4779  48.4780  51.6771
    52.1806  52.1939  53.2033  55.3535

          k = 0.0476-0.0476 0.0476 (  2298 PWs)   bands (ev):

     6.5012  10.0968  10.0968  10.0968  10.5109  10.5111  10.5111  11.7243
    12.1318  12.1318  12.6888  12.6888  12.6888  13.0818  13.0818  13.3291
    13.3292  13.3292  13.8729  13.8729  13.8730  17.0317  17.0318  17.0318
    25.3276  25.3276  25.3276  26.5938  26.5938  26.5938  31.1735  31.1736
    31.1736  33.4846  36.1685  36.1686  36.1686  39.2552  41.1405  41.1405
    42.8138  42.8138  42.8138  46.5955  47.6508  47.6509  51.6460  51.6460
    55.1105  55.2314  55.2316  55.2316

          k = 0.0476-0.0476 0.0952 (  2312 PWs)   bands (ev):

     7.4827   9.9031  10.4799  10.4799  10.7966  10.8248  10.8249  11.5148
    11.9763  11.9763  12.1708  12.2121  12.2714  12.9268  12.9971  13.0831
    13.0835  13.3215  13.7756  13.7757  13.8080  14.7996  18.3741  18.3741
    22.7086  22.7086  26.6212  27.2451  27.2451  30.3604  30.3605  30.7472
    30.9498  32.6532  36.6476  37.7788  37.8530  38.7930  38.7930  42.3633
    43.5060  44.4726  47.0234  47.0234  47.8853  49.0861  50.2032  50.2032
    50.6986  53.0199  53.0807  55.6601

          k =-0.0952 0.0476 0.0476 (  2312 PWs)   bands (ev):

     7.4827   9.9031  10.4799  10.4799  10.7966  10.8248  10.8249  11.5148
    11.9763  11.9763  12.1708  12.2121  12.2714  12.9268  12.9971  13.0831
    13.0835  13.3216  13.7756  13.7757  13.8080  14.7996  18.3740  18.3741
    22.7086  22.7086  26.6213  27.2450  27.2451  30.3604  30.3605  30.7472
    30.9498  32.6532  36.6476  37.7788  37.8530  38.7930  38.7930  42.3633
    43.5060  44.4726  47.0234  47.0234  47.8853  49.0861  50.2032  50.2032
    50.6986  53.0199  53.0807  55.6601

          k = 0.0476-0.0476-0.1427 (  2306 PWs)   bands (ev):

     8.8510   8.8592  10.8670  10.8672  10.9252  10.9252  11.1621  11.1751
    11.5825  11.5825  12.0673  12.0819  12.5420  12.5470  12.9154  12.9155
    13.4859  13.4962  13.5965  13.5987  13.7197  13.7197  19.5229  19.5229
    21.1474  21.1474  28.2085  28.2093  28.4453  28.4508  28.9293  28.9305
    34.9336  34.9482  35.4031  35.4321  38.0822  38.1126  42.2070  42.2070
    44.7509  44.7673  45.3720  45.3721  49.4719  49.4947  50.8983  50.9062
    52.1881  52.1882  53.6821  53.6839

          k = 0.0952-0.0476 0.0952 (  2322 PWs)   bands (ev):

     8.3215  10.2208  10.2209  10.5069  11.1122  11.1582  11.1583  11.5599
    11.7724  11.7724  11.9056  12.1305  12.2563  12.7345  12.7346  12.7511
    13.0541  13.6090  13.6779  13.6935  13.6939  15.8144  15.8145  18.6259
    20.8051  23.9053  23.9053  27.9436  28.0572  31.1364  31.1364  32.1228
    32.1229  34.0195  35.2438  36.9114  39.3272  39.3272  40.1571  43.0403
    43.7379  44.7871  46.4658  46.4659  49.1948  49.1949  50.4206  50.5984
    50.9275  51.6210  52.3042  52.9293

          k =-0.0952 0.0476 0.0952 (  2322 PWs)   bands (ev):

     8.3215  10.2208  10.2209  10.5069  11.1122  11.1582  11.1583  11.5599
    11.7724  11.7724  11.9056  12.1305  12.2563  12.7345  12.7346  12.7511
    13.0541  13.6090  13.6779  13.6935  13.6939  15.8145  15.8145  18.6259
    20.8051  23.9053  23.9054  27.9436  28.0572  31.1364  31.1365  32.1228
    32.1229  34.0195  35.2438  36.9114  39.3271  39.3272  40.1571  43.0403
    43.7379  44.7871  46.4658  46.4659  49.1948  49.1949  50.4206  50.5984
    50.9275  51.6211  52.3042  52.9292

          k = 0.0952-0.0476-0.1427 (  2316 PWs)   bands (ev):

     9.4023   9.4073  10.4413  10.4428  11.3254  11.3259  11.4688  11.4793
    11.7770  11.7815  11.8954  11.9050  12.4038  12.4074  12.6152  12.6175
    13.3491  13.3532  13.5768  13.5810  14.2703  14.2719  17.1881  17.1962
    21.8177  21.8240  25.6638  25.6683  29.4358  29.4397  33.0409  33.0426
    33.2539  33.2574  36.8904  36.9242  40.1365  40.1439  40.4458  40.4518
    45.1940  45.1968  45.6792  45.6955  47.7027  47.7114  50.5687  50.5823
    51.7897  51.7976  53.8884  53.9034

          k = 0.0952-0.0952 0.0952 (  2329 PWs)   bands (ev):

     8.8654  10.0558  10.0559  10.0559  11.5167  11.5168  11.5168  12.0306
    12.0895  12.0895  12.0922  12.0995  12.0995  12.3804  12.3804  12.3805
    13.4568  13.4568  13.8217  13.8217  13.8217  16.1927  16.1927  16.1928
    21.4124  21.4124  21.4124  25.1526  32.5023  32.5024  32.5024  35.2469
    35.2469  35.2470  37.2766  37.2766  37.2767  37.7943  39.9547  39.9547
    44.4481  44.4481  47.7765  48.0688  48.0689  48.0692  48.1431  48.1431
    48.1431  52.4523  52.4524  52.4525

          k = 0.0952-0.0952-0.1427 (  2322 PWs)   bands (ev):

     9.4908   9.4921   9.9872   9.9873  11.6366  11.6366  11.9192  11.9272
    12.1394  12.1405  12.2591  12.2603  12.2715  12.2797  12.3750  12.3752
    13.7417  13.7425  13.7500  13.7503  14.1609  14.1614  16.4770  16.4770
    20.3834  20.3835  22.9679  22.9726  33.4180  33.4180  34.6302  34.6303
    36.3258  36.3399  37.2456  37.2531  38.9860  39.0100  39.4428  39.4429
    44.6551  44.6552  44.9002  44.9122  46.0185  46.0217  48.5541  48.5541
    49.6071  49.6121  52.9814  52.9818

 ------ SPIN DOWN ----------


          k = 0.0000 0.0000 0.0000 (  2325 PWs)   bands (ev):

     5.3770  10.1775  10.1775  10.1775  10.8868  10.8870  10.8870  12.8283
    12.8283  12.8283  13.9068  13.9068  14.6588  14.6589  14.6589  14.9441
    14.9441  14.9441  14.9442  14.9442  14.9442  16.9946  16.9946  16.9946
    24.1176  24.1177  24.1177  29.5565  29.5565  29.5565  29.5566  29.5566
    29.5566  34.8121  34.8121  34.8121  38.1369  38.1371  38.1371  38.2925
    42.4455  42.4455  42.4456  46.1448  46.1448  46.1449  48.0172  55.3610
    55.3610  55.3610  58.1310  59.5500

          k = 0.0000 0.0000 0.0476 (  2305 PWs)   bands (ev):

     5.7432  10.1531  10.3717  10.3717  11.0062  11.0107  11.0108  12.6863
    12.9348  12.9348  13.7792  13.9555  14.1008  14.1009  14.4918  14.4918
    14.6069  14.7515  14.7515  14.9445  14.9445  15.5426  18.1388  18.1389
    24.1984  24.1985  26.2632  27.8869  27.8870  28.4739  28.4740  30.1332
    30.1332  34.9156  36.9017  36.9017  37.7236  38.2665  40.0708  40.0709
    40.2954  40.2954  40.8494  47.5129  48.1034  48.1035  49.2242  51.5515
    56.4790  56.4790  56.6034  56.6035

          k = 0.0000 0.0000 0.0952 (  2316 PWs)   bands (ev):

     6.7969   9.7165  10.8332  10.8332  11.3393  11.3884  11.3886  12.3080
    12.9539  12.9541  13.2445  13.2445  13.4583  13.6791  14.0797  14.0797
    14.0903  14.2766  14.2766  14.4662  14.9451  14.9451  20.1797  20.1798
    24.4713  24.4714  25.1854  25.1855  26.7766  26.7767  30.4567  31.7468
    31.7468  35.2411  36.6947  37.1033  37.1033  38.2611  38.8236  40.8705
    40.8706  44.2146  44.2147  44.3663  50.8840  50.9557  50.9557  50.9801
    50.9801  54.9343  56.1823  56.1823

          k =-0.0000-0.0000-0.1427 (  2360 PWs)   bands (ev):

     8.3350   8.3452  11.1250  11.1250  11.8045  11.8198  12.0270  12.0271
    12.0416  12.0417  13.1809  13.2029  13.7147  13.7147  13.7259  13.7259
    13.8112  13.8113  14.2726  14.2808  14.9454  14.9454  22.5492  22.5492
    22.5747  22.5747  24.7949  24.7950  25.8904  25.8905  34.1442  34.1442
    34.1616  34.1616  34.8722  34.9100  35.8211  35.8314  40.4338  40.4935
    45.5960  45.5961  45.6484  45.6485  47.6953  47.6954  52.4820  52.4820
    54.0449  54.0449  54.0922  54.0922

          k = 0.0000 0.0476 0.0476 (  2309 PWs)   bands (ev):

     6.1018  10.3641  10.3641  10.5538  11.1101  11.1205  11.1207  12.6127
    12.9852  12.9896  13.6995  13.7359  13.7410  13.7579  13.9559  14.3533
    14.4794  14.4794  14.7503  14.7503  14.8211  16.7191  16.7191  18.9675
    24.1608  25.2307  26.4373  26.4373  28.3788  28.3789  28.9801  28.9802
    30.6693  36.1126  36.1415  37.0998  37.0999  37.3525  40.2366  40.2366
    41.1929  42.6939  43.5030  45.1780  46.4262  49.9496  50.3835  53.2691
    53.6374  55.3150  55.3152  56.2472

          k = 0.0000 0.0476 0.0952 (  2304 PWs)   bands (ev):

     7.1315   9.9670  10.8804  10.9986  11.3936  11.4262  11.4676  12.3003
    12.6774  12.8465  13.0394  13.0816  13.2607  13.5818  14.0038  14.0890
    14.1592  14.2458  14.2750  14.7473  14.7568  15.1470  18.3576  20.7888
    22.2813  24.8384  25.6577  26.6700  27.5284  29.7180  29.9649  30.0295
    31.1150  33.8041  34.5118  37.7235  38.6723  40.3440  40.5187  40.8705
    41.1205  44.1249  45.2400  47.1274  47.7106  48.5729  49.8804  51.2635
    52.8987  53.1735  55.0400  56.4570

          k =-0.0000 0.0476-0.1427 (  2312 PWs)   bands (ev):

     8.6289   8.6385  11.2680  11.2692  11.8470  11.8613  11.8661  11.8778
    12.0445  12.0587  12.9029  12.9199  13.7180  13.7294  13.7954  13.7979
    13.8012  13.8032  14.5021  14.5026  14.7447  14.7472  20.1626  20.1754
    23.0614  23.0840  25.5764  25.5948  28.4252  28.4319  31.6099  31.6166
    32.0785  32.0829  35.8353  35.8775  38.8308  38.8331  42.3498  42.3873
    43.1028  43.1178  45.8700  45.9196  50.1293  50.1718  50.2799  50.3005
    52.5238  52.5406  53.3672  53.3801

          k = 0.0000 0.0952 0.0952 (  2318 PWs)   bands (ev):

     8.0815  10.6052  10.6053  11.3622  11.4445  11.6819  11.6822  12.2024
    12.3487  12.3487  12.5223  12.9198  13.4047  13.4781  13.7764  13.9152
    13.9153  14.2790  14.2791  14.4690  14.5458  16.2890  16.2891  19.6097
    22.3305  25.3595  26.9455  26.9456  27.9997  27.9998  31.1181  31.7302
    31.7318  31.8079  33.6591  36.8762  41.4666  41.8647  41.8648  43.1127
    43.2978  43.8171  43.8172  47.3138  47.3617  48.5228  48.5230  51.7366
    52.0709  52.1353  53.4066  55.2546

          k =-0.0000 0.0952-0.1427 (  2306 PWs)   bands (ev):

     9.4279   9.4361  11.2182  11.2269  11.8476  11.8484  11.9570  11.9707
    12.0723  12.0858  12.5961  12.6069  13.5708  13.5711  13.6436  13.6453
    13.7656  13.7774  14.3180  14.3252  15.1699  15.1721  17.6745  17.6842
    24.4323  24.4489  26.3732  26.3883  28.8134  28.8206  29.6292  29.6316
    33.0212  33.0258  36.8005  36.8419  40.3627  40.3700  42.9946  43.0020
    43.2364  43.2397  46.6614  46.7015  47.9972  48.0221  50.3666  50.3891
    51.8683  51.9034  53.4766  53.4853

          k =-0.0000-0.1427-0.1427 (  2296 PWs)   bands (ev):

    10.4360  10.4432  10.4432  10.4504  12.0448  12.0580  12.0580  12.0710
    12.2946  12.2987  12.2987  12.3027  13.4267  13.4281  13.4281  13.4296
    13.9432  13.9539  13.9539  13.9646  16.1132  16.1172  16.1172  16.1211
    26.3937  26.4046  26.4047  26.4155  27.6954  27.7047  27.7048  27.7143
    37.9586  37.9696  37.9696  37.9811  38.4560  38.4691  38.4692  38.4812
    47.0610  47.0615  47.0615  47.0626  49.1596  49.1824  49.1824  49.2051
    51.9202  51.9232  51.9233  51.9261

          k = 0.0476 0.0476 0.0476 (  2298 PWs)   bands (ev):

     6.4504  10.5520  10.5520  10.5520  11.2117  11.2119  11.2119  12.5578
    13.0101  13.0101  13.3996  13.3996  13.3996  13.8683  13.8683  14.1603
    14.1604  14.1604  14.8214  14.8214  14.8215  17.3728  17.3728  17.3728
    25.4591  25.4592  25.4592  26.7671  26.7671  26.7671  31.1954  31.1955
    31.1955  33.5512  36.2636  36.2636  36.2636  39.0998  41.1931  41.1931
    42.8979  42.8980  42.8980  46.5081  47.6080  47.6080  51.8128  51.8128
    55.1846  55.1849  55.1849  55.4479

          k = 0.0476 0.0476 0.0952 (  2312 PWs)   bands (ev):

     7.4477  10.1658  11.0116  11.0116  11.4532  11.4534  11.5091  12.3106
    12.6788  12.6788  12.8440  13.0421  13.1319  13.7731  13.8070  13.8701
    13.8708  14.1440  14.7093  14.7391  14.7392  15.4300  18.7010  18.7010
    22.9188  22.9188  26.7655  27.3941  27.3941  30.4353  30.4354  30.8614
    31.0373  32.6997  36.7222  37.6847  37.9302  38.8233  38.8233  42.3709
    43.5863  44.4901  47.0676  47.0676  47.9274  49.0319  50.1921  50.1921
    50.7056  52.9494  53.0409  55.7749

          k = 0.0476 0.0476-0.1427 (  2306 PWs)   bands (ev):

     8.8853   8.8941  11.4392  11.4393  11.5065  11.5067  11.9125  11.9266
    12.2966  12.2966  12.8163  12.8325  13.3932  13.3973  13.6792  13.6793
    14.2904  14.3013  14.4583  14.4595  14.6915  14.6915  19.7802  19.7803
    21.4513  21.4514  28.3235  28.3243  28.5875  28.5924  29.0439  29.0454
    35.0031  35.0175  35.3759  35.4059  38.1594  38.1899  42.1883  42.1883
    44.8372  44.8549  45.3611  45.3612  49.3924  49.4153  50.8526  50.8605
    52.2217  52.2217  53.8605  53.8636

          k = 0.0476 0.0952 0.0952 (  2322 PWs)   bands (ev):

     8.3335  10.6137  10.6137  11.1254  11.6194  11.7601  11.7603  12.2867
    12.4926  12.4927  12.6176  12.9314  13.0807  13.5337  13.5342  13.5368
    13.8975  14.4581  14.6064  14.6068  14.6241  16.3678  16.3679  18.9007
    21.1490  24.1224  24.1224  28.1045  28.1859  31.2002  31.2002  32.2154
    32.2155  34.0742  35.2694  36.9366  39.3419  39.3420  40.0808  43.1539
    43.7297  44.7329  46.4599  46.4599  49.2496  49.2497  50.3523  50.5821
    50.9039  51.6937  52.3698  52.8563

          k = 0.0476 0.0952-0.1427 (  2316 PWs)   bands (ev):

     9.5510   9.5576  10.9756  10.9786  11.8794  11.8808  12.1141  12.1261
    12.4704  12.4759  12.6552  12.6659  13.2085  13.2112  13.3900  13.3919
    14.2136  14.2195  14.5125  14.5172  15.0632  15.0653  17.5994  17.6071
    22.1183  22.1239  25.8642  25.8680  29.5360  29.5408  33.0983  33.0988
    33.3225  33.3269  36.9036  36.9371  40.1211  40.1279  40.4681  40.4746
    45.1815  45.1839  45.6706  45.6878  47.6830  47.6929  50.6071  50.6206
    51.7294  51.7370  53.9700  53.9837

          k = 0.0476-0.1427-0.1427 (  2332 PWs)   bands (ev):

    10.3271  10.3311  10.3312  10.3351  12.2815  12.2873  12.2873  12.2931
    12.5003  12.5074  12.5074  12.5145  13.1512  13.1543  13.1543  13.1575
    14.2385  14.2459  14.2459  14.2533  15.9875  15.9918  15.9918  15.9961
    23.7084  23.7124  23.7125  23.7165  31.0557  31.0582  31.0582  31.0607
    38.2386  38.2453  38.2453  38.2583  38.2861  38.3006  38.3006  38.3082
    46.5897  46.5898  46.5898  46.5908  46.7737  46.7869  46.7869  46.7994
    54.8675  54.8771  54.8772  55.0910

          k = 0.0952 0.0952 0.0952 (  2329 PWs)   bands (ev):

     8.9986  10.5656  10.5657  10.5657  12.0758  12.0759  12.0759  12.5536
    12.7713  12.7713  12.7717  12.8985  12.8985  13.1716  13.1716  13.1717
    14.3379  14.3379  14.7494  14.7494  14.7495  16.6193  16.6194  16.6194
    21.7510  21.7510  21.7511  25.3780  32.5488  32.5488  32.5489  35.3083
    35.3084  35.3084  37.2894  37.2894  37.2894  37.6234  40.0408  40.0408
    44.4575  44.4575  47.7916  48.0174  48.0174  48.0178  48.1445  48.1446
    48.1446  52.4836  52.4838  52.4838

          k = 0.0952 0.0952-0.1427 (  2322 PWs)   bands (ev):

     9.8223   9.8254  10.5254  10.5255  12.2683  12.2684  12.5780  12.5858
    12.8243  12.8343  12.9317  12.9325  12.9751  12.9751  13.0391  13.0391
    14.6505  14.6518  14.6786  14.6788  14.8761  14.8779  16.8086  16.8086
    20.8205  20.8205  23.2577  23.2617  33.4259  33.4259  34.7162  34.7164
    36.2168  36.2318  37.3182  37.3253  39.0664  39.0902  39.4175  39.4175
    44.6816  44.6817  44.8774  44.8895  46.0266  46.0304  48.5140  48.5140
    49.6606  49.6655  53.0905  53.0909

          k = 0.0952-0.1427-0.1427 (  2324 PWs)   bands (ev):

    10.1369  10.1378  10.1378  10.1386  12.6137  12.6157  12.6157  12.6177
    12.8463  12.8483  12.8483  12.8505  13.2571  13.2624  13.2624  13.2678
    14.5845  14.5884  14.5884  14.5924  15.4962  15.5010  15.5010  15.5057
    21.4864  21.4897  21.4897  21.4930  35.1289  35.1318  35.1319  35.1349
    38.1858  38.1914  38.1914  38.1972  39.0066  39.0127  39.0127  39.0183
    44.1230  44.1292  44.1292  44.1354  45.1513  45.1531  45.1531  45.1548
    50.5117  50.5142  50.5142  50.5169

          k =-0.1427-0.1427-0.1427 (  2320 PWs)   bands (ev):

    10.0523  10.0525  10.0525  10.0525  12.7339  12.7339  12.7339  12.7340
    12.7340  12.7340  12.7340  12.7340  14.1946  14.1947  14.1947  14.1949
    14.7212  14.7212  14.7212  14.7212  14.7212  14.7213  14.7213  14.7213
    20.6981  20.6981  20.6981  20.6981  36.7689  36.7692  36.7692  36.7692
    39.6499  39.6499  39.6499  39.6500  39.6500  39.6501  39.6501  39.6502
    42.8361  42.8361  42.8361  42.8362  42.8362  42.8363  42.8363  42.8363
    48.8916  48.8917  48.8917  48.8917

          k =-0.0476 0.0000 0.0476 (  2309 PWs)   bands (ev):

     6.1018  10.3641  10.3641  10.5538  11.1101  11.1205  11.1207  12.6127
    12.9852  12.9896  13.6995  13.7359  13.7410  13.7579  13.9560  14.3533
    14.4794  14.4794  14.7503  14.7503  14.8211  16.7191  16.7191  18.9675
    24.1608  25.2307  26.4373  26.4374  28.3788  28.3789  28.9801  28.9803
    30.6693  36.1126  36.1415  37.0998  37.0999  37.3525  40.2364  40.2367
    41.1929  42.6939  43.5031  45.1780  46.4262  49.9496  50.3834  53.2690
    53.6374  55.3149  55.3152  56.2472

          k =-0.0476 0.0000 0.0952 (  2304 PWs)   bands (ev):

     7.1315   9.9670  10.8804  10.9986  11.3936  11.4262  11.4676  12.3003
    12.6774  12.8465  13.0394  13.0816  13.2607  13.5818  14.0038  14.0890
    14.1592  14.2458  14.2750  14.7473  14.7568  15.1470  18.3576  20.7888
    22.2813  24.8384  25.6577  26.6700  27.5284  29.7180  29.9649  30.0295
    31.1150  33.8041  34.5118  37.7235  38.6723  40.3440  40.5187  40.8705
    41.1205  44.1249  45.2400  47.1273  47.7106  48.5730  49.8803  51.2635
    52.8987  53.1735  55.0400  56.4570

          k =-0.0952 0.0000 0.0952 (  2318 PWs)   bands (ev):

     8.0815  10.6052  10.6053  11.3622  11.4445  11.6819  11.6823  12.2024
    12.3487  12.3487  12.5223  12.9198  13.4047  13.4781  13.7764  13.9151
    13.9153  14.2790  14.2791  14.4690  14.5458  16.2890  16.2891  19.6097
    22.3305  25.3595  26.9455  26.9456  27.9997  27.9999  31.1180  31.7302
    31.7318  31.8079  33.6591  36.8762  41.4666  41.8647  41.8648  43.1127
    43.2978  43.8171  43.8172  47.3138  47.3617  48.5228  48.5230  51.7366
    52.0709  52.1354  53.4066  55.2566

          k = 0.0476-0.0476 0.0476 (  2298 PWs)   bands (ev):

     6.4504  10.5520  10.5520  10.5520  11.2117  11.2119  11.2119  12.5578
    13.0101  13.0101  13.3996  13.3996  13.3996  13.8683  13.8683  14.1603
    14.1604  14.1604  14.8214  14.8214  14.8215  17.3728  17.3728  17.3728
    25.4591  25.4592  25.4592  26.7671  26.7671  26.7671  31.1954  31.1955
    31.1955  33.5512  36.2635  36.2636  36.2636  39.0998  41.1931  41.1931
    42.8979  42.8980  42.8980  46.5081  47.6080  47.6081  51.8128  51.8128
    55.1846  55.1849  55.1849  55.4479

          k = 0.0476-0.0476 0.0952 (  2312 PWs)   bands (ev):

     7.4477  10.1658  11.0116  11.0116  11.4532  11.4534  11.5091  12.3106
    12.6788  12.6788  12.8440  13.0420  13.1319  13.7731  13.8070  13.8701
    13.8708  14.1440  14.7093  14.7391  14.7392  15.4300  18.7010  18.7010
    22.9188  22.9188  26.7655  27.3941  27.3941  30.4353  30.4354  30.8614
    31.0373  32.6997  36.7222  37.6847  37.9302  38.8233  38.8233  42.3709
    43.5863  44.4901  47.0675  47.0676  47.9274  49.0319  50.1921  50.1921
    50.7056  52.9494  53.0409  55.7749

          k =-0.0952 0.0476 0.0476 (  2312 PWs)   bands (ev):

     7.4477  10.1658  11.0115  11.0116  11.4532  11.4534  11.5091  12.3106
    12.6788  12.6788  12.8440  13.0420  13.1319  13.7731  13.8070  13.8701
    13.8708  14.1440  14.7093  14.7391  14.7392  15.4300  18.7010  18.7010
    22.9188  22.9188  26.7655  27.3941  27.3941  30.4353  30.4354  30.8614
    31.0373  32.6997  36.7222  37.6847  37.9302  38.8233  38.8233  42.3709
    43.5863  44.4901  47.0676  47.0676  47.9274  49.0319  50.1921  50.1921
    50.7056  52.9494  53.0409  55.7749

          k = 0.0476-0.0476-0.1427 (  2306 PWs)   bands (ev):

     8.8853   8.8941  11.4392  11.4392  11.5065  11.5068  11.9125  11.9266
    12.2966  12.2966  12.8163  12.8325  13.3932  13.3973  13.6792  13.6793
    14.2904  14.3013  14.4583  14.4595  14.6915  14.6915  19.7802  19.7802
    21.4513  21.4514  28.3235  28.3242  28.5875  28.5924  29.0440  29.0453
    35.0031  35.0175  35.3759  35.4059  38.1594  38.1900  42.1883  42.1884
    44.8372  44.8549  45.3611  45.3612  49.3924  49.4153  50.8526  50.8605
    52.2216  52.2217  53.8605  53.8636

          k = 0.0952-0.0476 0.0952 (  2322 PWs)   bands (ev):

     8.3335  10.6137  10.6137  11.1254  11.6194  11.7601  11.7603  12.2867
    12.4926  12.4927  12.6176  12.9314  13.0807  13.5337  13.5342  13.5368
    13.8975  14.4581  14.6064  14.6068  14.6241  16.3678  16.3679  18.9007
    21.1490  24.1224  24.1224  28.1045  28.1859  31.2002  31.2002  32.2154
    32.2155  34.0742  35.2694  36.9366  39.3420  39.3420  40.0808  43.1539
    43.7297  44.7329  46.4599  46.4599  49.2496  49.2497  50.3523  50.5821
    50.9039  51.6937  52.3698  52.8564

          k =-0.0952 0.0476 0.0952 (  2322 PWs)   bands (ev):

     8.3335  10.6137  10.6137  11.1254  11.6194  11.7601  11.7603  12.2867
    12.4926  12.4927  12.6176  12.9314  13.0807  13.5337  13.5341  13.5368
    13.8975  14.4581  14.6064  14.6068  14.6241  16.3678  16.3679  18.9007
    21.1489  24.1224  24.1224  28.1045  28.1859  31.2002  31.2003  32.2154
    32.2155  34.0742  35.2694  36.9366  39.3419  39.3420  40.0808  43.1539
    43.7297  44.7329  46.4599  46.4599  49.2496  49.2497  50.3523  50.5821
    50.9039  51.6937  52.3698  52.8563

          k = 0.0952-0.0476-0.1427 (  2316 PWs)   bands (ev):

     9.5510   9.5576  10.9756  10.9786  11.8794  11.8808  12.1141  12.1261
    12.4704  12.4759  12.6552  12.6659  13.2085  13.2112  13.3900  13.3919
    14.2136  14.2195  14.5125  14.5172  15.0632  15.0653  17.5994  17.6071
    22.1183  22.1239  25.8642  25.8680  29.5359  29.5408  33.0983  33.0988
    33.3225  33.3269  36.9036  36.9371  40.1211  40.1279  40.4681  40.4746
    45.1815  45.1839  45.6706  45.6878  47.6830  47.6929  50.6071  50.6206
    51.7294  51.7370  53.9700  53.9836

          k = 0.0952-0.0952 0.0952 (  2329 PWs)   bands (ev):

     8.9986  10.5656  10.5657  10.5657  12.0758  12.0759  12.0759  12.5536
    12.7713  12.7713  12.7717  12.8985  12.8985  13.1716  13.1716  13.1717
    14.3379  14.3379  14.7494  14.7494  14.7495  16.6193  16.6194  16.6194
    21.7510  21.7510  21.7511  25.3780  32.5488  32.5488  32.5489  35.3084
    35.3084  35.3085  37.2893  37.2894  37.2895  37.6234  40.0408  40.0408
    44.4575  44.4575  47.7917  48.0173  48.0174  48.0178  48.1446  48.1446
    48.1446  52.4836  52.4837  52.4837

          k = 0.0952-0.0952-0.1427 (  2322 PWs)   bands (ev):

     9.8223   9.8254  10.5254  10.5255  12.2683  12.2684  12.5780  12.5858
    12.8243  12.8343  12.9317  12.9325  12.9751  12.9751  13.0391  13.0392
    14.6505  14.6518  14.6786  14.6788  14.8761  14.8779  16.8086  16.8086
    20.8205  20.8205  23.2577  23.2617  33.4258  33.4259  34.7163  34.7163
    36.2168  36.2318  37.3183  37.3253  39.0664  39.0902  39.4174  39.4175
    44.6817  44.6817  44.8774  44.8895  46.0266  46.0304  48.5140  48.5140
    49.6606  49.6655  53.0905  53.0909

     the Fermi energy is    14.4942 ev

!    total energy              =    -343.63022534 Ry
     Harris-Foulkes estimate   =    -343.63022534 Ry
     estimated scf accuracy    <          1.8E-11 Ry

     The total energy is the sum of the following terms:

     one-electron contribution =      -6.37246796 Ry
     hartree contribution      =      60.34593957 Ry
     xc contribution           =    -120.51441964 Ry
     ewald contribution        =    -277.04085195 Ry
     Dispersion Correction     =      -0.04785004 Ry
     smearing contrib. (-TS)   =      -0.00057533 Ry

     total magnetization       =     2.84 Bohr mag/cell
     absolute magnetization    =     3.25 Bohr mag/cell

     convergence has been achieved in  11 iterations

     Forces acting on atoms (Ry/au):

     atom    1 type  1   force =    -0.00109649   -0.00109649    0.00109668
     atom    2 type  1   force =     0.00109631    0.00109631    0.00109631
     atom    3 type  1   force =    -0.00109649    0.00109668   -0.00109649
     atom    4 type  1   force =     0.00109668   -0.00109649   -0.00109649

     Total force =     0.003798     Total SCF correction =     0.000001


     entering subroutine stress ...

          total   stress  (Ry/bohr**3)                   (kbar)     P=    0.28
   0.00000187   0.00000004   0.00000004          0.28      0.01      0.01
   0.00000004   0.00000187   0.00000004          0.01      0.28      0.01
   0.00000004   0.00000004   0.00000187          0.01      0.01      0.28


     number of scf cycles    =   3
     number of bfgs steps    =   2

     enthalpy old            =    -343.6302248680 Ry
     enthalpy new            =    -343.6302253448 Ry

     CASE: enthalpy_new < enthalpy_old

     new trust radius        =       0.0047272039 bohr
     new conv_thr            =            1.0E-10 Ry

     new unit-cell volume =    289.94912 a.u.^3 (    42.96603 Ang^3 )

CELL_PARAMETERS (alat=  1.88972590)
   3.502475582   0.000008391   0.000008391
   0.000008391   3.502475582   0.000008391
   0.000008391   0.000008391   3.502475582

ATOMIC_POSITIONS (alat)
Ni1      1.755396985   1.755396985   0.003629205
Ni1      0.003619365   0.003619365   0.003619365
Ni1      1.755396985   0.003629205   1.755396985
Ni1      0.003629205   1.755396985   1.755396985



     Writing output data file Ni-ferromag.save
     NEW-OLD atomic charge density approx. for the potential

     Check: negative/imaginary core charge=   -0.000005    0.000000
     extrapolated charge   39.98170, renormalised to   40.00000

     total cpu time spent up to now is     1590.5 secs

     Self-consistent Calculation

     iteration #  1     ecut=    60.00 Ry     beta=0.20
     Davidson diagonalization with overlap
     ethr =  1.00E-06,  avg # of iterations =  3.5

     total cpu time spent up to now is     1650.5 secs

     total energy              =    -343.63020489 Ry
     Harris-Foulkes estimate   =    -343.64951817 Ry
     estimated scf accuracy    <       0.00011323 Ry

     total magnetization       =     2.83 Bohr mag/cell
     absolute magnetization    =     3.24 Bohr mag/cell

     iteration #  2     ecut=    60.00 Ry     beta=0.20
     Davidson diagonalization with overlap
     ethr =  2.83E-07,  avg # of iterations =  1.5

     total cpu time spent up to now is     1688.2 secs

     total energy              =    -343.63027376 Ry
     Harris-Foulkes estimate   =    -343.63028205 Ry
     estimated scf accuracy    <       0.00004607 Ry

     total magnetization       =     2.84 Bohr mag/cell
     absolute magnetization    =     3.25 Bohr mag/cell

     iteration #  3     ecut=    60.00 Ry     beta=0.20
     Davidson diagonalization with overlap
     ethr =  1.15E-07,  avg # of iterations =  1.0

     total cpu time spent up to now is     1725.4 secs

     total energy              =    -343.63026396 Ry
     Harris-Foulkes estimate   =    -343.63027518 Ry
     estimated scf accuracy    <       0.00001710 Ry

     total magnetization       =     2.84 Bohr mag/cell
     absolute magnetization    =     3.25 Bohr mag/cell

     iteration #  4     ecut=    60.00 Ry     beta=0.20
     Davidson diagonalization with overlap
     ethr =  4.28E-08,  avg # of iterations =  2.0

     total cpu time spent up to now is     1765.1 secs

     total energy              =    -343.63026957 Ry
     Harris-Foulkes estimate   =    -343.63027889 Ry
     estimated scf accuracy    <       0.00002945 Ry

     total magnetization       =     2.83 Bohr mag/cell
     absolute magnetization    =     3.25 Bohr mag/cell

     iteration #  5     ecut=    60.00 Ry     beta=0.20
     Davidson diagonalization with overlap
     ethr =  4.28E-08,  avg # of iterations =  1.0

     total cpu time spent up to now is     1802.3 secs

     total energy              =    -343.63027149 Ry
     Harris-Foulkes estimate   =    -343.63027221 Ry
     estimated scf accuracy    <       0.00000244 Ry

     total magnetization       =     2.83 Bohr mag/cell
     absolute magnetization    =     3.25 Bohr mag/cell

     iteration #  6     ecut=    60.00 Ry     beta=0.20
     Davidson diagonalization with overlap
     ethr =  6.11E-09,  avg # of iterations =  1.0

     total cpu time spent up to now is     1839.3 secs

     total energy              =    -343.63027152 Ry
     Harris-Foulkes estimate   =    -343.63027169 Ry
     estimated scf accuracy    <       0.00000027 Ry

     total magnetization       =     2.84 Bohr mag/cell
     absolute magnetization    =     3.25 Bohr mag/cell

     iteration #  7     ecut=    60.00 Ry     beta=0.20
     Davidson diagonalization with overlap
     ethr =  6.82E-10,  avg # of iterations =  1.8

     total cpu time spent up to now is     1877.6 secs

     total energy              =    -343.63027148 Ry
     Harris-Foulkes estimate   =    -343.63027170 Ry
     estimated scf accuracy    <       0.00000029 Ry

     total magnetization       =     2.84 Bohr mag/cell
     absolute magnetization    =     3.25 Bohr mag/cell

     iteration #  8     ecut=    60.00 Ry     beta=0.20
     Davidson diagonalization with overlap
     ethr =  6.82E-10,  avg # of iterations =  2.0

     total cpu time spent up to now is     1919.3 secs

     total energy              =    -343.63027166 Ry
     Harris-Foulkes estimate   =    -343.63027181 Ry
     estimated scf accuracy    <       0.00000070 Ry

     total magnetization       =     2.83 Bohr mag/cell
     absolute magnetization    =     3.25 Bohr mag/cell

     iteration #  9     ecut=    60.00 Ry     beta=0.20
     Davidson diagonalization with overlap
     ethr =  6.82E-10,  avg # of iterations =  1.0

     total cpu time spent up to now is     1956.4 secs

     total energy              =    -343.63027169 Ry
     Harris-Foulkes estimate   =    -343.63027168 Ry
     estimated scf accuracy    <       0.00000020 Ry

     total magnetization       =     2.84 Bohr mag/cell
     absolute magnetization    =     3.25 Bohr mag/cell

     iteration # 10     ecut=    60.00 Ry     beta=0.20
     Davidson diagonalization with overlap
     ethr =  4.94E-10,  avg # of iterations =  1.0

     total cpu time spent up to now is     1993.5 secs

     total energy              =    -343.63027159 Ry
     Harris-Foulkes estimate   =    -343.63027169 Ry
     estimated scf accuracy    <       0.00000023 Ry

     total magnetization       =     2.84 Bohr mag/cell
     absolute magnetization    =     3.25 Bohr mag/cell

     iteration # 11     ecut=    60.00 Ry     beta=0.20
     Davidson diagonalization with overlap
     ethr =  4.94E-10,  avg # of iterations =  1.0

     Magnetic moment per site:
     atom:    1    charge:    3.0034    magn:    0.3346    constr:    0.0000
     atom:    2    charge:    3.0016    magn:    0.3344    constr:    0.0000
     atom:    3    charge:    3.0034    magn:    0.3346    constr:    0.0000
     atom:    4    charge:    3.0034    magn:    0.3346    constr:    0.0000

     total cpu time spent up to now is     2030.6 secs

     End of self-consistent calculation

 ------ SPIN UP ------------


          k = 0.0000 0.0000 0.0000 (  2325 PWs)   bands (ev):

     5.4372   9.7215   9.7215   9.7215  10.1751  10.1751  10.1751  11.9555
    11.9555  11.9555  13.1352  13.1352  13.8536  13.8536  13.8536  13.9437
    13.9437  13.9437  13.9437  13.9437  13.9437  17.0824  17.0824  17.0824
    23.8250  23.8250  23.8250  29.5832  29.5832  29.5832  29.5834  29.5834
    29.5834  34.6628  34.6628  34.6628  38.0114  38.0115  38.0115  38.5106
    42.4908  42.4912  42.4912  46.0911  46.0915  46.0915  48.1934  55.1945
    55.1947  55.1947  57.6210  59.0421

          k =-0.0000-0.0000 0.0476 (  2305 PWs)   bands (ev):

     5.8036   9.7437   9.9058   9.9059  10.2856  10.3015  10.3015  11.8267
    12.0579  12.0580  13.0172  13.1820  13.2890  13.2890  13.7000  13.7000
    13.7676  13.7676  13.8040  13.9439  13.9440  15.4813  18.0417  18.0417
    23.9208  23.9208  26.0744  27.8311  27.8311  28.4599  28.4599  30.1437
    30.1439  34.7788  36.8360  36.8360  37.8754  38.1434  39.9691  39.9692
    40.2691  40.2694  40.9346  47.5111  48.1475  48.1477  49.1729  51.5795
    56.2914  56.2915  56.6958  56.6958

          k =-0.0000-0.0000 0.0952 (  2316 PWs)   bands (ev):

     6.8533   9.5147  10.3431  10.3431  10.5935  10.6850  10.6850  11.4823
    12.2324  12.2324  12.3548  12.3548  12.7291  13.3107  13.3164  13.3211
    13.3211  13.3286  13.3286  13.6697  13.9445  13.9445  20.0052  20.0052
    24.2377  24.2378  25.0569  25.0569  26.6919  26.6919  30.3748  31.7237
    31.7239  35.1419  36.7433  37.0476  37.0478  38.3656  38.6958  40.8812
    40.8812  44.1342  44.1343  44.1686  50.9473  51.0680  51.0681  51.0715
    51.0715  55.0579  55.9592  55.9592

          k = 0.0000 0.0000-0.1428 (  2360 PWs)   bands (ev):

     8.3522   8.3537  10.6194  10.6194  11.0277  11.0299  11.3310  11.3310
    11.3333  11.3333  12.5503  12.5534  12.8064  12.8065  12.8081  12.8081
    13.0724  13.0725  13.4882  13.4894  13.9447  13.9448  22.3897  22.3897
    22.3936  22.3936  24.6102  24.6102  25.7471  25.7471  34.1012  34.1014
    34.1039  34.1042  34.9217  34.9275  35.7885  35.7898  40.2863  40.2955
    45.6796  45.6796  45.6876  45.6876  47.6411  47.6412  52.3124  52.3125
    54.1929  54.1931  54.2003  54.2004

          k =-0.0000 0.0476 0.0476 (  2309 PWs)   bands (ev):

     6.1613   9.9422   9.9422  10.0691  10.4031  10.4031  10.4170  11.7666
    12.1030  12.1200  12.9427  12.9924  13.0011  13.0013  13.1772  13.5713
    13.6959  13.6959  13.7663  13.7663  13.8278  16.4141  16.4141  18.8119
    23.9145  25.1138  26.2616  26.2616  28.3091  28.3091  28.9524  28.9524
    30.6719  36.0529  36.1351  37.0444  37.0444  37.3503  40.1368  40.1368
    41.2890  42.6245  43.5506  45.2512  46.3845  49.8125  50.4757  53.1187
    53.6899  55.3718  55.3718  56.3257

          k =-0.0000 0.0476 0.0952 (  2304 PWs)   bands (ev):

     7.1832   9.7509  10.4245  10.4731  10.6851  10.7384  10.7575  11.4854
    11.9936  12.1334  12.2489  12.3665  12.3919  12.8254  13.2472  13.3258
    13.3327  13.3564  13.5088  13.7630  13.7690  14.4469  18.0292  20.5955
    22.0940  24.6237  25.5184  26.5475  27.4174  29.6229  29.9177  29.9713
    31.0322  33.7402  34.4839  37.6967  38.6503  40.4078  40.5865  40.7690
    41.1369  44.0613  45.0562  47.0801  47.8053  48.6090  49.9145  51.3563
    52.9617  53.2822  54.8408  56.2218

          k = 0.0000 0.0476-0.1428 (  2312 PWs)   bands (ev):

     8.6338   8.6353  10.7720  10.7721  11.0795  11.0817  11.1988  11.2006
    11.3456  11.3477  12.1769  12.1793  12.8072  12.8090  13.0373  13.0380
    13.0574  13.0575  13.6724  13.6725  13.7604  13.7607  19.8974  19.8994
    22.8894  22.8929  25.4256  25.4283  28.3248  28.3257  31.5126  31.5138
    32.0364  32.0372  35.8427  35.8493  38.8456  38.8461  42.2321  42.2378
    43.1330  43.1351  45.9559  45.9635  50.1020  50.1087  50.3741  50.3773
    52.6329  52.6355  53.2240  53.2260

          k =-0.0000 0.0952 0.0952 (  2318 PWs)   bands (ev):

     8.1100  10.3387  10.3387  10.7047  10.9534  10.9534  10.9671  11.4154
    11.6628  11.6628  11.8175  12.1361  12.4974  12.7392  13.0310  13.1863
    13.1863  13.3265  13.3265  13.4967  13.7122  15.6935  15.6935  19.3127
    22.1227  25.1743  26.7917  26.7918  27.9115  27.9116  31.0008  31.6574
    31.6574  31.7529  33.6214  36.8558  41.5456  41.8989  41.8989  43.0955
    43.4305  43.7924  43.7925  47.2128  47.3511  48.4969  48.4969  51.6968
    52.1990  52.2123  53.2232  55.3729

          k = 0.0000 0.0952-0.1428 (  2306 PWs)   bands (ev):

     9.3767   9.3779  10.8091  10.8105  11.2068  11.2088  11.2154  11.2155
    11.3643  11.3663  11.8712  11.8727  12.8447  12.8447  12.8448  12.8465
    12.9115  12.9118  13.3610  13.3620  14.3740  14.3743  17.2246  17.2262
    24.2462  24.2489  26.2412  26.2434  28.6673  28.6686  29.5537  29.5540
    32.9661  32.9667  36.8056  36.8120  40.3828  40.3841  43.0679  43.0691
    43.2367  43.2373  46.7572  46.7633  47.9452  47.9489  50.4472  50.4506
    51.7830  51.7885  53.5841  53.5856

          k = 0.0000-0.1428-0.1428 (  2296 PWs)   bands (ev):

    10.2296  10.2306  10.2307  10.2316  11.3253  11.3272  11.3273  11.3292
    11.6360  11.6365  11.6366  11.6371  12.6984  12.6985  12.6986  12.6988
    13.0113  13.0129  13.0129  13.0145  15.4442  15.4449  15.4450  15.4457
    26.2207  26.2225  26.2226  26.2244  27.5930  27.5943  27.5943  27.5956
    37.9103  37.9120  37.9122  37.9139  38.5155  38.5175  38.5176  38.5197
    47.1981  47.1981  47.1982  47.1982  49.2080  49.2114  49.2116  49.2150
    51.8433  51.8435  51.8437  51.8440

          k = 0.0476 0.0476 0.0476 (  2298 PWs)   bands (ev):

     6.5072  10.1032  10.1032  10.1032  10.5177  10.5177  10.5177  11.7317
    12.1397  12.1397  12.6969  12.6969  12.6969  13.0903  13.0903  13.3377
    13.3377  13.3377  13.8820  13.8820  13.8820  17.0416  17.0417  17.0417
    25.3398  25.3398  25.3398  26.6071  26.6072  26.6072  31.1874  31.1874
    31.1874  33.4987  36.1842  36.1842  36.1842  39.2688  41.1577  41.1577
    42.8318  42.8319  42.8319  46.6123  47.6684  47.6684  51.6687  51.6687
    55.1274  55.2506  55.2507  55.2507

          k = 0.0476 0.0476 0.0952 (  2312 PWs)   bands (ev):

     7.4889   9.9096  10.4866  10.4866  10.8036  10.8317  10.8317  11.5221
    11.9840  11.9840  12.1795  12.2190  12.2792  12.9352  13.0059  13.0916
    13.0916  13.3301  13.7846  13.7846  13.8169  14.8088  18.3845  18.3845
    22.7204  22.7204  26.6342  27.2582  27.2583  30.3745  30.3745  30.7610
    30.9635  32.6676  36.6633  37.7926  37.8694  38.8089  38.8089  42.3802
    43.5241  44.4903  47.0421  47.0422  47.9046  49.1039  50.2216  50.2216
    50.7177  53.0381  53.0998  55.6838

          k = 0.0476 0.0476-0.1428 (  2306 PWs)   bands (ev):

     8.8610   8.8622  10.8742  10.8742  10.9320  10.9320  11.1746  11.1767
    11.5898  11.5898  12.0811  12.0834  12.5523  12.5530  12.9238  12.9238
    13.4989  13.5005  13.6062  13.6065  13.7285  13.7285  19.5334  19.5334
    21.1592  21.1593  28.2221  28.2221  28.4612  28.4620  28.9436  28.9436
    34.9551  34.9573  35.4291  35.4337  38.1115  38.1162  42.2234  42.2234
    44.7765  44.7791  45.3896  45.3896  49.4992  49.5027  50.9201  50.9214
    52.2087  52.2087  53.7027  53.7028

          k = 0.0476 0.0952 0.0952 (  2322 PWs)   bands (ev):

     8.3279  10.2275  10.2275  10.5137  11.1193  11.1654  11.1654  11.5672
    11.7799  11.7799  11.9132  12.1381  12.2642  12.7429  12.7429  12.7593
    13.0623  13.6178  13.6872  13.7024  13.7024  15.8242  15.8242  18.6361
    20.8170  23.9177  23.9177  27.9590  28.0683  31.1499  31.1499  32.1377
    32.1377  34.0345  35.2585  36.9266  39.3431  39.3431  40.1720  43.0590
    43.7551  44.8039  46.4837  46.4837  49.2142  49.2143  50.4389  50.6171
    50.9468  51.6419  52.3235  52.9478

          k = 0.0476 0.0952-0.1428 (  2316 PWs)   bands (ev):

     9.4110   9.4118  10.4488  10.4490  11.3329  11.3329  11.4805  11.4821
    11.7865  11.7872  11.9069  11.9084  12.4133  12.4139  12.6243  12.6247
    13.3595  13.3601  13.5873  13.5879  14.2802  14.2804  17.2016  17.2028
    21.8324  21.8334  25.6785  25.6793  29.4509  29.4515  33.0560  33.0563
    33.2700  33.2706  36.9198  36.9251  40.1554  40.1566  40.4648  40.4657
    45.2127  45.2131  45.7037  45.7063  47.7245  47.7259  50.5941  50.5963
    51.8116  51.8129  53.9231  53.9258

          k = 0.0476-0.1428-0.1428 (  2332 PWs)   bands (ev):

     9.9805   9.9808   9.9808   9.9811  11.7239  11.7244  11.7244  11.7249
    11.8104  11.8116  11.8116  11.8127  12.3845  12.3850  12.3850  12.3856
    13.3414  13.3423  13.3424  13.3434  15.3549  15.3556  15.3557  15.3565
    23.4664  23.4671  23.4671  23.4679  30.9890  30.9893  30.9893  30.9896
    38.1911  38.1926  38.1927  38.1943  38.3592  38.3610  38.3611  38.3629
    46.6754  46.6755  46.6756  46.6757  46.7774  46.7792  46.7794  46.7812
    54.8338  54.8352  54.8354  55.1005

          k = 0.0952 0.0952 0.0952 (  2329 PWs)   bands (ev):

     8.8717  10.0624  10.0624  10.0624  11.5241  11.5241  11.5241  12.0385
    12.0994  12.0994  12.0995  12.1050  12.1050  12.3884  12.3884  12.3884
    13.4655  13.4655  13.8307  13.8307  13.8307  16.2023  16.2023  16.2023
    21.4245  21.4245  21.4245  25.1653  32.5162  32.5162  32.5162  35.2623
    35.2623  35.2623  37.2919  37.2919  37.2919  37.8072  39.9719  39.9719
    44.4658  44.4658  47.7956  48.0866  48.0867  48.0867  48.1616  48.1616
    48.1616  52.4729  52.4729  52.4729

          k = 0.0952 0.0952-0.1428 (  2322 PWs)   bands (ev):

     9.4978   9.4980   9.9938   9.9938  11.6440  11.6440  11.9302  11.9315
    12.1477  12.1478  12.2682  12.2682  12.2821  12.2834  12.3828  12.3828
    13.7511  13.7512  13.7590  13.7590  14.1700  14.1701  16.4864  16.4864
    20.3956  20.3956  22.9822  22.9830  33.4315  33.4316  34.6458  34.6458
    36.3449  36.3471  37.2649  37.2661  39.0130  39.0168  39.4583  39.4583
    44.6731  44.6731  44.9225  44.9244  46.0379  46.0384  48.5721  48.5722
    49.6290  49.6298  53.0020  53.0020

          k = 0.0952-0.1428-0.1428 (  2324 PWs)   bands (ev):

     9.6734   9.6734   9.6734   9.6734  11.8900  11.8903  11.8903  11.8906
    12.0798  12.0802  12.0802  12.0806  12.8293  12.8300  12.8301  12.8308
    13.6785  13.6790  13.6791  13.6796  14.9775  14.9784  14.9785  14.9793
    21.1085  21.1090  21.1091  21.1097  35.1713  35.1716  35.1717  35.1720
    38.2364  38.2373  38.2374  38.2384  38.9590  38.9599  38.9600  38.9609
    44.1140  44.1148  44.1150  44.1157  45.1777  45.1779  45.1780  45.1782
    50.4435  50.4439  50.4439  50.4443

          k =-0.1428-0.1428-0.1428 (  2320 PWs)   bands (ev):

     9.5573   9.5574   9.5574   9.5574  11.9685  11.9685  11.9685  11.9686
    11.9686  11.9686  11.9686  11.9686  13.8066  13.8066  13.8066  13.8066
    13.8066  13.8067  13.8067  13.8067  14.3020  14.3021  14.3021  14.3021
    20.2278  20.2280  20.2280  20.2280  36.9654  36.9655  36.9655  36.9657
    39.5966  39.5966  39.5966  39.5967  39.5968  39.5968  39.5969  39.5969
    42.8230  42.8230  42.8230  42.8231  42.8231  42.8231  42.8232  42.8232
    48.7978  48.7978  48.7978  48.7979

          k =-0.0476 0.0000 0.0476 (  2309 PWs)   bands (ev):

     6.1613   9.9422   9.9422  10.0691  10.4031  10.4031  10.4170  11.7667
    12.1030  12.1200  12.9427  12.9924  13.0011  13.0013  13.1772  13.5713
    13.6959  13.6959  13.7663  13.7663  13.8278  16.4141  16.4141  18.8119
    23.9145  25.1139  26.2616  26.2616  28.3090  28.3091  28.9524  28.9524
    30.6716  36.0527  36.1353  37.0445  37.0445  37.3504  40.1368  40.1369
    41.2889  42.6248  43.5504  45.2511  46.3843  49.8123  50.4759  53.1188
    53.6900  55.3720  55.3720  56.3256

          k =-0.0476-0.0000 0.0952 (  2304 PWs)   bands (ev):

     7.1832   9.7509  10.4245  10.4731  10.6851  10.7384  10.7575  11.4854
    11.9936  12.1334  12.2490  12.3665  12.3919  12.8254  13.2472  13.3258
    13.3327  13.3564  13.5088  13.7630  13.7690  14.4469  18.0292  20.5955
    22.0942  24.6237  25.5184  26.5475  27.4175  29.6229  29.9177  29.9711
    31.0322  33.7404  34.4840  37.6968  38.6501  40.4076  40.5864  40.7691
    41.1370  44.0614  45.0561  47.0804  47.8052  48.6088  49.9146  51.3562
    52.9619  53.2823  54.8406  56.2217

          k =-0.0952 0.0000 0.0952 (  2318 PWs)   bands (ev):

     8.1100  10.3387  10.3387  10.7048  10.9534  10.9535  10.9671  11.4154
    11.6628  11.6628  11.8175  12.1361  12.4974  12.7392  13.0310  13.1863
    13.1863  13.3265  13.3265  13.4967  13.7122  15.6935  15.6935  19.3128
    22.1227  25.1743  26.7917  26.7917  27.9115  27.9115  31.0009  31.6575
    31.6575  31.7530  33.6212  36.8556  41.5455  41.8990  41.8990  43.0954
    43.4304  43.7926  43.7927  47.2126  47.3509  48.4971  48.4971  51.6972
    52.1989  52.2123  53.2231  55.3728

          k = 0.0476-0.0476 0.0476 (  2298 PWs)   bands (ev):

     6.5072  10.1032  10.1032  10.1032  10.5177  10.5177  10.5177  11.7317
    12.1397  12.1397  12.6969  12.6969  12.6969  13.0903  13.0903  13.3377
    13.3377  13.3377  13.8820  13.8820  13.8820  17.0416  17.0416  17.0416
    25.3398  25.3400  25.3400  26.6072  26.6072  26.6072  31.1872  31.1872
    31.1874  33.4990  36.1840  36.1841  36.1842  39.2687  41.1574  41.1576
    42.8319  42.8321  42.8322  46.6123  47.6682  47.6684  51.6685  51.6687
    55.1273  55.2506  55.2507  55.2508

          k = 0.0476-0.0476 0.0952 (  2312 PWs)   bands (ev):

     7.4889   9.9096  10.4866  10.4866  10.8036  10.8317  10.8317  11.5221
    11.9840  11.9840  12.1795  12.2190  12.2792  12.9352  13.0059  13.0916
    13.0916  13.3301  13.7846  13.7846  13.8169  14.8088  18.3844  18.3845
    22.7204  22.7205  26.6343  27.2583  27.2584  30.3743  30.3745  30.7612
    30.9636  32.6674  36.6632  37.7925  37.8691  38.8087  38.8089  42.3802
    43.5245  44.4903  47.0423  47.0425  47.9046  49.1037  50.2216  50.2218
    50.7177  53.0383  53.0998  55.6836

          k =-0.0952 0.0476 0.0476 (  2312 PWs)   bands (ev):

     7.4889   9.9096  10.4866  10.4866  10.8036  10.8317  10.8317  11.5221
    11.9840  11.9840  12.1795  12.2190  12.2793  12.9352  13.0059  13.0916
    13.0916  13.3301  13.7846  13.7846  13.8169  14.8088  18.3844  18.3845
    22.7205  22.7205  26.6341  27.2583  27.2584  30.3743  30.3743  30.7612
    30.9636  32.6677  36.6634  37.7926  37.8693  38.8087  38.8087  42.3801
    43.5243  44.4899  47.0425  47.0425  47.9044  49.1038  50.2217  50.2218
    50.7177  53.0384  53.1000  55.6838

          k = 0.0476-0.0476-0.1428 (  2306 PWs)   bands (ev):

     8.8610   8.8622  10.8742  10.8743  10.9320  10.9320  11.1746  11.1767
    11.5898  11.5898  12.0811  12.0834  12.5522  12.5530  12.9238  12.9238
    13.4989  13.5005  13.6062  13.6065  13.7285  13.7285  19.5333  19.5334
    21.1591  21.1593  28.2221  28.2222  28.4614  28.4621  28.9436  28.9437
    34.9548  34.9571  35.4291  35.4336  38.1114  38.1161  42.2232  42.2235
    44.7768  44.7794  45.3894  45.3897  49.4992  49.5028  50.9200  50.9212
    52.2085  52.2089  53.7027  53.7028

          k = 0.0952-0.0476 0.0952 (  2322 PWs)   bands (ev):

     8.3279  10.2275  10.2275  10.5137  11.1193  11.1654  11.1654  11.5672
    11.7799  11.7799  11.9132  12.1381  12.2642  12.7429  12.7429  12.7593
    13.0623  13.6178  13.6871  13.7024  13.7024  15.8242  15.8242  18.6360
    20.8168  23.9178  23.9178  27.9592  28.0685  31.1498  31.1499  32.1377
    32.1377  34.0345  35.2582  36.9267  39.3429  39.3429  40.1719  43.0589
    43.7550  44.8039  46.4838  46.4838  49.2145  49.2145  50.4391  50.6173
    50.9466  51.6420  52.3236  52.9480

          k =-0.0952 0.0476 0.0952 (  2322 PWs)   bands (ev):

     8.3280  10.2275  10.2275  10.5138  11.1193  11.1654  11.1654  11.5672
    11.7799  11.7799  11.9132  12.1382  12.2641  12.7429  12.7429  12.7593
    13.0623  13.6178  13.6871  13.7024  13.7024  15.8241  15.8242  18.6361
    20.8170  23.9176  23.9178  27.9592  28.0684  31.1498  31.1500  32.1377
    32.1378  34.0343  35.2585  36.9265  39.3430  39.3432  40.1718  43.0588
    43.7548  44.8038  46.4839  46.4840  49.2144  49.2145  50.4390  50.6170
    50.9467  51.6417  52.3238  52.9480

          k = 0.0952-0.0476-0.1428 (  2316 PWs)   bands (ev):

     9.4110   9.4118  10.4488  10.4490  11.3329  11.3329  11.4805  11.4821
    11.7864  11.7871  11.9069  11.9084  12.4133  12.4139  12.6243  12.6247
    13.3595  13.3601  13.5873  13.5879  14.2802  14.2804  17.2016  17.2028
    21.8323  21.8333  25.6787  25.6794  29.4510  29.4516  33.0558  33.0561
    33.2700  33.2706  36.9198  36.9251  40.1554  40.1566  40.4646  40.4656
    45.2126  45.2131  45.7037  45.7063  47.7246  47.7260  50.5943  50.5964
    51.8119  51.8131  53.9231  53.9258

          k = 0.0952-0.0952 0.0952 (  2329 PWs)   bands (ev):

     8.8718  10.0624  10.0624  10.0624  11.5241  11.5241  11.5241  12.0385
    12.0994  12.0994  12.0995  12.1050  12.1051  12.3884  12.3884  12.3884
    13.4655  13.4655  13.8307  13.8307  13.8307  16.2023  16.2023  16.2023
    21.4244  21.4245  21.4245  25.1655  32.5163  32.5163  32.5164  35.2621
    35.2621  35.2624  37.2918  37.2918  37.2920  37.8071  39.9716  39.9718
    44.4656  44.4657  47.7955  48.0867  48.0867  48.0869  48.1616  48.1616
    48.1618  52.4732  52.4733  52.4734

          k = 0.0952-0.0952-0.1428 (  2322 PWs)   bands (ev):

     9.4978   9.4980   9.9938   9.9939  11.6440  11.6441  11.9302  11.9315
    12.1476  12.1478  12.2681  12.2682  12.2821  12.2834  12.3828  12.3828
    13.7511  13.7512  13.7590  13.7590  14.1700  14.1701  16.4863  16.4864
    20.3954  20.3956  22.9823  22.9831  33.4316  33.4317  34.6459  34.6460
    36.3448  36.3471  37.2647  37.2659  39.0129  39.0167  39.4581  39.4584
    44.6729  44.6732  44.9225  44.9243  46.0378  46.0383  48.5723  48.5724
    49.6290  49.6298  53.0022  53.0023

 ------ SPIN DOWN ----------


          k = 0.0000 0.0000 0.0000 (  2325 PWs)   bands (ev):

     5.3827  10.1834  10.1834  10.1834  10.8931  10.8931  10.8931  12.8357
    12.8358  12.8358  13.9151  13.9151  14.6675  14.6675  14.6675  14.9530
    14.9530  14.9530  14.9530  14.9530  14.9530  17.0036  17.0036  17.0036
    24.1306  24.1307  24.1307  29.5694  29.5694  29.5695  29.5697  29.5697
    29.5697  34.8272  34.8272  34.8272  38.1549  38.1551  38.1551  38.3052
    42.4615  42.4619  42.4619  46.1637  46.1640  46.1640  48.0341  55.3837
    55.3839  55.3839  58.1409  59.5591

          k =-0.0000-0.0000 0.0476 (  2305 PWs)   bands (ev):

     5.7490  10.1591  10.3777  10.3777  11.0126  11.0171  11.0171  12.6937
    12.9423  12.9423  13.7875  13.9640  14.1089  14.1089  14.5004  14.5004
    14.6155  14.7602  14.7602  14.9533  14.9533  15.5514  18.1486  18.1486
    24.2113  24.2114  26.2764  27.8998  27.8998  28.4872  28.4872  30.1463
    30.1466  34.9306  36.9171  36.9171  37.7368  38.2846  40.0897  40.0898
    40.3110  40.3112  40.8647  47.5318  48.1214  48.1216  49.2445  51.5708
    56.5028  56.5029  56.6225  56.6225

          k =-0.0000-0.0000 0.0952 (  2316 PWs)   bands (ev):

     6.8030   9.7228  10.8394  10.8395  11.3459  11.3951  11.3952  12.3150
    12.9616  12.9616  13.2523  13.2523  13.4665  13.6867  14.0881  14.0881
    14.0986  14.2849  14.2849  14.4747  14.9539  14.9539  20.1904  20.1904
    24.4839  24.4840  25.1976  25.1976  26.7900  26.7901  30.4704  31.7607
    31.7609  35.2560  36.7087  37.1191  37.1193  38.2754  38.8418  40.8867
    40.8867  44.2336  44.2337  44.3868  50.9030  50.9732  50.9733  50.9982
    50.9982  54.9538  56.2008  56.2008

          k = 0.0000 0.0000-0.1428 (  2360 PWs)   bands (ev):

     8.3457   8.3473  11.1313  11.1314  11.8180  11.8204  12.0401  12.0401
    12.0424  12.0424  13.1978  13.2013  13.7280  13.7280  13.7298  13.7298
    13.8183  13.8183  14.2845  14.2858  14.9542  14.9542  22.5714  22.5714
    22.5754  22.5754  24.8070  24.8070  25.9044  25.9044  34.1663  34.1665
    34.1690  34.1693  34.9019  34.9079  35.8399  35.8415  40.4783  40.4876
    45.6351  45.6351  45.6433  45.6433  47.7151  47.7152  52.5019  52.5019
    54.0828  54.0829  54.0902  54.0903

          k =-0.0000 0.0476 0.0476 (  2309 PWs)   bands (ev):

     6.1076  10.3702  10.3702  10.5599  11.1166  11.1270  11.1270  12.6199
    12.9927  12.9971  13.7076  13.7489  13.7490  13.7611  13.9641  14.3618
    14.4880  14.4880  14.7591  14.7591  14.8298  16.7287  16.7287  18.9777
    24.1731  25.2435  26.4503  26.4503  28.3921  28.3921  28.9935  28.9935
    30.6829  36.1269  36.1571  37.1152  37.1152  37.3678  40.2546  40.2548
    41.2083  42.7120  43.5197  45.1949  46.4452  49.9712  50.4013  53.2912
    53.6561  55.3340  55.3340  56.2661

          k =-0.0000 0.0476 0.0952 (  2304 PWs)   bands (ev):

     7.1377   9.9735  10.8867  11.0050  11.4002  11.4329  11.4743  12.3072
    12.6849  12.8541  13.0480  13.0881  13.2685  13.5897  14.0120  14.0976
    14.1676  14.2540  14.2832  14.7562  14.7653  15.1559  18.3679  20.7997
    22.2926  24.8516  25.6701  26.6824  27.5426  29.7315  29.9795  30.0419
    31.1296  33.8184  34.5264  37.7388  38.6883  40.3594  40.5342  40.8889
    41.1366  44.1436  45.2607  47.1466  47.7279  48.5915  49.8986  51.2816
    52.9174  53.1917  55.0611  56.4751

          k = 0.0000 0.0476-0.1428 (  2312 PWs)   bands (ev):

     8.6394   8.6409  11.2750  11.2752  11.8625  11.8648  11.8755  11.8773
    12.0574  12.0596  12.9175  12.9202  13.7314  13.7332  13.8066  13.8069
    13.8075  13.8079  14.5108  14.5109  14.7544  14.7548  20.1789  20.1809
    23.0826  23.0861  25.5971  25.6000  28.4417  28.4428  31.6268  31.6278
    32.0944  32.0951  35.8680  35.8746  38.8471  38.8475  42.3848  42.3906
    43.1260  43.1283  45.9080  45.9157  50.1676  50.1742  50.3066  50.3098
    52.5495  52.5521  53.3923  53.3943

          k =-0.0000 0.0952 0.0952 (  2318 PWs)   bands (ev):

     8.0879  10.6119  10.6119  11.3688  11.4511  11.6890  11.6890  12.2092
    12.3558  12.3558  12.5296  12.9272  13.4127  13.4860  13.7844  13.9235
    13.9235  14.2874  14.2874  14.4774  14.5544  16.2987  16.2987  19.6204
    22.3420  25.3728  26.9587  26.9587  28.0127  28.0128  31.1319  31.7462
    31.7463  31.8204  33.6739  36.8916  41.4822  41.8809  41.8809  43.1302
    43.3133  43.8349  43.8349  47.3342  47.3805  48.5420  48.5420  51.7564
    52.0893  52.1539  53.4270  55.2755

          k = 0.0000 0.0952-0.1428 (  2306 PWs)   bands (ev):

     9.4381   9.4394  11.2287  11.2300  11.8551  11.8552  11.9696  11.9718
    12.0847  12.0868  12.6078  12.6095  13.5789  13.5790  13.6526  13.6529
    13.7782  13.7801  14.3294  14.3305  15.1799  15.1802  17.6888  17.6903
    24.4515  24.4541  26.3929  26.3953  28.8297  28.8308  29.6438  29.6442
    33.0378  33.0386  36.8333  36.8398  40.3819  40.3830  43.0139  43.0150
    43.2551  43.2556  46.6955  46.7017  48.0275  48.0314  50.3945  50.3981
    51.9040  51.9095  53.4989  53.5003

          k = 0.0000-0.1428-0.1428 (  2296 PWs)   bands (ev):

    10.4489  10.4500  10.4501  10.4512  12.0630  12.0651  12.0651  12.0671
    12.3050  12.3056  12.3056  12.3062  13.4358  13.4360  13.4361  13.4363
    13.9603  13.9619  13.9619  13.9636  16.1261  16.1267  16.1268  16.1273
    26.4160  26.4177  26.4177  26.4194  27.7164  27.7178  27.7179  27.7194
    37.9846  37.9862  37.9864  37.9880  38.4817  38.4837  38.4838  38.4857
    47.0782  47.0782  47.0784  47.0785  49.1972  49.2007  49.2009  49.2044
    51.9443  51.9447  51.9450  51.9453

          k = 0.0476 0.0476 0.0476 (  2298 PWs)   bands (ev):

     6.4564  10.5582  10.5582  10.5582  11.2183  11.2183  11.2183  12.5650
    13.0178  13.0178  13.4075  13.4075  13.4075  13.8765  13.8765  14.1686
    14.1686  14.1686  14.8302  14.8302  14.8302  17.3827  17.3827  17.3827
    25.4714  25.4714  25.4714  26.7804  26.7805  26.7805  31.2093  31.2093
    31.2093  33.5653  36.2792  36.2793  36.2793  39.1135  41.2103  41.2103
    42.9160  42.9161  42.9161  46.5251  47.6257  47.6257  51.8355  51.8355
    55.2040  55.2040  55.2040  55.4652

          k = 0.0476 0.0476 0.0952 (  2312 PWs)   bands (ev):

     7.4539  10.1723  11.0180  11.0180  11.4600  11.4600  11.5158  12.3176
    12.6863  12.6863  12.8518  13.0493  13.1395  13.7813  13.8157  13.8783
    13.8784  14.1522  14.7181  14.7478  14.7478  15.4391  18.7114  18.7114
    22.9307  22.9307  26.7785  27.4073  27.4073  30.4494  30.4494  30.8752
    31.0510  32.7141  36.7380  37.6986  37.9466  38.8393  38.8393  42.3877
    43.6045  44.5079  47.0864  47.0864  47.9468  49.0497  50.2106  50.2106
    50.7249  52.9677  53.0600  55.7989

          k = 0.0476 0.0476-0.1428 (  2306 PWs)   bands (ev):

     8.8955   8.8969  11.4459  11.4459  11.5135  11.5135  11.9253  11.9275
    12.3036  12.3036  12.8305  12.8331  13.4028  13.4035  13.6873  13.6873
    14.3034  14.3051  14.4673  14.4675  14.7002  14.7002  19.7908  19.7908
    21.4632  21.4632  28.3371  28.3371  28.6032  28.6039  29.0582  29.0583
    35.0245  35.0267  35.4024  35.4072  38.1888  38.1935  42.2047  42.2048
    44.8634  44.8662  45.3787  45.3787  49.4198  49.4234  50.8745  50.8757
    52.2422  52.2422  53.8827  53.8828

          k = 0.0476 0.0952 0.0952 (  2322 PWs)   bands (ev):

     8.3400  10.6203  10.6203  11.1320  11.6261  11.7671  11.7671  12.2937
    12.4999  12.4999  12.6249  12.9387  13.0882  13.5421  13.5422  13.5443
    13.9056  14.4666  14.6155  14.6155  14.6323  16.3774  16.3775  18.9109
    21.1608  24.1348  24.1348  28.1209  28.1961  31.2137  31.2137  32.2302
    32.2303  34.0892  35.2841  36.9519  39.3580  39.3580  40.0959  43.1725
    43.7469  44.7498  46.4778  46.4778  49.2691  49.2692  50.3706  50.6008
    50.9232  51.7145  52.3894  52.8749

          k = 0.0476 0.0952-0.1428 (  2316 PWs)   bands (ev):

     9.5604   9.5614  10.9835  10.9840  11.8869  11.8871  12.1263  12.1281
    12.4800  12.4808  12.6669  12.6686  13.2174  13.2178  13.3987  13.3990
    14.2244  14.2254  14.5230  14.5237  15.0730  15.0733  17.6126  17.6138
    22.1327  22.1336  25.8787  25.8793  29.5514  29.5522  33.1129  33.1130
    33.3390  33.3397  36.9329  36.9382  40.1398  40.1408  40.4874  40.4884
    45.2000  45.2004  45.6955  45.6982  47.7054  47.7070  50.6326  50.6347
    51.7512  51.7524  54.0023  54.0058

          k = 0.0476-0.1428-0.1428 (  2332 PWs)   bands (ev):

    10.3371  10.3377  10.3377  10.3383  12.2937  12.2946  12.2946  12.2955
    12.5134  12.5146  12.5146  12.5157  13.1615  13.1620  13.1620  13.1625
    14.2531  14.2542  14.2543  14.2554  16.0006  16.0012  16.0013  16.0019
    23.7243  23.7249  23.7249  23.7255  31.0716  31.0720  31.0721  31.0725
    38.2634  38.2648  38.2650  38.2665  38.3103  38.3120  38.3121  38.3137
    46.6074  46.6074  46.6075  46.6076  46.8030  46.8049  46.8051  46.8070
    54.8981  54.8997  54.8999  55.1112

          k = 0.0952 0.0952 0.0952 (  2329 PWs)   bands (ev):

     9.0050  10.5721  10.5721  10.5721  12.0829  12.0829  12.0829  12.5611
    12.7789  12.7789  12.7789  12.9058  12.9058  13.1793  13.1794  13.1794
    14.3463  14.3463  14.7582  14.7582  14.7582  16.6288  16.6289  16.6289
    21.7631  21.7631  21.7631  25.3907  32.5626  32.5627  32.5627  35.3237
    35.3238  35.3238  37.3047  37.3048  37.3048  37.6364  40.0580  40.0580
    44.4751  44.4751  47.8109  48.0352  48.0352  48.0352  48.1631  48.1632
    48.1632  52.5042  52.5043  52.5043

          k = 0.0952 0.0952-0.1428 (  2322 PWs)   bands (ev):

     9.8300   9.8305  10.5318  10.5318  12.2754  12.2755  12.5887  12.5899
    12.8360  12.8376  12.9396  12.9397  12.9825  12.9825  13.0467  13.0467
    14.6597  14.6599  14.6873  14.6873  14.8856  14.8859  16.8180  16.8180
    20.8326  20.8326  23.2718  23.2724  33.4394  33.4395  34.7318  34.7319
    36.2363  36.2387  37.3374  37.3385  39.0933  39.0970  39.4329  39.4330
    44.6997  44.6997  44.8998  44.9017  46.0463  46.0469  48.5321  48.5321
    49.6825  49.6833  53.1114  53.1114

          k = 0.0952-0.1428-0.1428 (  2324 PWs)   bands (ev):

    10.1439  10.1441  10.1441  10.1442  12.6227  12.6230  12.6230  12.6233
    12.8555  12.8558  12.8558  12.8562  13.2693  13.2701  13.2702  13.2710
    14.5964  14.5970  14.5971  14.5977  15.5093  15.5100  15.5100  15.5107
    21.5013  21.5018  21.5018  21.5023  35.1453  35.1457  35.1458  35.1463
    38.2057  38.2066  38.2067  38.2075  39.0282  39.0290  39.0292  39.0300
    44.1460  44.1469  44.1471  44.1480  45.1704  45.1707  45.1708  45.1710
    50.5341  50.5345  50.5345  50.5350

          k =-0.1428-0.1428-0.1428 (  2320 PWs)   bands (ev):

    10.0586  10.0586  10.0586  10.0587  12.7413  12.7413  12.7413  12.7414
    12.7414  12.7414  12.7414  12.7414  14.2028  14.2029  14.2029  14.2029
    14.7299  14.7299  14.7299  14.7299  14.7299  14.7299  14.7299  14.7299
    20.7101  20.7102  20.7102  20.7103  36.7814  36.7817  36.7817  36.7818
    39.6667  39.6667  39.6667  39.6668  39.6669  39.6669  39.6670  39.6670
    42.8535  42.8535  42.8535  42.8536  42.8536  42.8536  42.8537  42.8537
    48.9120  48.9120  48.9120  48.9121

          k =-0.0476 0.0000 0.0476 (  2309 PWs)   bands (ev):

     6.1076  10.3702  10.3702  10.5599  11.1166  11.1270  11.1270  12.6200
    12.9927  12.9972  13.7076  13.7488  13.7490  13.7611  13.9641  14.3618
    14.4880  14.4880  14.7591  14.7591  14.8298  16.7287  16.7287  18.9777
    24.1732  25.2437  26.4503  26.4504  28.3920  28.3921  28.9934  28.9935
    30.6827  36.1270  36.1569  37.1152  37.1152  37.3679  40.2547  40.2548
    41.2082  42.7122  43.5195  45.1948  46.4450  49.9711  50.4015  53.2913
    53.6562  55.3342  55.3342  56.2660

          k =-0.0476-0.0000 0.0952 (  2304 PWs)   bands (ev):

     7.1377   9.9734  10.8867  11.0050  11.4002  11.4329  11.4743  12.3073
    12.6849  12.8541  13.0480  13.0882  13.2685  13.5897  14.0120  14.0976
    14.1676  14.2540  14.2832  14.7562  14.7653  15.1559  18.3678  20.7997
    22.2927  24.8517  25.6701  26.6824  27.5427  29.7314  29.9795  30.0417
    31.1296  33.8185  34.5265  37.7389  38.6881  40.3593  40.5341  40.8890
    41.1367  44.1436  45.2605  47.1469  47.7278  48.5913  49.8988  51.2816
    52.9176  53.1919  55.0610  56.4751

          k =-0.0952 0.0000 0.0952 (  2318 PWs)   bands (ev):

     8.0879  10.6119  10.6119  11.3689  11.4512  11.6890  11.6890  12.2092
    12.3558  12.3558  12.5296  12.9272  13.4127  13.4859  13.7844  13.9235
    13.9235  14.2874  14.2874  14.4774  14.5544  16.2986  16.2987  19.6205
    22.3421  25.3728  26.9586  26.9587  28.0127  28.0127  31.1320  31.7463
    31.7464  31.8205  33.6737  36.8914  41.4821  41.8810  41.8810  43.1300
    43.3131  43.8350  43.8351  47.3340  47.3803  48.5421  48.5421  51.7568
    52.0892  52.1537  53.4268  55.2757

          k = 0.0476-0.0476 0.0476 (  2298 PWs)   bands (ev):

     6.4564  10.5582  10.5582  10.5582  11.2183  11.2183  11.2183  12.5650
    13.0177  13.0178  13.4075  13.4075  13.4075  13.8765  13.8765  14.1686
    14.1686  14.1686  14.8302  14.8302  14.8302  17.3827  17.3827  17.3827
    25.4714  25.4716  25.4716  26.7805  26.7805  26.7805  31.2091  31.2091
    31.2094  33.5656  36.2791  36.2791  36.2793  39.1134  41.2099  41.2102
    42.9161  42.9163  42.9164  46.5251  47.6255  47.6257  51.8353  51.8355
    55.2040  55.2040  55.2042  55.4652

          k = 0.0476-0.0476 0.0952 (  2312 PWs)   bands (ev):

     7.4539  10.1723  11.0180  11.0180  11.4600  11.4600  11.5158  12.3176
    12.6863  12.6863  12.8518  13.0494  13.1395  13.7813  13.8157  13.8783
    13.8784  14.1522  14.7181  14.7478  14.7478  15.4391  18.7114  18.7114
    22.9307  22.9308  26.7786  27.4074  27.4075  30.4492  30.4494  30.8754
    31.0510  32.7139  36.7378  37.6985  37.9463  38.8390  38.8393  42.3877
    43.6049  44.5078  47.0865  47.0867  47.9467  49.0496  50.2106  50.2108
    50.7248  52.9679  53.0600  55.7987

          k =-0.0952 0.0476 0.0476 (  2312 PWs)   bands (ev):

     7.4539  10.1722  11.0180  11.0180  11.4600  11.4600  11.5158  12.3176
    12.6863  12.6863  12.8518  13.0493  13.1395  13.7813  13.8156  13.8783
    13.8784  14.1522  14.7181  14.7478  14.7478  15.4391  18.7114  18.7114
    22.9308  22.9308  26.7783  27.4074  27.4074  30.4492  30.4492  30.8754
    31.0511  32.7142  36.7380  37.6986  37.9465  38.8391  38.8391  42.3876
    43.6047  44.5075  47.0867  47.0868  47.9465  49.0497  50.2108  50.2108
    50.7248  52.9680  53.0602  55.7989

          k = 0.0476-0.0476-0.1428 (  2306 PWs)   bands (ev):

     8.8956   8.8969  11.4459  11.4459  11.5135  11.5135  11.9253  11.9275
    12.3036  12.3036  12.8305  12.8331  13.4028  13.4034  13.6873  13.6873
    14.3034  14.3051  14.4673  14.4675  14.7001  14.7002  19.7907  19.7908
    21.4631  21.4632  28.3371  28.3372  28.6034  28.6041  29.0582  29.0584
    35.0243  35.0265  35.4024  35.4071  38.1887  38.1934  42.2046  42.2049
    44.8637  44.8665  45.3785  45.3788  49.4199  49.4235  50.8744  50.8756
    52.2421  52.2424  53.8827  53.8829

          k = 0.0952-0.0476 0.0952 (  2322 PWs)   bands (ev):

     8.3400  10.6203  10.6203  11.1320  11.6261  11.7671  11.7671  12.2937
    12.4999  12.4999  12.6249  12.9387  13.0883  13.5421  13.5421  13.5443
    13.9056  14.4666  14.6155  14.6155  14.6322  16.3775  16.3775  18.9108
    21.1607  24.1349  24.1349  28.1212  28.1962  31.2137  31.2137  32.2303
    32.2303  34.0892  35.2838  36.9519  39.3577  39.3577  40.0958  43.1725
    43.7468  44.7498  46.4779  46.4779  49.2694  49.2694  50.3708  50.6010
    50.9230  51.7147  52.3895  52.8751

          k =-0.0952 0.0476 0.0952 (  2322 PWs)   bands (ev):

     8.3400  10.6203  10.6203  11.1320  11.6261  11.7671  11.7671  12.2937
    12.4999  12.4999  12.6249  12.9387  13.0882  13.5421  13.5421  13.5443
    13.9056  14.4666  14.6155  14.6155  14.6323  16.3774  16.3774  18.9109
    21.1609  24.1347  24.1349  28.1211  28.1962  31.2136  31.2138  32.2303
    32.2304  34.0890  35.2840  36.9518  39.3579  39.3580  40.0957  43.1723
    43.7467  44.7496  46.4780  46.4780  49.2693  49.2694  50.3707  50.6007
    50.9232  51.7144  52.3897  52.8751

          k = 0.0952-0.0476-0.1428 (  2316 PWs)   bands (ev):

     9.5604   9.5614  10.9835  10.9840  11.8869  11.8871  12.1263  12.1282
    12.4799  12.4808  12.6670  12.6686  13.2173  13.2178  13.3987  13.3990
    14.2244  14.2254  14.5230  14.5237  15.0730  15.0733  17.6126  17.6138
    22.1326  22.1335  25.8788  25.8794  29.5515  29.5523  33.1127  33.1129
    33.3390  33.3397  36.9329  36.9381  40.1397  40.1408  40.4872  40.4882
    45.2000  45.2004  45.6955  45.6982  47.7055  47.7071  50.6327  50.6348
    51.7514  51.7526  54.0021  54.0057

          k = 0.0952-0.0952 0.0952 (  2329 PWs)   bands (ev):

     9.0050  10.5721  10.5721  10.5721  12.0829  12.0829  12.0829  12.5611
    12.7789  12.7789  12.7789  12.9058  12.9059  13.1793  13.1793  13.1793
    14.3463  14.3463  14.7582  14.7582  14.7582  16.6288  16.6289  16.6289
    21.7630  21.7631  21.7632  25.3909  32.5628  32.5628  32.5629  35.3236
    35.3237  35.3239  37.3046  37.3046  37.3048  37.6363  40.0577  40.0579
    44.4749  44.4751  47.8108  48.0353  48.0353  48.0355  48.1631  48.1631
    48.1633  52.5045  52.5047  52.5047

          k = 0.0952-0.0952-0.1428 (  2322 PWs)   bands (ev):

     9.8300   9.8305  10.5318  10.5318  12.2754  12.2755  12.5887  12.5899
    12.8361  12.8376  12.9396  12.9397  12.9825  12.9825  13.0467  13.0467
    14.6597  14.6599  14.6873  14.6873  14.8856  14.8859  16.8180  16.8180
    20.8325  20.8326  23.2719  23.2725  33.4395  33.4396  34.7319  34.7320
    36.2362  36.2386  37.3372  37.3383  39.0932  39.0970  39.4328  39.4331
    44.6995  44.6998  44.8999  44.9017  46.0462  46.0468  48.5323  48.5324
    49.6825  49.6833  53.1115  53.1116

     the Fermi energy is    14.5028 ev

!    total energy              =    -343.63027164 Ry
     Harris-Foulkes estimate   =    -343.63027163 Ry
     estimated scf accuracy    <          8.0E-11 Ry

     The total energy is the sum of the following terms:

     one-electron contribution =      -6.30666733 Ry
     hartree contribution      =      60.32486480 Ry
     xc contribution           =    -120.51548329 Ry
     ewald contribution        =    -277.08452958 Ry
     Dispersion Correction     =      -0.04787995 Ry
     smearing contrib. (-TS)   =      -0.00057628 Ry

     total magnetization       =     2.84 Bohr mag/cell
     absolute magnetization    =     3.25 Bohr mag/cell

     convergence has been achieved in  11 iterations

     Forces acting on atoms (Ry/au):

     atom    1 type  1   force =    -0.00016841   -0.00016841    0.00016831
     atom    2 type  1   force =     0.00016850    0.00016850    0.00016850
     atom    3 type  1   force =    -0.00016841    0.00016831   -0.00016841
     atom    4 type  1   force =     0.00016831   -0.00016841   -0.00016841

     Total force =     0.000583     Total SCF correction =     0.000009


     entering subroutine stress ...

          total   stress  (Ry/bohr**3)                   (kbar)     P=    1.14
   0.00000777  -0.00000004  -0.00000004          1.14     -0.01     -0.01
  -0.00000004   0.00000777  -0.00000004         -0.01      1.14     -0.01
  -0.00000004  -0.00000004   0.00000777         -0.01     -0.01      1.14


     number of scf cycles    =   4
     number of bfgs steps    =   3

     enthalpy old            =    -343.6302253448 Ry
     enthalpy new            =    -343.6302716352 Ry

     CASE: enthalpy_new < enthalpy_old

     new trust radius        =       0.0008387283 bohr
     new conv_thr            =            1.0E-10 Ry

     new unit-cell volume =    290.10342 a.u.^3 (    42.98889 Ang^3 )

CELL_PARAMETERS (alat=  1.88972590)
   3.503096749   0.000005140   0.000005140
   0.000005140   3.503096749   0.000005140
   0.000005140   0.000005140   3.503096749

ATOMIC_POSITIONS (alat)
Ni1      1.755450415   1.755450415   0.003882812
Ni1      0.003876294   0.003876294   0.003876294
Ni1      1.755450415   0.003882812   1.755450415
Ni1      0.003882812   1.755450415   1.755450415



     Writing output data file Ni-ferromag.save
     NEW-OLD atomic charge density approx. for the potential

     Check: negative/imaginary core charge=   -0.000005    0.000000
     extrapolated charge   40.02127, renormalised to   40.00000

     total cpu time spent up to now is     2064.4 secs

     Self-consistent Calculation

     iteration #  1     ecut=    60.00 Ry     beta=0.20
     Davidson diagonalization with overlap
     ethr =  1.00E-06,  avg # of iterations =  2.2

     total cpu time spent up to now is     2121.3 secs

     total energy              =    -343.63018313 Ry
     Harris-Foulkes estimate   =    -343.60793203 Ry
     estimated scf accuracy    <       0.00014476 Ry

     total magnetization       =     2.84 Bohr mag/cell
     absolute magnetization    =     3.26 Bohr mag/cell

     iteration #  2     ecut=    60.00 Ry     beta=0.20
     Davidson diagonalization with overlap
     ethr =  3.62E-07,  avg # of iterations =  1.8

     total cpu time spent up to now is     2159.5 secs

     total energy              =    -343.63027584 Ry
     Harris-Foulkes estimate   =    -343.63028699 Ry
     estimated scf accuracy    <       0.00005786 Ry

     total magnetization       =     2.83 Bohr mag/cell
     absolute magnetization    =     3.25 Bohr mag/cell

     iteration #  3     ecut=    60.00 Ry     beta=0.20
     Davidson diagonalization with overlap
     ethr =  1.45E-07,  avg # of iterations =  1.0

     total cpu time spent up to now is     2196.6 secs

     total energy              =    -343.63026504 Ry
     Harris-Foulkes estimate   =    -343.63027773 Ry
     estimated scf accuracy    <       0.00001993 Ry

     total magnetization       =     2.83 Bohr mag/cell
     absolute magnetization    =     3.25 Bohr mag/cell

     iteration #  4     ecut=    60.00 Ry     beta=0.20
     Davidson diagonalization with overlap
     ethr =  4.98E-08,  avg # of iterations =  1.1

     total cpu time spent up to now is     2233.9 secs

     total energy              =    -343.63027526 Ry
     Harris-Foulkes estimate   =    -343.63027541 Ry
     estimated scf accuracy    <       0.00001057 Ry

     total magnetization       =     2.84 Bohr mag/cell
     absolute magnetization    =     3.25 Bohr mag/cell

     iteration #  5     ecut=    60.00 Ry     beta=0.20
     Davidson diagonalization with overlap
     ethr =  2.64E-08,  avg # of iterations =  1.0

     total cpu time spent up to now is     2271.0 secs

     total energy              =    -343.63027223 Ry
     Harris-Foulkes estimate   =    -343.63027528 Ry
     estimated scf accuracy    <       0.00000996 Ry

     total magnetization       =     2.84 Bohr mag/cell
     absolute magnetization    =     3.25 Bohr mag/cell

     iteration #  6     ecut=    60.00 Ry     beta=0.20
     Davidson diagonalization with overlap
     ethr =  2.49E-08,  avg # of iterations =  1.0

     total cpu time spent up to now is     2308.1 secs

     total energy              =    -343.63027289 Ry
     Harris-Foulkes estimate   =    -343.63027305 Ry
     estimated scf accuracy    <       0.00000098 Ry

     total magnetization       =     2.84 Bohr mag/cell
     absolute magnetization    =     3.25 Bohr mag/cell

     iteration #  7     ecut=    60.00 Ry     beta=0.20
     Davidson diagonalization with overlap
     ethr =  2.45E-09,  avg # of iterations =  1.0

     total cpu time spent up to now is     2345.2 secs

     total energy              =    -343.63027284 Ry
     Harris-Foulkes estimate   =    -343.63027291 Ry
     estimated scf accuracy    <       0.00000042 Ry

     total magnetization       =     2.84 Bohr mag/cell
     absolute magnetization    =     3.25 Bohr mag/cell

     iteration #  8     ecut=    60.00 Ry     beta=0.20
     Davidson diagonalization with overlap
     ethr =  1.06E-09,  avg # of iterations =  1.0

     total cpu time spent up to now is     2382.3 secs

     total energy              =    -343.63027286 Ry
     Harris-Foulkes estimate   =    -343.63027285 Ry
     estimated scf accuracy    <       0.00000019 Ry

     total magnetization       =     2.84 Bohr mag/cell
     absolute magnetization    =     3.25 Bohr mag/cell

     iteration #  9     ecut=    60.00 Ry     beta=0.20
     Davidson diagonalization with overlap
     ethr =  4.66E-10,  avg # of iterations =  1.0

     total cpu time spent up to now is     2419.4 secs

     total energy              =    -343.63027282 Ry
     Harris-Foulkes estimate   =    -343.63027286 Ry
     estimated scf accuracy    <       0.00000023 Ry

     total magnetization       =     2.84 Bohr mag/cell
     absolute magnetization    =     3.25 Bohr mag/cell

     iteration # 10     ecut=    60.00 Ry     beta=0.20
     Davidson diagonalization with overlap
     ethr =  4.66E-10,  avg # of iterations =  1.0

     total cpu time spent up to now is     2456.6 secs

     total energy              =    -343.63027279 Ry
     Harris-Foulkes estimate   =    -343.63027283 Ry
     estimated scf accuracy    <       0.00000008 Ry

     total magnetization       =     2.84 Bohr mag/cell
     absolute magnetization    =     3.25 Bohr mag/cell

     iteration # 11     ecut=    60.00 Ry     beta=0.20
     Davidson diagonalization with overlap
     ethr =  2.05E-10,  avg # of iterations =  1.0

     Magnetic moment per site:
     atom:    1    charge:    3.0048    magn:    0.3349    constr:    0.0000
     atom:    2    charge:    3.0030    magn:    0.3347    constr:    0.0000
     atom:    3    charge:    3.0048    magn:    0.3349    constr:    0.0000
     atom:    4    charge:    3.0048    magn:    0.3349    constr:    0.0000

     total cpu time spent up to now is     2493.7 secs

     End of self-consistent calculation

 ------ SPIN UP ------------


          k = 0.0000 0.0000 0.0000 (  2325 PWs)   bands (ev):

     5.4307   9.7145   9.7145   9.7145  10.1676  10.1676  10.1676  11.9466
    11.9466  11.9466  13.1254  13.1254  13.8431  13.8431  13.8431  13.9331
    13.9331  13.9331  13.9331  13.9331  13.9331  17.0718  17.0718  17.0718
    23.8099  23.8099  23.8099  29.5679  29.5679  29.5680  29.5681  29.5681
    29.5681  34.6454  34.6454  34.6454  37.9908  37.9909  37.9909  38.4958
    42.4718  42.4720  42.4720  46.0692  46.0694  46.0694  48.1742  55.1680
    55.1681  55.1681  57.6094  59.0312

          k =-0.0000-0.0000 0.0476 (  2305 PWs)   bands (ev):

     5.7969   9.7366   9.8987   9.8987  10.2781  10.2940  10.2940  11.8179
    12.0489  12.0490  13.0075  13.1721  13.2791  13.2791  13.6897  13.6897
    13.7571  13.7571  13.7936  13.9334  13.9334  15.4709  18.0304  18.0304
    23.9058  23.9058  26.0592  27.8162  27.8162  28.4445  28.4445  30.1282
    30.1283  34.7615  36.8182  36.8182  37.8599  38.1227  39.9482  39.9483
    40.2499  40.2500  40.9167  47.4894  48.1266  48.1267  49.1492  51.5577
    56.2637  56.2638  56.6736  56.6736

          k =-0.0000-0.0000 0.0952 (  2316 PWs)   bands (ev):

     6.8462   9.5073  10.3356  10.3356  10.5858  10.6771  10.6771  11.4738
    12.2233  12.2233  12.3456  12.3456  12.7196  13.3007  13.3066  13.3112
    13.3113  13.3184  13.3184  13.6595  13.9339  13.9339  19.9928  19.9928
    24.2231  24.2231  25.0427  25.0427  26.6763  26.6763  30.3589  31.7074
    31.7075  35.1248  36.7270  37.0291  37.0293  38.3491  38.6747  40.8625
    40.8625  44.1123  44.1124  44.1446  50.9254  51.0476  51.0477  51.0505
    51.0505  55.0355  55.9385  55.9386

          k = 0.0000 0.0000-0.1427 (  2360 PWs)   bands (ev):

     8.3455   8.3456  10.6117  10.6117  11.0206  11.0207  11.3237  11.3237
    11.3238  11.3238  12.5424  12.5426  12.7976  12.7976  12.7977  12.7977
    13.0627  13.0627  13.4786  13.4787  13.9342  13.9342  22.3783  22.3783
    22.3785  22.3785  24.5963  24.5964  25.7308  25.7308  34.0852  34.0853
    34.0853  34.0854  34.9085  34.9088  35.7724  35.7724  40.2683  40.2687
    45.6636  45.6636  45.6640  45.6640  47.6182  47.6183  52.2897  52.2898
    54.1756  54.1757  54.1759  54.1760

          k =-0.0000 0.0476 0.0476 (  2309 PWs)   bands (ev):

     6.1545   9.9349   9.9349  10.0618  10.3955  10.3955  10.4094  11.7579
    12.0940  12.1110  12.9331  12.9829  12.9914  12.9914  13.1673  13.5611
    13.6856  13.6856  13.7559  13.7559  13.8173  16.4030  16.4030  18.8002
    23.9000  25.0989  26.2464  26.2465  28.2939  28.2939  28.9367  28.9367
    30.6560  36.0348  36.1185  37.0267  37.0267  37.3324  40.1158  40.1159
    41.2712  42.6035  43.5312  45.2316  46.3626  49.7874  50.4550  53.0929
    53.6689  55.3497  55.3497  56.3036

          k =-0.0000 0.0476 0.0952 (  2304 PWs)   bands (ev):

     7.1761   9.7434  10.4170  10.4655  10.6772  10.7305  10.7496  11.4769
    11.9847  12.1245  12.2398  12.3572  12.3827  12.8158  13.2373  13.3158
    13.3226  13.3463  13.4987  13.7526  13.7586  14.4362  18.0172  20.5829
    22.0808  24.6084  25.5040  26.5331  27.4010  29.6071  29.9024  29.9552
    31.0152  33.7235  34.4668  37.6790  38.6318  40.3898  40.5686  40.7478
    41.1183  44.0398  45.0321  47.0579  47.7853  48.5876  49.8930  51.3351
    52.9399  53.2611  54.8170  56.2015

          k = 0.0000 0.0476-0.1427 (  2312 PWs)   bands (ev):

     8.6270   8.6271  10.7642  10.7643  11.0724  11.0725  11.1914  11.1914
    11.3382  11.3383  12.1690  12.1691  12.7984  12.7985  13.0279  13.0279
    13.0477  13.0477  13.6622  13.6622  13.7501  13.7501  19.8857  19.8857
    22.8775  22.8777  25.4119  25.4120  28.3093  28.3093  31.4968  31.4968
    32.0204  32.0204  35.8285  35.8288  38.8280  38.8281  42.2126  42.2128
    43.1144  43.1146  45.9397  45.9400  50.0818  50.0821  50.3547  50.3549
    52.6127  52.6129  53.2027  53.2028

          k =-0.0000 0.0952 0.0952 (  2318 PWs)   bands (ev):

     8.1026  10.3309  10.3309  10.6968  10.9454  10.9454  10.9591  11.4070
    11.6541  11.6541  11.8088  12.1271  12.4881  12.7297  13.0213  13.1765
    13.1765  13.3165  13.3165  13.4865  13.7018  15.6821  15.6821  19.3002
    22.1094  25.1591  26.7768  26.7768  27.8961  27.8961  30.9846  31.6406
    31.6406  31.7364  33.6041  36.8380  41.5275  41.8801  41.8802  43.0752
    43.4125  43.7716  43.7717  47.1893  47.3295  48.4749  48.4749  51.6737
    52.1774  52.1913  53.1999  55.3509

          k = 0.0000 0.0952-0.1427 (  2306 PWs)   bands (ev):

     9.3696   9.3696  10.8017  10.8018  11.1996  11.1997  11.2072  11.2072
    11.3569  11.3570  11.8632  11.8632  12.8352  12.8352  12.8359  12.8360
    12.9020  12.9020  13.3514  13.3515  14.3633  14.3633  17.2134  17.2135
    24.2334  24.2335  26.2269  26.2271  28.6523  28.6524  29.5379  29.5380
    32.9492  32.9493  36.7908  36.7911  40.3647  40.3648  43.0497  43.0498
    43.2168  43.2169  46.7402  46.7404  47.9241  47.9243  50.4275  50.4277
    51.7615  51.7617  53.5631  53.5632

          k = 0.0000-0.1427-0.1427 (  2296 PWs)   bands (ev):

    10.2226  10.2227  10.2227  10.2227  11.3188  11.3189  11.3189  11.3190
    11.6280  11.6280  11.6280  11.6281  12.6891  12.6891  12.6891  12.6891
    13.0031  13.0031  13.0031  13.0032  15.4336  15.4336  15.4336  15.4336
    26.2077  26.2077  26.2078  26.2078  27.5786  27.5787  27.5787  27.5788
    37.8930  37.8930  37.8931  37.8931  38.4999  38.5000  38.5001  38.5002
    47.1788  47.1788  47.1789  47.1789  49.1899  49.1900  49.1901  49.1902
    51.8184  51.8184  51.8185  51.8186

          k = 0.0476 0.0476 0.0476 (  2298 PWs)   bands (ev):

     6.5003  10.0958  10.0958  10.0958  10.5100  10.5100  10.5100  11.7230
    12.1306  12.1306  12.6875  12.6875  12.6875  13.0805  13.0805  13.3277
    13.3277  13.3277  13.8715  13.8715  13.8715  17.0301  17.0301  17.0301
    25.3256  25.3256  25.3256  26.5915  26.5916  26.5916  31.1713  31.1713
    31.1713  33.4820  36.1661  36.1661  36.1661  39.2529  41.1378  41.1378
    42.8108  42.8108  42.8108  46.5927  47.6480  47.6480  51.6424  51.6424
    55.1080  55.2282  55.2282  55.2282

          k = 0.0476 0.0476 0.0952 (  2312 PWs)   bands (ev):

     7.4817   9.9021  10.4789  10.4789  10.7957  10.8238  10.8238  11.5135
    11.9751  11.9752  12.1705  12.2099  12.2701  12.9255  12.9961  13.0818
    13.0818  13.3201  13.7742  13.7742  13.8065  14.7980  18.3724  18.3724
    22.7066  22.7066  26.6192  27.2428  27.2429  30.3581  30.3582  30.7448
    30.9473  32.6508  36.6452  37.7765  37.8504  38.7904  38.7904  42.3605
    43.5029  44.4697  47.0203  47.0204  47.8823  49.0832  50.2000  50.2001
    50.6955  53.0168  53.0775  55.6567

          k = 0.0476 0.0476-0.1427 (  2306 PWs)   bands (ev):

     8.8540   8.8541  10.8662  10.8662  10.9241  10.9241  11.1674  11.1674
    11.5812  11.5812  12.0732  12.0733  12.5432  12.5433  12.9142  12.9142
    13.4896  13.4896  13.5961  13.5961  13.7182  13.7182  19.5211  19.5212
    21.1455  21.1455  28.2072  28.2072  28.4460  28.4461  28.9269  28.9269
    34.9383  34.9384  35.4152  35.4155  38.0946  38.0948  42.2043  42.2043
    44.7559  44.7560  45.3693  45.3693  49.4802  49.4805  50.8992  50.8993
    52.1848  52.1848  53.6809  53.6809

          k = 0.0476 0.0952 0.0952 (  2322 PWs)   bands (ev):

     8.3205  10.2198  10.2198  10.5059  11.1112  11.1572  11.1572  11.5586
    11.7712  11.7712  11.9044  12.1291  12.2550  12.7334  12.7334  12.7498
    13.0525  13.6075  13.6768  13.6920  13.6920  15.8129  15.8129  18.6242
    20.8032  23.9034  23.9034  27.9435  28.0527  31.1342  31.1342  32.1203
    32.1203  34.0170  35.2414  36.9089  39.3246  39.3246  40.1545  43.0373
    43.7353  44.7844  46.4628  46.4629  49.1918  49.1918  50.4176  50.5952
    50.9245  51.6176  52.3009  52.9260

          k = 0.0476 0.0952-0.1427 (  2316 PWs)   bands (ev):

     9.4037   9.4038  10.4410  10.4410  11.3247  11.3247  11.4728  11.4729
    11.7781  11.7781  11.8988  11.8988  12.4043  12.4044  12.6151  12.6151
    13.3497  13.3498  13.5773  13.5774  14.2696  14.2696  17.1905  17.1905
    21.8189  21.8190  25.6639  25.6640  29.4354  29.4355  33.0395  33.0395
    33.2530  33.2531  36.9047  36.9049  40.1375  40.1376  40.4460  40.4461
    45.1926  45.1927  45.6844  45.6845  47.7039  47.7041  50.5723  50.5725
    51.7904  51.7906  53.9028  53.9030

          k = 0.0476-0.1427-0.1427 (  2332 PWs)   bands (ev):

     9.9731   9.9731   9.9731   9.9731  11.7158  11.7158  11.7158  11.7158
    11.8028  11.8029  11.8029  11.8029  12.3758  12.3758  12.3758  12.3758
    13.3323  13.3323  13.3323  13.3324  15.3445  15.3445  15.3445  15.3445
    23.4527  23.4527  23.4528  23.4528  30.9730  30.9731  30.9732  30.9732
    38.1734  38.1735  38.1736  38.1736  38.3437  38.3438  38.3438  38.3439
    46.6556  46.6556  46.6557  46.6557  46.7577  46.7577  46.7578  46.7579
    54.8100  54.8100  54.8102  55.0766

          k = 0.0952 0.0952 0.0952 (  2329 PWs)   bands (ev):

     8.8643  10.0548  10.0548  10.0548  11.5157  11.5157  11.5157  12.0297
    12.0906  12.0906  12.0906  12.0960  12.0960  12.3792  12.3792  12.3792
    13.4554  13.4554  13.8203  13.8203  13.8203  16.1912  16.1912  16.1912
    21.4105  21.4105  21.4105  25.1505  32.4999  32.5000  32.5000  35.2443
    35.2444  35.2444  37.2741  37.2741  37.2741  37.7921  39.9519  39.9519
    44.4453  44.4453  47.7739  48.0659  48.0660  48.0660  48.1401  48.1401
    48.1401  52.4490  52.4491  52.4491

          k = 0.0952 0.0952-0.1427 (  2322 PWs)   bands (ev):

     9.4904   9.4904   9.9863   9.9863  11.6355  11.6355  11.9220  11.9220
    12.1387  12.1387  12.2591  12.2591  12.2737  12.2738  12.3738  12.3738
    13.7407  13.7407  13.7486  13.7486  14.1596  14.1596  16.4754  16.4754
    20.3815  20.3815  22.9682  22.9683  33.4157  33.4157  34.6276  34.6276
    36.3306  36.3307  37.2466  37.2467  38.9951  38.9953  39.4402  39.4402
    44.6523  44.6523  44.9033  44.9035  46.0171  46.0172  48.5511  48.5511
    49.6064  49.6065  52.9787  52.9787

          k = 0.0952-0.1427-0.1427 (  2324 PWs)   bands (ev):

     9.6660   9.6660   9.6660   9.6660  11.8815  11.8815  11.8815  11.8815
    12.0712  12.0712  12.0712  12.0712  12.8207  12.8208  12.8208  12.8208
    13.6687  13.6687  13.6687  13.6687  14.9678  14.9679  14.9679  14.9679
    21.0949  21.0950  21.0950  21.0950  35.1553  35.1554  35.1554  35.1555
    38.2197  38.2198  38.2198  38.2199  38.9404  38.9404  38.9405  38.9406
    44.0942  44.0942  44.0943  44.0943  45.1575  45.1575  45.1575  45.1576
    50.4206  50.4207  50.4207  50.4208

          k =-0.1427-0.1427-0.1427 (  2320 PWs)   bands (ev):

     9.5500   9.5500   9.5500   9.5501  11.9597  11.9597  11.9597  11.9597
    11.9597  11.9597  11.9597  11.9597  13.7962  13.7962  13.7962  13.7962
    13.7962  13.7962  13.7962  13.7962  14.2927  14.2928  14.2928  14.2928
    20.2138  20.2139  20.2139  20.2139  36.9508  36.9510  36.9510  36.9511
    39.5769  39.5769  39.5769  39.5770  39.5770  39.5770  39.5771  39.5771
    42.8029  42.8030  42.8030  42.8030  42.8030  42.8030  42.8031  42.8031
    48.7746  48.7746  48.7746  48.7747

          k =-0.0476 0.0000 0.0476 (  2309 PWs)   bands (ev):

     6.1545   9.9349   9.9349  10.0618  10.3955  10.3955  10.4094  11.7579
    12.0940  12.1110  12.9331  12.9829  12.9914  12.9914  13.1673  13.5611
    13.6856  13.6856  13.7559  13.7559  13.8173  16.4030  16.4030  18.8002
    23.9000  25.0990  26.2465  26.2465  28.2938  28.2939  28.9367  28.9367
    30.6558  36.0347  36.1186  37.0267  37.0267  37.3325  40.1158  40.1159
    41.2711  42.6036  43.5310  45.2316  46.3625  49.7873  50.4551  53.0929
    53.6690  55.3499  55.3499  56.3035

          k =-0.0476-0.0000 0.0952 (  2304 PWs)   bands (ev):

     7.1761   9.7434  10.4170  10.4655  10.6772  10.7305  10.7496  11.4769
    11.9847  12.1245  12.2398  12.3572  12.3827  12.8158  13.2372  13.3158
    13.3227  13.3463  13.4987  13.7526  13.7586  14.4362  18.0172  20.5829
    22.0809  24.6084  25.5039  26.5331  27.4010  29.6071  29.9024  29.9551
    31.0152  33.7236  34.4669  37.6790  38.6317  40.3898  40.5685  40.7479
    41.1183  44.0398  45.0320  47.0581  47.7853  48.5875  49.8931  51.3351
    52.9401  53.2612  54.8169  56.2015

          k =-0.0952 0.0000 0.0952 (  2318 PWs)   bands (ev):

     8.1026  10.3309  10.3309  10.6968  10.9454  10.9454  10.9591  11.4070
    11.6541  11.6541  11.8088  12.1271  12.4881  12.7297  13.0213  13.1765
    13.1765  13.3165  13.3165  13.4865  13.7018  15.6821  15.6821  19.3002
    22.1094  25.1591  26.7768  26.7768  27.8961  27.8961  30.9847  31.6407
    31.6407  31.7364  33.6040  36.8379  41.5274  41.8802  41.8802  43.0751
    43.4124  43.7717  43.7718  47.1892  47.3294  48.4750  48.4750  51.6739
    52.1773  52.1913  53.1998  55.3509

          k = 0.0476-0.0476 0.0476 (  2298 PWs)   bands (ev):

     6.5003  10.0958  10.0958  10.0958  10.5100  10.5100  10.5100  11.7230
    12.1306  12.1306  12.6875  12.6875  12.6875  13.0805  13.0805  13.3276
    13.3276  13.3277  13.8715  13.8715  13.8715  17.0301  17.0301  17.0301
    25.3256  25.3257  25.3257  26.5916  26.5916  26.5916  31.1711  31.1711
    31.1713  33.4822  36.1660  36.1660  36.1661  39.2528  41.1376  41.1378
    42.8109  42.8110  42.8110  46.5927  47.6479  47.6480  51.6423  51.6424
    55.1080  55.2282  55.2282  55.2283

          k = 0.0476-0.0476 0.0952 (  2312 PWs)   bands (ev):

     7.4817   9.9021  10.4789  10.4789  10.7957  10.8238  10.8238  11.5135
    11.9751  11.9751  12.1705  12.2099  12.2700  12.9255  12.9961  13.0818
    13.0818  13.3200  13.7742  13.7742  13.8065  14.7980  18.3723  18.3724
    22.7066  22.7067  26.6193  27.2429  27.2429  30.3581  30.3582  30.7450
    30.9474  32.6507  36.6451  37.7764  37.8502  38.7903  38.7904  42.3605
    43.5031  44.4697  47.0204  47.0205  47.8822  49.0831  50.2000  50.2002
    50.6955  53.0169  53.0775  55.6566

          k =-0.0952 0.0476 0.0476 (  2312 PWs)   bands (ev):

     7.4817   9.9021  10.4789  10.4789  10.7957  10.8238  10.8238  11.5135
    11.9751  11.9751  12.1705  12.2099  12.2701  12.9255  12.9961  13.0818
    13.0818  13.3200  13.7742  13.7742  13.8065  14.7980  18.3723  18.3724
    22.7067  22.7067  26.6192  27.2429  27.2429  30.3580  30.3580  30.7450
    30.9474  32.6508  36.6452  37.7765  37.8504  38.7903  38.7903  42.3604
    43.5030  44.4694  47.0205  47.0206  47.8821  49.0831  50.2001  50.2002
    50.6955  53.0170  53.0776  55.6567

          k = 0.0476-0.0476-0.1427 (  2306 PWs)   bands (ev):

     8.8540   8.8541  10.8662  10.8662  10.9241  10.9241  11.1674  11.1674
    11.5812  11.5812  12.0733  12.0733  12.5432  12.5433  12.9142  12.9142
    13.4896  13.4896  13.5961  13.5961  13.7182  13.7182  19.5211  19.5212
    21.1454  21.1455  28.2072  28.2073  28.4461  28.4461  28.9269  28.9270
    34.9382  34.9383  35.4152  35.4154  38.0945  38.0947  42.2042  42.2044
    44.7560  44.7562  45.3692  45.3693  49.4803  49.4805  50.8991  50.8992
    52.1847  52.1849  53.6809  53.6810

          k = 0.0952-0.0476 0.0952 (  2322 PWs)   bands (ev):

     8.3205  10.2198  10.2198  10.5059  11.1112  11.1572  11.1572  11.5586
    11.7712  11.7712  11.9044  12.1291  12.2550  12.7334  12.7334  12.7498
    13.0525  13.6075  13.6768  13.6920  13.6920  15.8129  15.8129  18.6242
    20.8031  23.9034  23.9034  27.9437  28.0528  31.1341  31.1342  32.1203
    32.1204  34.0170  35.2412  36.9089  39.3244  39.3244  40.1545  43.0372
    43.7352  44.7844  46.4629  46.4629  49.1920  49.1920  50.4177  50.5953
    50.9244  51.6177  52.3010  52.9261

          k =-0.0952 0.0476 0.0952 (  2322 PWs)   bands (ev):

     8.3205  10.2198  10.2198  10.5059  11.1112  11.1572  11.1572  11.5586
    11.7712  11.7712  11.9044  12.1291  12.2550  12.7334  12.7334  12.7497
    13.0525  13.6075  13.6768  13.6920  13.6920  15.8128  15.8129  18.6242
    20.8032  23.9033  23.9034  27.9437  28.0528  31.1341  31.1342  32.1203
    32.1204  34.0169  35.2414  36.9088  39.3245  39.3246  40.1544  43.0371
    43.7351  44.7843  46.4630  46.4630  49.1919  49.1920  50.4176  50.5951
    50.9245  51.6175  52.3011  52.9261

          k = 0.0952-0.0476-0.1427 (  2316 PWs)   bands (ev):

     9.4037   9.4038  10.4410  10.4410  11.3247  11.3247  11.4728  11.4729
    11.7781  11.7781  11.8988  11.8988  12.4043  12.4044  12.6151  12.6151
    13.3497  13.3498  13.5773  13.5774  14.2696  14.2696  17.1905  17.1905
    21.8189  21.8190  25.6641  25.6641  29.4354  29.4355  33.0394  33.0395
    33.2531  33.2532  36.9047  36.9049  40.1375  40.1376  40.4459  40.4460
    45.1925  45.1926  45.6844  45.6846  47.7040  47.7041  50.5725  50.5726
    51.7906  51.7907  53.9028  53.9030

          k = 0.0952-0.0952 0.0952 (  2329 PWs)   bands (ev):

     8.8644  10.0548  10.0548  10.0548  11.5157  11.5157  11.5157  12.0297
    12.0905  12.0906  12.0906  12.0959  12.0960  12.3792  12.3792  12.3792
    13.4554  13.4554  13.8202  13.8202  13.8203  16.1911  16.1912  16.1912
    21.4104  21.4105  21.4105  25.1506  32.5000  32.5001  32.5001  35.2442
    35.2443  35.2444  37.2740  37.2740  37.2742  37.7920  39.9517  39.9518
    44.4452  44.4453  47.7739  48.0660  48.0660  48.0661  48.1400  48.1400
    48.1402  52.4492  52.4493  52.4493

          k = 0.0952-0.0952-0.1427 (  2322 PWs)   bands (ev):

     9.4904   9.4904   9.9863   9.9863  11.6355  11.6355  11.9220  11.9221
    12.1387  12.1387  12.2591  12.2591  12.2738  12.2738  12.3737  12.3738
    13.7407  13.7407  13.7486  13.7486  14.1596  14.1597  16.4754  16.4754
    20.3815  20.3815  22.9683  22.9683  33.4157  33.4158  34.6276  34.6277
    36.3306  36.3307  37.2465  37.2466  38.9950  38.9952  39.4400  39.4402
    44.6522  44.6524  44.9033  44.9034  46.0171  46.0171  48.5512  48.5513
    49.6065  49.6065  52.9787  52.9788

 ------ SPIN DOWN ----------


          k = 0.0000 0.0000 0.0000 (  2325 PWs)   bands (ev):

     5.3761  10.1766  10.1766  10.1766  10.8860  10.8860  10.8860  12.8271
    12.8271  12.8271  13.9056  13.9056  14.6574  14.6574  14.6574  14.9427
    14.9427  14.9427  14.9427  14.9427  14.9427  16.9930  16.9930  16.9930
    24.1156  24.1156  24.1156  29.5542  29.5542  29.5542  29.5543  29.5544
    29.5544  34.8097  34.8097  34.8097  38.1342  38.1344  38.1344  38.2902
    42.4425  42.4428  42.4428  46.1417  46.1419  46.1419  48.0147  55.3570
    55.3571  55.3571  58.1295  59.5484

          k =-0.0000-0.0000 0.0476 (  2305 PWs)   bands (ev):

     5.7423  10.1522  10.3708  10.3708  11.0053  11.0098  11.0098  12.6851
    12.9335  12.9336  13.7781  13.9544  14.0993  14.0993  14.4904  14.4904
    14.6055  14.7501  14.7501  14.9430  14.9430  15.5410  18.1372  18.1372
    24.1964  24.1964  26.2611  27.8847  27.8847  28.4717  28.4718  30.1308
    30.1309  34.9132  36.8992  36.8992  37.7212  38.2638  40.0687  40.0688
    40.2917  40.2919  40.8468  47.5100  48.1005  48.1006  49.2209  51.5485
    56.4749  56.4750  56.6001  56.6001

          k =-0.0000-0.0000 0.0952 (  2316 PWs)   bands (ev):

     6.7959   9.7155  10.8323  10.8323  11.3384  11.3876  11.3876  12.3068
    12.9528  12.9528  13.2433  13.2434  13.4574  13.6772  14.0785  14.0785
    14.0890  14.2751  14.2751  14.4648  14.9436  14.9436  20.1780  20.1780
    24.4693  24.4694  25.1834  25.1834  26.7744  26.7744  30.4546  31.7443
    31.7445  35.2388  36.6924  37.1006  37.1007  38.2588  38.8207  40.8680
    40.8680  44.2117  44.2118  44.3628  50.8810  50.9527  50.9528  50.9770
    50.9770  54.9312  56.1794  56.1795

          k = 0.0000 0.0000-0.1427 (  2360 PWs)   bands (ev):

     8.3390   8.3391  11.1240  11.1240  11.8113  11.8114  12.0331  12.0331
    12.0332  12.0332  13.1905  13.1906  13.7195  13.7195  13.7196  13.7196
    13.8088  13.8088  14.2753  14.2754  14.9439  14.9439  22.5600  22.5600
    22.5601  22.5601  24.7930  24.7931  25.8881  25.8882  34.1502  34.1503
    34.1504  34.1505  34.8887  34.8890  35.8238  35.8239  40.4603  40.4607
    45.6192  45.6192  45.6196  45.6196  47.6922  47.6923  52.4788  52.4789
    54.0654  54.0654  54.0657  54.0657

          k =-0.0000 0.0476 0.0476 (  2309 PWs)   bands (ev):

     6.1008  10.3631  10.3631  10.5528  11.1092  11.1197  11.1197  12.6115
    12.9840  12.9884  13.6983  13.7396  13.7396  13.7515  13.9546  14.3519
    14.4780  14.4780  14.7489  14.7489  14.8196  16.7175  16.7175  18.9658
    24.1588  25.2286  26.4352  26.4352  28.3768  28.3769  28.9777  28.9777
    30.6670  36.1103  36.1389  37.0974  37.0974  37.3499  40.2336  40.2338
    41.1904  42.6909  43.5003  45.1752  46.4233  49.9460  50.3805  53.2655
    53.6346  55.3118  55.3118  56.2439

          k =-0.0000 0.0476 0.0952 (  2304 PWs)   bands (ev):

     7.1305   9.9660  10.8794  10.9977  11.3926  11.4253  11.4667  12.2990
    12.6762  12.8454  13.0391  13.0793  13.2595  13.5804  14.0024  14.0879
    14.1579  14.2442  14.2735  14.7460  14.7552  15.1454  18.3559  20.7870
    22.2793  24.8364  25.6556  26.6680  27.5262  29.7157  29.9642  30.0257
    31.1126  33.8016  34.5093  37.7210  38.6698  40.3415  40.5162  40.8676
    41.1179  44.1219  45.2366  47.1244  47.7078  48.5701  49.8771  51.2604
    52.8955  53.1705  55.0368  56.4541

          k = 0.0000 0.0476-0.1427 (  2312 PWs)   bands (ev):

     8.6326   8.6326  11.2676  11.2676  11.8558  11.8559  11.8682  11.8683
    12.0503  12.0504  12.9101  12.9102  13.7230  13.7231  13.7976  13.7976
    13.7980  13.7980  14.5009  14.5009  14.7445  14.7445  20.1671  20.1672
    23.0707  23.0708  25.5834  25.5836  28.4263  28.4264  31.6108  31.6109
    32.0783  32.0784  35.8537  35.8541  38.8294  38.8294  42.3652  42.3655
    43.1074  43.1076  45.8918  45.8921  50.1472  50.1475  50.2871  50.2873
    52.5292  52.5294  53.3706  53.3707

          k =-0.0000 0.0952 0.0952 (  2318 PWs)   bands (ev):

     8.0805  10.6042  10.6042  11.3612  11.4435  11.6812  11.6812  12.2011
    12.3475  12.3475  12.5212  12.9185  13.4036  13.4768  13.7750  13.9140
    13.9140  14.2776  14.2776  14.4674  14.5444  16.2875  16.2875  19.6078
    22.3287  25.3575  26.9437  26.9437  27.9973  27.9973  31.1156  31.7295
    31.7295  31.8039  33.6566  36.8738  41.4640  41.8621  41.8621  43.1098
    43.2952  43.8141  43.8141  47.3106  47.3588  48.5198  48.5198  51.7331
    52.0682  52.1321  53.4032  55.2535

          k = 0.0000 0.0952-0.1427 (  2306 PWs)   bands (ev):

     9.4309   9.4310  11.2214  11.2215  11.8473  11.8473  11.9627  11.9627
    12.0776  12.0777  12.6002  12.6003  13.5697  13.5697  13.6435  13.6435
    13.7697  13.7698  14.3201  14.3202  15.1695  15.1695  17.6776  17.6777
    24.4386  24.4387  26.3787  26.3789  28.8146  28.8146  29.6280  29.6281
    33.0210  33.0211  36.8185  36.8188  40.3636  40.3637  42.9956  42.9957
    43.2351  43.2352  46.6785  46.6787  48.0064  48.0066  50.3748  50.3750
    51.8823  51.8826  53.4778  53.4779

          k = 0.0000-0.1427-0.1427 (  2296 PWs)   bands (ev):

    10.4421  10.4421  10.4421  10.4422  12.0569  12.0570  12.0570  12.0571
    12.2974  12.2974  12.2974  12.2974  13.4269  13.4269  13.4270  13.4270
    13.9523  13.9524  13.9524  13.9525  16.1156  16.1156  16.1156  16.1156
    26.4027  26.4028  26.4028  26.4029  27.7022  27.7022  27.7023  27.7024
    37.9671  37.9672  37.9673  37.9673  38.4660  38.4661  38.4662  38.4663
    47.0589  47.0590  47.0590  47.0591  49.1791  49.1792  49.1793  49.1795
    51.9196  51.9196  51.9197  51.9198

          k = 0.0476 0.0476 0.0476 (  2298 PWs)   bands (ev):

     6.4495  10.5510  10.5510  10.5510  11.2108  11.2108  11.2108  12.5566
    13.0090  13.0090  13.3983  13.3983  13.3983  13.8670  13.8670  14.1589
    14.1589  14.1589  14.8200  14.8200  14.8200  17.3712  17.3712  17.3712
    25.4571  25.4571  25.4571  26.7649  26.7649  26.7649  31.1931  31.1932
    31.1932  33.5486  36.2611  36.2611  36.2611  39.0975  41.1904  41.1904
    42.8949  42.8950  42.8950  46.5053  47.6052  47.6052  51.8092  51.8092
    55.1814  55.1815  55.1815  55.4453

          k = 0.0476 0.0476 0.0952 (  2312 PWs)   bands (ev):

     7.4467  10.1647  11.0106  11.0106  11.4523  11.4523  11.5082  12.3093
    12.6777  12.6777  12.8430  13.0405  13.1306  13.7719  13.8062  13.8689
    13.8689  14.1425  14.7079  14.7377  14.7377  15.4284  18.6993  18.6993
    22.9169  22.9169  26.7635  27.3919  27.3919  30.4330  30.4331  30.8590
    31.0348  32.6973  36.7197  37.6824  37.9276  38.8207  38.8208  42.3681
    43.5832  44.4871  47.0645  47.0646  47.9243  49.0290  50.1889  50.1889
    50.7025  52.9462  53.0377  55.7717

          k = 0.0476 0.0476-0.1427 (  2306 PWs)   bands (ev):

     8.8886   8.8887  11.4383  11.4383  11.5056  11.5056  11.9184  11.9185
    12.2953  12.2953  12.8231  12.8232  13.3940  13.3941  13.6780  13.6780
    14.2944  14.2945  14.4575  14.4575  14.6900  14.6901  19.7785  19.7785
    21.4494  21.4494  28.3221  28.3221  28.5879  28.5880  29.0416  29.0416
    35.0077  35.0078  35.3885  35.3888  38.1719  38.1721  42.1856  42.1856
    44.8427  44.8430  45.3583  45.3583  49.4008  49.4011  50.8535  50.8536
    52.2183  52.2183  53.8605  53.8605

          k = 0.0476 0.0952 0.0952 (  2322 PWs)   bands (ev):

     8.3325  10.6127  10.6127  11.1244  11.6183  11.7592  11.7592  12.2855
    12.4914  12.4914  12.6164  12.9300  13.0794  13.5329  13.5330  13.5351
    13.8961  14.4567  14.6054  14.6054  14.6222  16.3663  16.3663  18.8990
    21.1471  24.1204  24.1204  28.1055  28.1804  31.1979  31.1980  32.2129
    32.2129  34.0717  35.2670  36.9342  39.3394  39.3394  40.0782  43.1509
    43.7270  44.7302  46.4569  46.4569  49.2466  49.2466  50.3493  50.5788
    50.9009  51.6902  52.3665  52.8531

          k = 0.0476 0.0952-0.1427 (  2316 PWs)   bands (ev):

     9.5532   9.5533  10.9761  10.9761  11.8791  11.8791  12.1190  12.1191
    12.4719  12.4720  12.6592  12.6593  13.2086  13.2086  13.3897  13.3898
    14.2151  14.2152  14.5134  14.5134  15.0628  15.0628  17.6016  17.6016
    22.1191  22.1192  25.8640  25.8641  29.5359  29.5361  33.0963  33.0963
    33.3220  33.3222  36.9177  36.9180  40.1218  40.1219  40.4686  40.4687
    45.1798  45.1799  45.6763  45.6764  47.6848  47.6850  50.6106  50.6108
    51.7299  51.7301  53.9803  53.9829

          k = 0.0476-0.1427-0.1427 (  2332 PWs)   bands (ev):

    10.3301  10.3301  10.3301  10.3301  12.2862  12.2863  12.2863  12.2863
    12.5061  12.5061  12.5061  12.5062  13.1531  13.1531  13.1531  13.1531
    14.2444  14.2445  14.2445  14.2445  15.9902  15.9902  15.9903  15.9903
    23.7104  23.7105  23.7105  23.7105  31.0557  31.0559  31.0559  31.0559
    38.2457  38.2458  38.2458  38.2459  38.2945  38.2946  38.2947  38.2948
    46.5874  46.5875  46.5875  46.5876  46.7834  46.7835  46.7836  46.7837
    54.8744  54.8744  54.8746  55.0868

          k = 0.0952 0.0952 0.0952 (  2329 PWs)   bands (ev):

     8.9975  10.5647  10.5647  10.5647  12.0748  12.0748  12.0748  12.5525
    12.7702  12.7702  12.7702  12.8971  12.8971  13.1704  13.1704  13.1704
    14.3365  14.3365  14.7480  14.7481  14.7481  16.6178  16.6178  16.6178
    21.7491  21.7491  21.7491  25.3759  32.5464  32.5465  32.5465  35.3058
    35.3058  35.3058  37.2868  37.2869  37.2869  37.6212  40.0380  40.0380
    44.4547  44.4547  47.7891  48.0144  48.0145  48.0145  48.1415  48.1416
    48.1416  52.4803  52.4803  52.4803

          k = 0.0952 0.0952-0.1427 (  2322 PWs)   bands (ev):

     9.8228   9.8228  10.5245  10.5245  12.2672  12.2672  12.5808  12.5808
    12.8281  12.8281  12.9309  12.9309  12.9737  12.9737  13.0379  13.0379
    14.6497  14.6498  14.6772  14.6772  14.8755  14.8755  16.8070  16.8070
    20.8186  20.8186  23.2577  23.2578  33.4235  33.4236  34.7136  34.7137
    36.2220  36.2222  37.3191  37.3191  39.0753  39.0755  39.4148  39.4148
    44.6789  44.6789  44.8806  44.8808  46.0255  46.0256  48.5110  48.5110
    49.6599  49.6600  53.0877  53.0877

          k = 0.0952-0.1427-0.1427 (  2324 PWs)   bands (ev):

    10.1368  10.1368  10.1368  10.1368  12.6145  12.6145  12.6145  12.6146
    12.8471  12.8471  12.8472  12.8472  13.2611  13.2612  13.2612  13.2612
    14.5870  14.5870  14.5870  14.5870  15.4994  15.4995  15.4995  15.4995
    21.4877  21.4878  21.4878  21.4878  35.1294  35.1295  35.1296  35.1296
    38.1888  38.1889  38.1889  38.1890  39.0096  39.0096  39.0097  39.0098
    44.1263  44.1263  44.1264  44.1265  45.1502  45.1502  45.1503  45.1503
    50.5111  50.5112  50.5112  50.5113

          k =-0.1427-0.1427-0.1427 (  2320 PWs)   bands (ev):

    10.0515  10.0515  10.0515  10.0515  12.7327  12.7327  12.7327  12.7328
    12.7328  12.7328  12.7328  12.7328  14.1935  14.1935  14.1936  14.1936
    14.7197  14.7197  14.7197  14.7197  14.7197  14.7197  14.7198  14.7198
    20.6961  20.6962  20.6962  20.6962  36.7667  36.7670  36.7670  36.7671
    39.6470  39.6470  39.6470  39.6470  39.6471  39.6471  39.6472  39.6472
    42.8334  42.8334  42.8334  42.8334  42.8335  42.8335  42.8336  42.8336
    48.8887  48.8887  48.8887  48.8887

          k =-0.0476 0.0000 0.0476 (  2309 PWs)   bands (ev):

     6.1008  10.3631  10.3631  10.5528  11.1092  11.1197  11.1197  12.6115
    12.9839  12.9884  13.6983  13.7396  13.7396  13.7515  13.9546  14.3519
    14.4780  14.4780  14.7489  14.7489  14.8196  16.7175  16.7175  18.9658
    24.1588  25.2287  26.4352  26.4352  28.3768  28.3769  28.9777  28.9777
    30.6669  36.1104  36.1388  37.0974  37.0974  37.3500  40.2337  40.2338
    41.1903  42.6910  43.5001  45.1752  46.4231  49.9460  50.3806  53.2656
    53.6346  55.3119  55.3119  56.2438

          k =-0.0476-0.0000 0.0952 (  2304 PWs)   bands (ev):

     7.1305   9.9660  10.8794  10.9977  11.3926  11.4253  11.4667  12.2990
    12.6762  12.8454  13.0391  13.0793  13.2595  13.5804  14.0024  14.0879
    14.1579  14.2442  14.2735  14.7460  14.7552  15.1454  18.3558  20.7870
    22.2794  24.8364  25.6556  26.6680  27.5262  29.7156  29.9642  30.0256
    31.1126  33.8017  34.5093  37.7210  38.6697  40.3414  40.5161  40.8677
    41.1179  44.1220  45.2365  47.1245  47.7077  48.5699  49.8772  51.2604
    52.8957  53.1706  55.0367  56.4541

          k =-0.0952 0.0000 0.0952 (  2318 PWs)   bands (ev):

     8.0805  10.6042  10.6042  11.3612  11.4435  11.6812  11.6812  12.2011
    12.3475  12.3475  12.5212  12.9185  13.4036  13.4768  13.7750  13.9140
    13.9140  14.2776  14.2776  14.4674  14.5444  16.2875  16.2875  19.6079
    22.3287  25.3575  26.9436  26.9437  27.9972  27.9973  31.1157  31.7295
    31.7295  31.8039  33.6565  36.8737  41.4639  41.8621  41.8622  43.1098
    43.2951  43.8142  43.8142  47.3105  47.3586  48.5199  48.5199  51.7334
    52.0682  52.1321  53.4032  55.2536

          k = 0.0476-0.0476 0.0476 (  2298 PWs)   bands (ev):

     6.4495  10.5510  10.5510  10.5510  11.2108  11.2108  11.2108  12.5566
    13.0090  13.0090  13.3983  13.3983  13.3983  13.8670  13.8670  14.1589
    14.1589  14.1589  14.8200  14.8200  14.8200  17.3712  17.3712  17.3712
    25.4571  25.4572  25.4572  26.7649  26.7649  26.7649  31.1930  31.1930
    31.1932  33.5488  36.2610  36.2611  36.2611  39.0975  41.1902  41.1904
    42.8950  42.8951  42.8951  46.5053  47.6051  47.6052  51.8090  51.8092
    55.1815  55.1815  55.1816  55.4453

          k = 0.0476-0.0476 0.0952 (  2312 PWs)   bands (ev):

     7.4467  10.1647  11.0106  11.0106  11.4523  11.4523  11.5082  12.3093
    12.6776  12.6776  12.8430  13.0405  13.1306  13.7719  13.8062  13.8689
    13.8689  14.1425  14.7079  14.7377  14.7377  15.4284  18.6993  18.6993
    22.9168  22.9169  26.7635  27.3919  27.3920  30.4330  30.4331  30.8592
    31.0349  32.6972  36.7197  37.6823  37.9274  38.8206  38.8208  42.3681
    43.5834  44.4871  47.0646  47.0647  47.9243  49.0289  50.1889  50.1890
    50.7025  52.9463  53.0377  55.7716

          k =-0.0952 0.0476 0.0476 (  2312 PWs)   bands (ev):

     7.4467  10.1647  11.0106  11.0106  11.4523  11.4523  11.5082  12.3093
    12.6776  12.6776  12.8430  13.0405  13.1306  13.7719  13.8062  13.8689
    13.8689  14.1425  14.7079  14.7377  14.7377  15.4284  18.6993  18.6993
    22.9169  22.9169  26.7634  27.3920  27.3920  30.4329  30.4329  30.8592
    31.0349  32.6973  36.7198  37.6824  37.9276  38.8206  38.8207  42.3680
    43.5833  44.4869  47.0647  47.0648  47.9242  49.0289  50.1890  50.1890
    50.7025  52.9464  53.0378  55.7717

          k = 0.0476-0.0476-0.1427 (  2306 PWs)   bands (ev):

     8.8886   8.8887  11.4383  11.4383  11.5056  11.5057  11.9184  11.9185
    12.2953  12.2953  12.8231  12.8232  13.3940  13.3941  13.6780  13.6780
    14.2944  14.2945  14.4575  14.4575  14.6900  14.6900  19.7785  19.7785
    21.4494  21.4494  28.3221  28.3222  28.5881  28.5881  29.0416  29.0417
    35.0076  35.0076  35.3885  35.3888  38.1718  38.1720  42.1855  42.1857
    44.8429  44.8431  45.3582  45.3584  49.4009  49.4010  50.8535  50.8535
    52.2182  52.2184  53.8604  53.8606

          k = 0.0952-0.0476 0.0952 (  2322 PWs)   bands (ev):

     8.3325  10.6127  10.6127  11.1244  11.6183  11.7592  11.7592  12.2855
    12.4914  12.4914  12.6164  12.9300  13.0794  13.5329  13.5329  13.5351
    13.8961  14.4567  14.6054  14.6054  14.6222  16.3663  16.3663  18.8989
    21.1470  24.1204  24.1204  28.1056  28.1805  31.1979  31.1980  32.2129
    32.2129  34.0717  35.2668  36.9342  39.3392  39.3392  40.0782  43.1508
    43.7270  44.7302  46.4569  46.4570  49.2467  49.2467  50.3494  50.5790
    50.9008  51.6903  52.3666  52.8532

          k =-0.0952 0.0476 0.0952 (  2322 PWs)   bands (ev):

     8.3325  10.6127  10.6127  11.1244  11.6184  11.7592  11.7592  12.2855
    12.4914  12.4914  12.6164  12.9300  13.0794  13.5329  13.5330  13.5351
    13.8961  14.4567  14.6054  14.6054  14.6222  16.3663  16.3663  18.8990
    21.1471  24.1203  24.1204  28.1056  28.1805  31.1979  31.1980  32.2129
    32.2130  34.0716  35.2670  36.9341  39.3393  39.3394  40.0781  43.1507
    43.7269  44.7301  46.4570  46.4571  49.2467  49.2468  50.3493  50.5788
    50.9009  51.6901  52.3667  52.8532

          k = 0.0952-0.0476-0.1427 (  2316 PWs)   bands (ev):

     9.5532   9.5533  10.9761  10.9761  11.8791  11.8791  12.1190  12.1191
    12.4719  12.4720  12.6592  12.6593  13.2086  13.2086  13.3897  13.3898
    14.2151  14.2152  14.5134  14.5134  15.0628  15.0628  17.6015  17.6016
    22.1191  22.1192  25.8641  25.8641  29.5360  29.5361  33.0961  33.0963
    33.3221  33.3222  36.9177  36.9179  40.1217  40.1219  40.4685  40.4686
    45.1798  45.1799  45.6762  45.6764  47.6850  47.6851  50.6108  50.6109
    51.7301  51.7302  53.9801  53.9828

          k = 0.0952-0.0952 0.0952 (  2329 PWs)   bands (ev):

     8.9975  10.5647  10.5647  10.5647  12.0748  12.0748  12.0748  12.5526
    12.7702  12.7702  12.7702  12.8971  12.8971  13.1704  13.1704  13.1704
    14.3365  14.3365  14.7480  14.7480  14.7480  16.6177  16.6178  16.6178
    21.7490  21.7491  21.7492  25.3760  32.5465  32.5465  32.5466  35.3057
    35.3057  35.3059  37.2867  37.2868  37.2869  37.6211  40.0378  40.0379
    44.4545  44.4546  47.7891  48.0145  48.0145  48.0146  48.1415  48.1415
    48.1417  52.4805  52.4806  52.4806

          k = 0.0952-0.0952-0.1427 (  2322 PWs)   bands (ev):

     9.8228   9.8228  10.5244  10.5245  12.2672  12.2672  12.5808  12.5808
    12.8281  12.8281  12.9309  12.9309  12.9737  12.9737  13.0379  13.0379
    14.6497  14.6498  14.6772  14.6772  14.8755  14.8755  16.8070  16.8070
    20.8185  20.8186  23.2578  23.2578  33.4236  33.4237  34.7137  34.7138
    36.2219  36.2221  37.3190  37.3190  39.0753  39.0755  39.4147  39.4149
    44.6788  44.6789  44.8806  44.8807  46.0255  46.0255  48.5111  48.5112
    49.6600  49.6600  53.0878  53.0878

     the Fermi energy is    14.4928 ev

!    total energy              =    -343.63027281 Ry
     Harris-Foulkes estimate   =    -343.63027281 Ry
     estimated scf accuracy    <          7.1E-12 Ry

     The total energy is the sum of the following terms:

     one-electron contribution =      -6.38006256 Ry
     hartree contribution      =      60.34786198 Ry
     xc contribution           =    -120.51422106 Ry
     ewald contribution        =    -277.03543306 Ry
     Dispersion Correction     =      -0.04784475 Ry
     smearing contrib. (-TS)   =      -0.00057335 Ry

     total magnetization       =     2.84 Bohr mag/cell
     absolute magnetization    =     3.25 Bohr mag/cell

     convergence has been achieved in  11 iterations

     Forces acting on atoms (Ry/au):

     atom    1 type  1   force =    -0.00000224   -0.00000224    0.00000208
     atom    2 type  1   force =     0.00000241    0.00000241    0.00000241
     atom    3 type  1   force =    -0.00000224    0.00000208   -0.00000224
     atom    4 type  1   force =     0.00000208   -0.00000224   -0.00000224

     Total force =     0.000008     Total SCF correction =     0.000006
     SCF correction compared to forces is large: reduce conv_thr to get better values


     entering subroutine stress ...

          total   stress  (Ry/bohr**3)                   (kbar)     P=    0.14
   0.00000093  -0.00000003  -0.00000003          0.14     -0.00     -0.00
  -0.00000003   0.00000093  -0.00000003         -0.00      0.14     -0.00
  -0.00000003  -0.00000003   0.00000093         -0.00     -0.00      0.14


     bfgs converged in   5 scf cycles and   4 bfgs steps
     (criteria: energy <  1.0E-04, force <  1.0E-03, cell <  5.0E-01)

     End of BFGS Geometry Optimization

     Final enthalpy =    -343.6302728075 Ry
Begin final coordinates
     new unit-cell volume =    290.10342 a.u.^3 (    42.98889 Ang^3 )

CELL_PARAMETERS (alat=  1.88972590)
   3.503096749   0.000005140   0.000005140
   0.000005140   3.503096749   0.000005140
   0.000005140   0.000005140   3.503096749

ATOMIC_POSITIONS (alat)
Ni1      1.755450415   1.755450415   0.003882812
Ni1      0.003876294   0.003876294   0.003876294
Ni1      1.755450415   0.003882812   1.755450415
Ni1      0.003882812   1.755450415   1.755450415
End final coordinates



     A final scf calculation at the relaxed structure.
     The G-vectors are recalculated for the final unit cell
     Results may differ from those at the preceding step.

     G-vector sticks info
     --------------------
     sticks:   dense  smooth     PW     G-vecs:    dense   smooth      PW
     Sum        1389     845    253                39127    18277    3071

     Generating pointlists ...

     Title: 
     Ni-ferro-mag                                                               


     bravais-lattice index     =            0
     lattice parameter (alat)  =       1.8897  a.u.
     unit-cell volume          =     290.1034 (a.u.)^3
     number of atoms/cell      =            4
     number of atomic types    =            1
     number of electrons       =        40.00
     number of Kohn-Sham states=           52
     kinetic-energy cutoff     =      60.0000  Ry
     charge density cutoff     =     400.0000  Ry
     convergence threshold     =      1.0E-10
     mixing beta               =       0.2000
     number of iterations used =            8  plain     mixing
     Exchange-correlation      =  SLA  PW   PBE  PBE ( 1  4  3  4 0 0)

     celldm(1)=   1.889726  celldm(2)=   0.000000  celldm(3)=   0.000000
     celldm(4)=   0.000000  celldm(5)=   0.000000  celldm(6)=   0.000000

     crystal axes: (cart. coord. in units of alat)
               a(1) = (   3.503097   0.000005   0.000005 )  
               a(2) = (   0.000005   3.503097   0.000005 )  
               a(3) = (   0.000005   0.000005   3.503097 )  

     reciprocal axes: (cart. coord. in units 2 pi/alat)
               b(1) = (  0.285462 -0.000000 -0.000000 )  
               b(2) = ( -0.000000  0.285462 -0.000000 )  
               b(3) = ( -0.000000 -0.000000  0.285462 )  


     PseudoPot. # 1 for Ni read from file:
     /home/eliot/pseudo/Ni.pbe-nd-rrkjus.UPF
     MD5 check sum: 8081f0a005c9a5470caab1a58e82ecb2
     Pseudo is Ultrasoft + core correction, Zval = 10.0
     Generated by new atomic code, or converted to UPF format
     Using radial grid of 1203 points,  6 beta functions with: 
                l(1) =   0
                l(2) =   0
                l(3) =   1
                l(4) =   1
                l(5) =   2
                l(6) =   2
     Q(r) pseudized with 0 coefficients 


     atomic species   valence    mass     pseudopotential
        Ni1           10.00    58.69340     Ni( 1.00)

     Starting magnetic structure 
     atomic species   magnetization
        Ni1          0.500

      6 Sym. Ops. (no inversion) found



   Cartesian axes

     site n.     atom                  positions (alat units)
         1           Ni1 tau(   1) = (   1.7554504   1.7554504   0.0038828  )
         2           Ni1 tau(   2) = (   0.0038763   0.0038763   0.0038763  )
         3           Ni1 tau(   3) = (   1.7554504   0.0038828   1.7554504  )
         4           Ni1 tau(   4) = (   0.0038828   1.7554504   1.7554504  )

     number of k points=    32  Methfessel-Paxton smearing, width (Ry)=  0.0500
                       cart. coord. in units 2pi/alat
        k(    1) = (   0.0000000   0.0000000   0.0000000), wk =   0.0046296
        k(    2) = (  -0.0000001  -0.0000001   0.0475770), wk =   0.0277778
        k(    3) = (  -0.0000001  -0.0000001   0.0951539), wk =   0.0277778
        k(    4) = (   0.0000002   0.0000002  -0.1427309), wk =   0.0138889
        k(    5) = (  -0.0000001   0.0475769   0.0475769), wk =   0.0277778
        k(    6) = (  -0.0000002   0.0475768   0.0951538), wk =   0.0555556
        k(    7) = (   0.0000001   0.0475772  -0.1427309), wk =   0.0555556
        k(    8) = (  -0.0000003   0.0951538   0.0951538), wk =   0.0277778
        k(    9) = (   0.0000001   0.0951541  -0.1427310), wk =   0.0555556
        k(   10) = (   0.0000004  -0.1427306  -0.1427306), wk =   0.0138889
        k(   11) = (   0.0475768   0.0475768   0.0475768), wk =   0.0092593
        k(   12) = (   0.0475767   0.0475767   0.0951538), wk =   0.0277778
        k(   13) = (   0.0475771   0.0475771  -0.1427310), wk =   0.0277778
        k(   14) = (   0.0475767   0.0951537   0.0951537), wk =   0.0277778
        k(   15) = (   0.0475770   0.0951540  -0.1427311), wk =   0.0555556
        k(   16) = (   0.0475774  -0.1427307  -0.1427307), wk =   0.0277778
        k(   17) = (   0.0951536   0.0951536   0.0951536), wk =   0.0092593
        k(   18) = (   0.0951540   0.0951540  -0.1427311), wk =   0.0277778
        k(   19) = (   0.0951543  -0.1427308  -0.1427308), wk =   0.0277778
        k(   20) = (  -0.1427304  -0.1427304  -0.1427304), wk =   0.0046296
        k(   21) = (  -0.0475770   0.0000000   0.0475770), wk =   0.0277778
        k(   22) = (  -0.0475771  -0.0000001   0.0951540), wk =   0.0555556
        k(   23) = (  -0.0951540   0.0000000   0.0951540), wk =   0.0277778
        k(   24) = (   0.0475770  -0.0475771   0.0475770), wk =   0.0277778
        k(   25) = (   0.0475769  -0.0475772   0.0951539), wk =   0.0555556
        k(   26) = (  -0.0951540   0.0475770   0.0475770), wk =   0.0277778
        k(   27) = (   0.0475772  -0.0475768  -0.1427309), wk =   0.0277778
        k(   28) = (   0.0951538  -0.0475772   0.0951538), wk =   0.0277778
        k(   29) = (  -0.0951541   0.0475770   0.0951540), wk =   0.0555556
        k(   30) = (   0.0951542  -0.0475769  -0.1427309), wk =   0.0555556
        k(   31) = (   0.0951539  -0.0951542   0.0951539), wk =   0.0277778
        k(   32) = (   0.0951543  -0.0951538  -0.1427309), wk =   0.0277778

     Dense  grid:    39127 G-vectors     FFT dimensions: (  45,  45,  45)

     Smooth grid:    18277 G-vectors     FFT dimensions: (  36,  36,  36)

     Largest allocated arrays     est. size (Mb)     dimensions
        Kohn-Sham Wavefunctions         1.83 Mb     (    2301,   52)
        NL pseudopotentials             2.53 Mb     (    2301,   72)
        Each V/rho on FFT grid          2.78 Mb     (   91125,   2)
        Each G-vector array             0.30 Mb     (   39127)
        G-vector shells                 0.02 Mb     (    2639)
     Largest temporary arrays     est. size (Mb)     dimensions
        Auxiliary wavefunctions         7.30 Mb     (    2301,  208)
        Each subspace H/S matrix        0.66 Mb     (     208,  208)
        Each <psi_i|beta_j> matrix      0.06 Mb     (      72,   52)
        Arrays for rho mixing          11.12 Mb     (   91125,    8)

     Check: negative/imaginary core charge=   -0.000005    0.000000

     Initial potential from superposition of free atoms

     starting charge   39.99816, renormalised to   40.00000
     Starting wfc are   24 randomized atomic wfcs +   28 random wfc

     Writing output data file Ni-ferromag.save

     total cpu time spent up to now is     2536.2 secs

     Self-consistent Calculation

     iteration #  1     ecut=    60.00 Ry     beta=0.20
     Davidson diagonalization with overlap
     c_bands:  1 eigenvalues not converged
     c_bands:  2 eigenvalues not converged
     c_bands:  2 eigenvalues not converged
     c_bands:  1 eigenvalues not converged
     c_bands:  1 eigenvalues not converged
     c_bands:  2 eigenvalues not converged
     c_bands:  2 eigenvalues not converged
     c_bands:  2 eigenvalues not converged
     ethr =  1.00E-06,  avg # of iterations = 13.3

     total cpu time spent up to now is     2701.1 secs

     total energy              =    -342.90492094 Ry
     Harris-Foulkes estimate   =    -343.17848548 Ry
     estimated scf accuracy    <       2.41843365 Ry

     total magnetization       =     6.87 Bohr mag/cell
     absolute magnetization    =     6.88 Bohr mag/cell

     iteration #  2     ecut=    60.00 Ry     beta=0.20
     Davidson diagonalization with overlap
     ethr =  6.05E-03,  avg # of iterations =  1.0

     total cpu time spent up to now is     2737.2 secs

     total energy              =    -343.20667906 Ry
     Harris-Foulkes estimate   =    -343.03984425 Ry
     estimated scf accuracy    <       0.78018703 Ry

     total magnetization       =     5.74 Bohr mag/cell
     absolute magnetization    =     5.83 Bohr mag/cell

     iteration #  3     ecut=    60.00 Ry     beta=0.20
     Davidson diagonalization with overlap
     ethr =  1.95E-03,  avg # of iterations =  1.3

     total cpu time spent up to now is     2773.7 secs

     total energy              =    -343.53953884 Ry
     Harris-Foulkes estimate   =    -343.28058506 Ry
     estimated scf accuracy    <       0.35891367 Ry

     total magnetization       =     4.50 Bohr mag/cell
     absolute magnetization    =     4.82 Bohr mag/cell

     iteration #  4     ecut=    60.00 Ry     beta=0.20
     Davidson diagonalization with overlap
     ethr =  8.97E-04,  avg # of iterations =  1.3

     total cpu time spent up to now is     2810.1 secs

     total energy              =    -343.62407835 Ry
     Harris-Foulkes estimate   =    -343.65327397 Ry
     estimated scf accuracy    <       0.11945237 Ry

     total magnetization       =     2.58 Bohr mag/cell
     absolute magnetization    =     3.20 Bohr mag/cell

     iteration #  5     ecut=    60.00 Ry     beta=0.20
     Davidson diagonalization with overlap
     ethr =  2.99E-04,  avg # of iterations =  1.0

     total cpu time spent up to now is     2846.2 secs

     total energy              =    -343.62397247 Ry
     Harris-Foulkes estimate   =    -343.63099398 Ry
     estimated scf accuracy    <       0.02372528 Ry

     total magnetization       =     2.62 Bohr mag/cell
     absolute magnetization    =     3.23 Bohr mag/cell

     iteration #  6     ecut=    60.00 Ry     beta=0.20
     Davidson diagonalization with overlap
     ethr =  5.93E-05,  avg # of iterations =  2.2

     total cpu time spent up to now is     2883.8 secs

     total energy              =    -343.62662220 Ry
     Harris-Foulkes estimate   =    -343.62743888 Ry
     estimated scf accuracy    <       0.00100832 Ry

     total magnetization       =     2.69 Bohr mag/cell
     absolute magnetization    =     3.28 Bohr mag/cell

     iteration #  7     ecut=    60.00 Ry     beta=0.20
     Davidson diagonalization with overlap
     ethr =  2.52E-06,  avg # of iterations =  3.9

     total cpu time spent up to now is     2925.4 secs

     total energy              =    -343.62983571 Ry
     Harris-Foulkes estimate   =    -343.62859598 Ry
     estimated scf accuracy    <       0.00185379 Ry

     total magnetization       =     3.01 Bohr mag/cell
     absolute magnetization    =     3.48 Bohr mag/cell

     iteration #  8     ecut=    60.00 Ry     beta=0.20
     Davidson diagonalization with overlap
     ethr =  2.52E-06,  avg # of iterations =  1.0

     total cpu time spent up to now is     2961.5 secs

     total energy              =    -343.63016925 Ry
     Harris-Foulkes estimate   =    -343.63013858 Ry
     estimated scf accuracy    <       0.00014212 Ry

     total magnetization       =     2.90 Bohr mag/cell
     absolute magnetization    =     3.35 Bohr mag/cell

     iteration #  9     ecut=    60.00 Ry     beta=0.20
     Davidson diagonalization with overlap
     ethr =  3.55E-07,  avg # of iterations =  1.0

     total cpu time spent up to now is     2997.6 secs

     total energy              =    -343.63019325 Ry
     Harris-Foulkes estimate   =    -343.63017106 Ry
     estimated scf accuracy    <       0.00009944 Ry

     total magnetization       =     2.89 Bohr mag/cell
     absolute magnetization    =     3.34 Bohr mag/cell

     iteration # 10     ecut=    60.00 Ry     beta=0.20
     Davidson diagonalization with overlap
     ethr =  2.49E-07,  avg # of iterations =  1.1

     total cpu time spent up to now is     3033.6 secs

     total energy              =    -343.63027012 Ry
     Harris-Foulkes estimate   =    -343.63026997 Ry
     estimated scf accuracy    <       0.00000169 Ry

     total magnetization       =     2.84 Bohr mag/cell
     absolute magnetization    =     3.26 Bohr mag/cell

     iteration # 11     ecut=    60.00 Ry     beta=0.20
     Davidson diagonalization with overlap
     ethr =  4.23E-09,  avg # of iterations =  1.4

     total cpu time spent up to now is     3070.2 secs

     total energy              =    -343.63026983 Ry
     Harris-Foulkes estimate   =    -343.63027031 Ry
     estimated scf accuracy    <       0.00000054 Ry

     total magnetization       =     2.84 Bohr mag/cell
     absolute magnetization    =     3.26 Bohr mag/cell

     iteration # 12     ecut=    60.00 Ry     beta=0.20
     Davidson diagonalization with overlap
     ethr =  1.35E-09,  avg # of iterations =  1.0

     total cpu time spent up to now is     3106.1 secs

     total energy              =    -343.63026986 Ry
     Harris-Foulkes estimate   =    -343.63026997 Ry
     estimated scf accuracy    <       0.00000083 Ry

     total magnetization       =     2.84 Bohr mag/cell
     absolute magnetization    =     3.26 Bohr mag/cell

     iteration # 13     ecut=    60.00 Ry     beta=0.20
     Davidson diagonalization with overlap
     ethr =  1.35E-09,  avg # of iterations =  2.0

     total cpu time spent up to now is     3144.4 secs

     total energy              =    -343.63027065 Ry
     Harris-Foulkes estimate   =    -343.63027083 Ry
     estimated scf accuracy    <          8.4E-09 Ry

     total magnetization       =     2.84 Bohr mag/cell
     absolute magnetization    =     3.25 Bohr mag/cell

     iteration # 14     ecut=    60.00 Ry     beta=0.20
     Davidson diagonalization with overlap
     ethr =  2.10E-11,  avg # of iterations =  2.1

     total cpu time spent up to now is     3188.1 secs

     total energy              =    -343.63027075 Ry
     Harris-Foulkes estimate   =    -343.63027074 Ry
     estimated scf accuracy    <       0.00000008 Ry

     total magnetization       =     2.83 Bohr mag/cell
     absolute magnetization    =     3.25 Bohr mag/cell

     iteration # 15     ecut=    60.00 Ry     beta=0.20
     Davidson diagonalization with overlap
     ethr =  2.10E-11,  avg # of iterations =  2.0

     total cpu time spent up to now is     3231.7 secs

     total energy              =    -343.63027086 Ry
     Harris-Foulkes estimate   =    -343.63027086 Ry
     estimated scf accuracy    <          3.9E-10 Ry

     total magnetization       =     2.84 Bohr mag/cell
     absolute magnetization    =     3.25 Bohr mag/cell

     iteration # 16     ecut=    60.00 Ry     beta=0.20
     Davidson diagonalization with overlap
     ethr =  9.74E-13,  avg # of iterations =  2.3

     total cpu time spent up to now is     3273.1 secs

     total energy              =    -343.63027086 Ry
     Harris-Foulkes estimate   =    -343.63027086 Ry
     estimated scf accuracy    <          2.1E-09 Ry

     total magnetization       =     2.84 Bohr mag/cell
     absolute magnetization    =     3.25 Bohr mag/cell

     iteration # 17     ecut=    60.00 Ry     beta=0.20
     Davidson diagonalization with overlap
     ethr =  9.74E-13,  avg # of iterations =  2.0

     Magnetic moment per site:
     atom:    1    charge:    3.0536    magn:    0.3402    constr:    0.0000
     atom:    2    charge:    3.0514    magn:    0.3400    constr:    0.0000
     atom:    3    charge:    3.0536    magn:    0.3402    constr:    0.0000
     atom:    4    charge:    3.0536    magn:    0.3402    constr:    0.0000

     total cpu time spent up to now is     3314.1 secs

     End of self-consistent calculation

 ------ SPIN UP ------------


          k = 0.0000 0.0000 0.0000 (  2301 PWs)   bands (ev):

     5.4307   9.7145   9.7145   9.7145  10.1676  10.1676  10.1676  11.9466
    11.9466  11.9466  13.1254  13.1254  13.8431  13.8431  13.8431  13.9331
    13.9331  13.9331  13.9331  13.9331  13.9331  17.0718  17.0718  17.0718
    23.8099  23.8099  23.8099  29.5679  29.5679  29.5680  29.5681  29.5681
    29.5681  34.6454  34.6454  34.6454  37.9908  37.9909  37.9909  38.4957
    42.4718  42.4720  42.4720  46.0693  46.0695  46.0695  48.1741  55.1680
    55.1681  55.1681  57.6095  59.0313

          k =-0.0000-0.0000 0.0476 (  2272 PWs)   bands (ev):

     5.7969   9.7366   9.8987   9.8987  10.2781  10.2940  10.2940  11.8179
    12.0489  12.0489  13.0075  13.1721  13.2791  13.2791  13.6897  13.6897
    13.7571  13.7571  13.7936  13.9334  13.9334  15.4709  18.0304  18.0304
    23.9058  23.9058  26.0592  27.8161  27.8161  28.4445  28.4445  30.1282
    30.1283  34.7615  36.8182  36.8182  37.8599  38.1227  39.9482  39.9483
    40.2499  40.2500  40.9167  47.4894  48.1266  48.1267  49.1492  51.5577
    56.2637  56.2638  56.6736  56.6736

          k =-0.0000-0.0000 0.0952 (  2276 PWs)   bands (ev):

     6.8462   9.5073  10.3356  10.3356  10.5858  10.6771  10.6771  11.4738
    12.2233  12.2233  12.3456  12.3456  12.7196  13.3007  13.3066  13.3112
    13.3113  13.3184  13.3184  13.6595  13.9339  13.9339  19.9928  19.9928
    24.2231  24.2231  25.0426  25.0426  26.6763  26.6763  30.3589  31.7074
    31.7075  35.1248  36.7270  37.0291  37.0293  38.3491  38.6747  40.8625
    40.8625  44.1123  44.1124  44.1446  50.9254  51.0476  51.0477  51.0505
    51.0505  55.0355  55.9386  55.9386

          k = 0.0000 0.0000-0.1427 (  2272 PWs)   bands (ev):

     8.3455   8.3456  10.6117  10.6117  11.0206  11.0207  11.3237  11.3237
    11.3238  11.3238  12.5424  12.5426  12.7976  12.7976  12.7977  12.7977
    13.0627  13.0627  13.4786  13.4787  13.9342  13.9342  22.3783  22.3783
    22.3785  22.3785  24.5963  24.5963  25.7308  25.7308  34.0852  34.0853
    34.0853  34.0854  34.9085  34.9088  35.7724  35.7724  40.2683  40.2687
    45.6636  45.6636  45.6640  45.6640  47.6182  47.6183  52.2897  52.2898
    54.1756  54.1757  54.1759  54.1760

          k =-0.0000 0.0476 0.0476 (  2277 PWs)   bands (ev):

     6.1545   9.9349   9.9349  10.0618  10.3955  10.3955  10.4094  11.7579
    12.0940  12.1110  12.9331  12.9829  12.9914  12.9914  13.1673  13.5611
    13.6856  13.6856  13.7558  13.7558  13.8173  16.4030  16.4030  18.8002
    23.9000  25.0989  26.2464  26.2465  28.2939  28.2939  28.9367  28.9367
    30.6560  36.0348  36.1185  37.0267  37.0267  37.3324  40.1158  40.1159
    41.2711  42.6035  43.5312  45.2316  46.3626  49.7874  50.4550  53.0929
    53.6689  55.3498  55.3498  56.3036

          k =-0.0000 0.0476 0.0952 (  2279 PWs)   bands (ev):

     7.1761   9.7434  10.4170  10.4655  10.6772  10.7305  10.7496  11.4769
    11.9847  12.1245  12.2398  12.3572  12.3827  12.8158  13.2373  13.3158
    13.3226  13.3463  13.4987  13.7526  13.7586  14.4362  18.0172  20.5829
    22.0808  24.6084  25.5040  26.5331  27.4010  29.6071  29.9024  29.9552
    31.0152  33.7235  34.4668  37.6790  38.6318  40.3898  40.5686  40.7478
    41.1182  44.0398  45.0321  47.0579  47.7853  48.5876  49.8930  51.3351
    52.9399  53.2611  54.8170  56.2016

          k = 0.0000 0.0476-0.1427 (  2272 PWs)   bands (ev):

     8.6270   8.6271  10.7642  10.7643  11.0724  11.0725  11.1914  11.1914
    11.3382  11.3383  12.1690  12.1691  12.7984  12.7985  13.0279  13.0279
    13.0477  13.0477  13.6621  13.6622  13.7501  13.7501  19.8856  19.8857
    22.8775  22.8777  25.4119  25.4120  28.3093  28.3093  31.4968  31.4968
    32.0204  32.0204  35.8285  35.8288  38.8280  38.8281  42.2126  42.2128
    43.1144  43.1145  45.9397  45.9400  50.0818  50.0821  50.3547  50.3549
    52.6127  52.6129  53.2027  53.2028

          k =-0.0000 0.0952 0.0952 (  2268 PWs)   bands (ev):

     8.1026  10.3309  10.3309  10.6968  10.9454  10.9454  10.9591  11.4070
    11.6541  11.6541  11.8088  12.1271  12.4881  12.7297  13.0213  13.1765
    13.1765  13.3165  13.3165  13.4865  13.7018  15.6821  15.6821  19.3002
    22.1094  25.1591  26.7768  26.7768  27.8961  27.8961  30.9846  31.6406
    31.6406  31.7364  33.6041  36.8380  41.5275  41.8801  41.8802  43.0751
    43.4125  43.7716  43.7717  47.1893  47.3295  48.4749  48.4749  51.6737
    52.1774  52.1913  53.1999  55.3507

          k = 0.0000 0.0952-0.1427 (  2266 PWs)   bands (ev):

     9.3696   9.3696  10.8017  10.8018  11.1996  11.1997  11.2072  11.2072
    11.3569  11.3569  11.8632  11.8632  12.8352  12.8352  12.8359  12.8360
    12.9020  12.9020  13.3514  13.3515  14.3633  14.3633  17.2134  17.2135
    24.2334  24.2335  26.2269  26.2271  28.6523  28.6524  29.5379  29.5380
    32.9492  32.9493  36.7908  36.7911  40.3647  40.3648  43.0497  43.0498
    43.2168  43.2169  46.7402  46.7404  47.9241  47.9243  50.4275  50.4277
    51.7615  51.7617  53.5631  53.5632

          k = 0.0000-0.1427-0.1427 (  2296 PWs)   bands (ev):

    10.2226  10.2227  10.2227  10.2227  11.3188  11.3189  11.3189  11.3190
    11.6280  11.6280  11.6280  11.6280  12.6891  12.6891  12.6891  12.6891
    13.0031  13.0031  13.0031  13.0032  15.4336  15.4336  15.4336  15.4336
    26.2077  26.2077  26.2077  26.2078  27.5786  27.5787  27.5787  27.5788
    37.8929  37.8930  37.8931  37.8931  38.4999  38.5000  38.5001  38.5002
    47.1788  47.1788  47.1789  47.1789  49.1899  49.1900  49.1901  49.1902
    51.8184  51.8184  51.8185  51.8186

          k = 0.0476 0.0476 0.0476 (  2280 PWs)   bands (ev):

     6.5003  10.0958  10.0958  10.0958  10.5100  10.5100  10.5100  11.7230
    12.1306  12.1306  12.6875  12.6875  12.6875  13.0805  13.0805  13.3276
    13.3276  13.3277  13.8715  13.8715  13.8715  17.0301  17.0301  17.0301
    25.3256  25.3256  25.3256  26.5915  26.5916  26.5916  31.1712  31.1713
    31.1713  33.4820  36.1661  36.1661  36.1661  39.2529  41.1378  41.1378
    42.8108  42.8108  42.8108  46.5927  47.6480  47.6480  51.6424  51.6424
    55.1080  55.2282  55.2282  55.2282

          k = 0.0476 0.0476 0.0952 (  2270 PWs)   bands (ev):

     7.4817   9.9021  10.4789  10.4789  10.7957  10.8238  10.8238  11.5135
    11.9751  11.9751  12.1705  12.2099  12.2700  12.9255  12.9961  13.0818
    13.0818  13.3201  13.7742  13.7742  13.8065  14.7980  18.3724  18.3724
    22.7066  22.7066  26.6192  27.2428  27.2429  30.3581  30.3582  30.7448
    30.9473  32.6508  36.6452  37.7765  37.8504  38.7904  38.7904  42.3605
    43.5029  44.4697  47.0203  47.0204  47.8823  49.0832  50.2000  50.2001
    50.6955  53.0168  53.0775  55.6567

          k = 0.0476 0.0476-0.1427 (  2260 PWs)   bands (ev):

     8.8540   8.8541  10.8662  10.8662  10.9241  10.9241  11.1673  11.1674
    11.5812  11.5812  12.0732  12.0733  12.5432  12.5433  12.9142  12.9142
    13.4896  13.4896  13.5961  13.5961  13.7181  13.7182  19.5211  19.5211
    21.1455  21.1455  28.2072  28.2072  28.4460  28.4461  28.9269  28.9269
    34.9383  34.9384  35.4152  35.4154  38.0946  38.0948  42.2043  42.2043
    44.7559  44.7560  45.3693  45.3693  49.4802  49.4805  50.8992  50.8993
    52.1848  52.1848  54.0162  54.0163

          k = 0.0476 0.0952 0.0952 (  2280 PWs)   bands (ev):

     8.3205  10.2198  10.2198  10.5059  11.1112  11.1572  11.1572  11.5586
    11.7712  11.7712  11.9044  12.1291  12.2550  12.7334  12.7334  12.7498
    13.0525  13.6075  13.6768  13.6920  13.6920  15.8129  15.8129  18.6242
    20.8032  23.9033  23.9034  27.9435  28.0527  31.1341  31.1342  32.1203
    32.1203  34.0170  35.2414  36.9089  39.3246  39.3246  40.1545  43.0373
    43.7352  44.7844  46.4628  46.4629  49.1918  49.1918  50.4176  50.5952
    50.9245  51.6176  52.3009  52.9260

          k = 0.0476 0.0952-0.1427 (  2276 PWs)   bands (ev):

     9.4037   9.4038  10.4410  10.4410  11.3247  11.3247  11.4728  11.4729
    11.7781  11.7781  11.8988  11.8988  12.4043  12.4044  12.6151  12.6151
    13.3497  13.3498  13.5773  13.5774  14.2696  14.2696  17.1905  17.1905
    21.8189  21.8190  25.6639  25.6640  29.4354  29.4355  33.0395  33.0395
    33.2530  33.2531  36.9046  36.9049  40.1375  40.1376  40.4460  40.4461
    45.1926  45.1927  45.6844  45.6845  47.7039  47.7041  50.5723  50.5725
    51.7904  51.7906  53.9029  53.9031

          k = 0.0476-0.1427-0.1427 (  2300 PWs)   bands (ev):

     9.9731   9.9731   9.9731   9.9731  11.7158  11.7158  11.7158  11.7158
    11.8028  11.8029  11.8029  11.8029  12.3758  12.3758  12.3758  12.3758
    13.3323  13.3323  13.3323  13.3324  15.3445  15.3445  15.3445  15.3445
    23.4526  23.4527  23.4527  23.4528  30.9730  30.9731  30.9732  30.9732
    38.1734  38.1735  38.1736  38.1736  38.3437  38.3437  38.3438  38.3439
    46.6556  46.6556  46.6557  46.6557  46.7577  46.7577  46.7578  46.7579
    54.8100  54.8100  54.8101  54.8102

          k = 0.0952 0.0952 0.0952 (  2284 PWs)   bands (ev):

     8.8643  10.0548  10.0548  10.0548  11.5157  11.5157  11.5157  12.0297
    12.0905  12.0906  12.0906  12.0960  12.0960  12.3792  12.3792  12.3792
    13.4554  13.4554  13.8203  13.8203  13.8203  16.1912  16.1912  16.1912
    21.4105  21.4105  21.4105  25.1505  32.4999  32.5000  32.5000  35.2443
    35.2444  35.2444  37.2741  37.2741  37.2741  37.7921  39.9519  39.9519
    44.4453  44.4453  47.7739  48.0659  48.0660  48.0660  48.1401  48.1401
    48.1401  52.4490  52.4491  52.4491

          k = 0.0952 0.0952-0.1427 (  2296 PWs)   bands (ev):

     9.4904   9.4904   9.9863   9.9863  11.6355  11.6355  11.9220  11.9220
    12.1387  12.1387  12.2591  12.2591  12.2737  12.2738  12.3737  12.3738
    13.7407  13.7407  13.7486  13.7486  14.1596  14.1596  16.4754  16.4754
    20.3815  20.3815  22.9682  22.9683  33.4157  33.4157  34.6276  34.6276
    36.3306  36.3307  37.2466  37.2467  38.9951  38.9953  39.4402  39.4402
    44.6523  44.6523  44.9033  44.9035  46.0171  46.0172  48.5511  48.5511
    49.6064  49.6065  52.9787  52.9787

          k = 0.0952-0.1427-0.1427 (  2292 PWs)   bands (ev):

     9.6660   9.6660   9.6660   9.6660  11.8815  11.8815  11.8815  11.8815
    12.0712  12.0712  12.0712  12.0712  12.8207  12.8207  12.8208  12.8208
    13.6687  13.6687  13.6687  13.6687  14.9678  14.9679  14.9679  14.9679
    21.0949  21.0950  21.0950  21.0950  35.1553  35.1554  35.1554  35.1555
    38.2197  38.2198  38.2198  38.2199  38.9404  38.9404  38.9405  38.9406
    44.0942  44.0942  44.0942  44.0943  45.1574  45.1575  45.1575  45.1576
    50.4206  50.4207  50.4207  50.4208

          k =-0.1427-0.1427-0.1427 (  2272 PWs)   bands (ev):

     9.5500   9.5500   9.5500   9.5500  11.9597  11.9597  11.9597  11.9597
    11.9597  11.9597  11.9597  11.9597  13.7962  13.7962  13.7962  13.7962
    13.7962  13.7962  13.7962  13.7962  14.2927  14.2928  14.2928  14.2928
    20.2138  20.2139  20.2139  20.2139  36.9508  36.9510  36.9510  36.9510
    39.5769  39.5769  39.5769  39.5770  39.5770  39.5770  39.5771  39.5771
    42.8029  42.8029  42.8029  42.8030  42.8030  42.8030  42.8031  42.8031
    48.7746  48.7746  48.7746  48.7747

          k =-0.0476 0.0000 0.0476 (  2277 PWs)   bands (ev):

     6.1545   9.9349   9.9349  10.0618  10.3955  10.3955  10.4094  11.7579
    12.0940  12.1110  12.9331  12.9829  12.9914  12.9914  13.1673  13.5611
    13.6856  13.6856  13.7558  13.7558  13.8173  16.4030  16.4030  18.8002
    23.9000  25.0990  26.2464  26.2465  28.2938  28.2939  28.9367  28.9367
    30.6558  36.0347  36.1186  37.0267  37.0267  37.3325  40.1158  40.1159
    41.2710  42.6036  43.5310  45.2316  46.3625  49.7873  50.4551  53.0929
    53.6690  55.3499  55.3499  56.3035

          k =-0.0476-0.0000 0.0952 (  2279 PWs)   bands (ev):

     7.1761   9.7434  10.4170  10.4655  10.6772  10.7305  10.7496  11.4769
    11.9847  12.1244  12.2398  12.3572  12.3827  12.8158  13.2372  13.3158
    13.3226  13.3463  13.4987  13.7526  13.7586  14.4362  18.0172  20.5829
    22.0809  24.6084  25.5039  26.5331  27.4010  29.6071  29.9024  29.9551
    31.0152  33.7236  34.4668  37.6790  38.6317  40.3898  40.5685  40.7479
    41.1183  44.0398  45.0320  47.0581  47.7852  48.5875  49.8931  51.3351
    52.9401  53.2612  54.8169  56.2015

          k =-0.0952 0.0000 0.0952 (  2268 PWs)   bands (ev):

     8.1026  10.3309  10.3309  10.6968  10.9454  10.9454  10.9591  11.4070
    11.6541  11.6541  11.8088  12.1271  12.4881  12.7297  13.0213  13.1765
    13.1765  13.3165  13.3165  13.4865  13.7018  15.6821  15.6821  19.3002
    22.1094  25.1591  26.7768  26.7768  27.8961  27.8961  30.9847  31.6407
    31.6407  31.7364  33.6040  36.8379  41.5274  41.8802  41.8802  43.0751
    43.4124  43.7717  43.7718  47.1892  47.3294  48.4750  48.4750  51.6739
    52.1773  52.1913  53.1998  55.3509

          k = 0.0476-0.0476 0.0476 (  2280 PWs)   bands (ev):

     6.5003  10.0958  10.0958  10.0958  10.5100  10.5100  10.5100  11.7230
    12.1306  12.1306  12.6875  12.6875  12.6875  13.0805  13.0805  13.3276
    13.3276  13.3277  13.8715  13.8715  13.8715  17.0301  17.0301  17.0301
    25.3256  25.3257  25.3257  26.5916  26.5916  26.5916  31.1711  31.1711
    31.1713  33.4822  36.1660  36.1660  36.1661  39.2528  41.1376  41.1378
    42.8109  42.8110  42.8110  46.5927  47.6479  47.6480  51.6423  51.6424
    55.1080  55.2282  55.2282  55.2283

          k = 0.0476-0.0476 0.0952 (  2270 PWs)   bands (ev):

     7.4817   9.9021  10.4789  10.4789  10.7957  10.8238  10.8238  11.5135
    11.9751  11.9751  12.1705  12.2099  12.2700  12.9255  12.9961  13.0818
    13.0818  13.3200  13.7742  13.7742  13.8065  14.7980  18.3723  18.3724
    22.7066  22.7067  26.6193  27.2429  27.2429  30.3581  30.3582  30.7450
    30.9474  32.6507  36.6451  37.7764  37.8502  38.7903  38.7904  42.3605
    43.5031  44.4697  47.0204  47.0205  47.8822  49.0831  50.2000  50.2002
    50.6955  53.0169  53.0775  55.6565

          k =-0.0952 0.0476 0.0476 (  2270 PWs)   bands (ev):

     7.4817   9.9021  10.4789  10.4789  10.7957  10.8238  10.8238  11.5135
    11.9751  11.9751  12.1705  12.2098  12.2701  12.9255  12.9961  13.0818
    13.0818  13.3200  13.7742  13.7742  13.8065  14.7980  18.3723  18.3723
    22.7067  22.7067  26.6191  27.2429  27.2429  30.3580  30.3580  30.7450
    30.9474  32.6508  36.6452  37.7764  37.8504  38.7903  38.7903  42.3604
    43.5030  44.4694  47.0205  47.0206  47.8821  49.0831  50.2001  50.2002
    50.6955  53.0170  53.0776  55.6567

          k = 0.0476-0.0476-0.1427 (  2260 PWs)   bands (ev):

     8.8540   8.8541  10.8662  10.8662  10.9241  10.9241  11.1673  11.1674
    11.5812  11.5812  12.0732  12.0733  12.5432  12.5433  12.9142  12.9142
    13.4896  13.4896  13.5961  13.5961  13.7181  13.7181  19.5211  19.5212
    21.1454  21.1455  28.2072  28.2072  28.4461  28.4461  28.9269  28.9270
    34.9382  34.9383  35.4152  35.4154  38.0945  38.0947  42.2042  42.2044
    44.7560  44.7562  45.3692  45.3693  49.4803  49.4805  50.8991  50.8992
    52.1847  52.1849  54.0162  54.0163

          k = 0.0952-0.0476 0.0952 (  2280 PWs)   bands (ev):

     8.3205  10.2198  10.2198  10.5059  11.1112  11.1572  11.1572  11.5586
    11.7712  11.7712  11.9044  12.1291  12.2550  12.7333  12.7333  12.7498
    13.0525  13.6075  13.6768  13.6920  13.6920  15.8129  15.8129  18.6242
    20.8031  23.9034  23.9034  27.9437  28.0528  31.1341  31.1342  32.1203
    32.1204  34.0170  35.2412  36.9089  39.3244  39.3244  40.1545  43.0372
    43.7352  44.7844  46.4629  46.4629  49.1920  49.1920  50.4177  50.5953
    50.9244  51.6177  52.3010  52.9261

          k =-0.0952 0.0476 0.0952 (  2280 PWs)   bands (ev):

     8.3205  10.2198  10.2198  10.5059  11.1112  11.1572  11.1572  11.5586
    11.7711  11.7712  11.9044  12.1291  12.2550  12.7334  12.7334  12.7497
    13.0525  13.6075  13.6768  13.6920  13.6920  15.8128  15.8129  18.6242
    20.8032  23.9033  23.9034  27.9437  28.0528  31.1341  31.1342  32.1203
    32.1204  34.0169  35.2414  36.9088  39.3245  39.3246  40.1544  43.0371
    43.7351  44.7843  46.4630  46.4630  49.1919  49.1920  50.4176  50.5952
    50.9245  51.6175  52.3011  52.9261

          k = 0.0952-0.0476-0.1427 (  2276 PWs)   bands (ev):

     9.4037   9.4038  10.4410  10.4410  11.3247  11.3247  11.4728  11.4729
    11.7781  11.7781  11.8988  11.8988  12.4043  12.4044  12.6151  12.6151
    13.3497  13.3498  13.5773  13.5774  14.2696  14.2696  17.1904  17.1905
    21.8189  21.8190  25.6641  25.6641  29.4354  29.4355  33.0394  33.0395
    33.2531  33.2532  36.9046  36.9049  40.1375  40.1376  40.4459  40.4460
    45.1925  45.1926  45.6844  45.6846  47.7040  47.7041  50.5725  50.5726
    51.7906  51.7907  53.9030  53.9031

          k = 0.0952-0.0952 0.0952 (  2284 PWs)   bands (ev):

     8.8644  10.0548  10.0548  10.0548  11.5157  11.5157  11.5157  12.0297
    12.0905  12.0906  12.0906  12.0959  12.0960  12.3792  12.3792  12.3792
    13.4554  13.4554  13.8202  13.8202  13.8202  16.1911  16.1912  16.1912
    21.4104  21.4105  21.4105  25.1506  32.5000  32.5001  32.5001  35.2442
    35.2443  35.2444  37.2740  37.2740  37.2742  37.7920  39.9517  39.9518
    44.4452  44.4453  47.7739  48.0660  48.0660  48.0661  48.1400  48.1400
    48.1402  52.4492  52.4493  52.4493

          k = 0.0952-0.0952-0.1427 (  2296 PWs)   bands (ev):

     9.4904   9.4904   9.9863   9.9863  11.6355  11.6355  11.9220  11.9221
    12.1387  12.1387  12.2590  12.2591  12.2737  12.2738  12.3737  12.3738
    13.7407  13.7407  13.7486  13.7486  14.1596  14.1596  16.4754  16.4754
    20.3815  20.3815  22.9683  22.9683  33.4157  33.4158  34.6276  34.6277
    36.3306  36.3307  37.2465  37.2466  38.9950  38.9952  39.4400  39.4402
    44.6522  44.6524  44.9033  44.9034  46.0171  46.0171  48.5512  48.5513
    49.6065  49.6065  52.9788  52.9788

 ------ SPIN DOWN ----------


          k = 0.0000 0.0000 0.0000 (  2301 PWs)   bands (ev):

     5.3761  10.1766  10.1766  10.1766  10.8860  10.8860  10.8860  12.8271
    12.8271  12.8271  13.9056  13.9056  14.6574  14.6574  14.6574  14.9427
    14.9427  14.9427  14.9427  14.9427  14.9427  16.9930  16.9930  16.9930
    24.1156  24.1156  24.1156  29.5542  29.5542  29.5542  29.5543  29.5544
    29.5544  34.8097  34.8097  34.8097  38.1342  38.1344  38.1344  38.2902
    42.4425  42.4428  42.4428  46.1417  46.1419  46.1419  48.0147  55.3570
    55.3571  55.3571  58.1295  59.5953

          k =-0.0000-0.0000 0.0476 (  2272 PWs)   bands (ev):

     5.7423  10.1522  10.3708  10.3708  11.0053  11.0098  11.0098  12.6851
    12.9336  12.9336  13.7781  13.9544  14.0993  14.0993  14.4904  14.4904
    14.6055  14.7501  14.7501  14.9430  14.9430  15.5410  18.1372  18.1372
    24.1964  24.1964  26.2611  27.8847  27.8847  28.4717  28.4718  30.1308
    30.1309  34.9132  36.8992  36.8992  37.7212  38.2639  40.0687  40.0688
    40.2917  40.2919  40.8468  47.5100  48.1005  48.1006  49.2209  51.5486
    56.4749  56.4750  56.6001  56.6001

          k =-0.0000-0.0000 0.0952 (  2276 PWs)   bands (ev):

     6.7959   9.7155  10.8323  10.8323  11.3384  11.3876  11.3876  12.3068
    12.9528  12.9528  13.2433  13.2434  13.4574  13.6772  14.0785  14.0785
    14.0890  14.2751  14.2751  14.4648  14.9436  14.9436  20.1780  20.1780
    24.4693  24.4694  25.1834  25.1834  26.7744  26.7745  30.4546  31.7443
    31.7445  35.2388  36.6923  37.1006  37.1007  38.2588  38.8208  40.8680
    40.8680  44.2117  44.2118  44.3628  50.8810  50.9527  50.9528  50.9770
    50.9770  54.9312  56.1795  56.1795

          k = 0.0000 0.0000-0.1427 (  2272 PWs)   bands (ev):

     8.3390   8.3391  11.1240  11.1240  11.8113  11.8114  12.0331  12.0331
    12.0332  12.0332  13.1905  13.1906  13.7195  13.7195  13.7196  13.7196
    13.8088  13.8088  14.2753  14.2754  14.9439  14.9439  22.5600  22.5600
    22.5601  22.5601  24.7931  24.7931  25.8881  25.8882  34.1502  34.1503
    34.1504  34.1505  34.8887  34.8890  35.8238  35.8239  40.4603  40.4607
    45.6192  45.6192  45.6196  45.6196  47.6922  47.6923  52.4789  52.4789
    54.0654  54.0654  54.0656  54.0657

          k =-0.0000 0.0476 0.0476 (  2277 PWs)   bands (ev):

     6.1008  10.3631  10.3632  10.5528  11.1092  11.1197  11.1197  12.6115
    12.9840  12.9884  13.6983  13.7396  13.7396  13.7515  13.9546  14.3519
    14.4780  14.4780  14.7489  14.7489  14.8196  16.7175  16.7175  18.9658
    24.1588  25.2286  26.4352  26.4352  28.3768  28.3769  28.9777  28.9777
    30.6670  36.1103  36.1389  37.0974  37.0974  37.3499  40.2337  40.2338
    41.1904  42.6909  43.5003  45.1752  46.4233  49.9460  50.3805  53.2655
    53.6346  55.3118  55.3118  56.2439

          k =-0.0000 0.0476 0.0952 (  2279 PWs)   bands (ev):

     7.1305   9.9660  10.8794  10.9977  11.3926  11.4253  11.4667  12.2990
    12.6762  12.8454  13.0391  13.0793  13.2595  13.5804  14.0024  14.0879
    14.1579  14.2442  14.2735  14.7460  14.7552  15.1455  18.3559  20.7870
    22.2793  24.8364  25.6556  26.6680  27.5262  29.7157  29.9642  30.0257
    31.1126  33.8016  34.5093  37.7210  38.6698  40.3415  40.5162  40.8676
    41.1179  44.1219  45.2366  47.1244  47.7078  48.5701  49.8771  51.2604
    52.8955  53.1705  55.0368  56.9907

          k = 0.0000 0.0476-0.1427 (  2272 PWs)   bands (ev):

     8.6326   8.6326  11.2676  11.2676  11.8558  11.8559  11.8683  11.8683
    12.0503  12.0504  12.9101  12.9102  13.7230  13.7231  13.7976  13.7977
    13.7980  13.7980  14.5009  14.5009  14.7445  14.7445  20.1671  20.1672
    23.0707  23.0708  25.5834  25.5836  28.4263  28.4264  31.6108  31.6109
    32.0783  32.0784  35.8538  35.8541  38.8294  38.8294  42.3652  42.3655
    43.1074  43.1076  45.8918  45.8921  50.1472  50.1475  50.2871  50.2873
    52.5292  52.5294  53.3706  53.3707

          k =-0.0000 0.0952 0.0952 (  2268 PWs)   bands (ev):

     8.0805  10.6042  10.6042  11.3612  11.4435  11.6812  11.6812  12.2011
    12.3475  12.3475  12.5212  12.9185  13.4036  13.4768  13.7750  13.9140
    13.9140  14.2776  14.2776  14.4675  14.5444  16.2875  16.2875  19.6078
    22.3287  25.3575  26.9437  26.9437  27.9973  27.9973  31.1156  31.7295
    31.7295  31.8039  33.6566  36.8738  41.4640  41.8621  41.8621  43.1098
    43.2952  43.8141  43.8141  47.3106  47.3588  48.5198  48.5198  51.7331
    52.0682  52.1321  53.4033  55.2535

          k = 0.0000 0.0952-0.1427 (  2266 PWs)   bands (ev):

     9.4309   9.4310  11.2214  11.2215  11.8473  11.8473  11.9627  11.9628
    12.0776  12.0777  12.6002  12.6003  13.5697  13.5697  13.6435  13.6435
    13.7698  13.7698  14.3201  14.3202  15.1695  15.1696  17.6776  17.6777
    24.4386  24.4387  26.3787  26.3789  28.8146  28.8146  29.6280  29.6281
    33.0210  33.0211  36.8185  36.8188  40.3636  40.3638  42.9956  42.9957
    43.2351  43.2352  46.6785  46.6787  48.0064  48.0066  50.3749  50.3750
    51.8823  51.8826  53.4778  53.4779

          k = 0.0000-0.1427-0.1427 (  2296 PWs)   bands (ev):

    10.4421  10.4421  10.4421  10.4422  12.0569  12.0570  12.0570  12.0571
    12.2974  12.2974  12.2974  12.2974  13.4269  13.4269  13.4270  13.4270
    13.9524  13.9524  13.9524  13.9525  16.1156  16.1156  16.1156  16.1156
    26.4027  26.4028  26.4028  26.4029  27.7022  27.7022  27.7023  27.7024
    37.9671  37.9672  37.9673  37.9673  38.4660  38.4661  38.4662  38.4663
    47.0589  47.0590  47.0590  47.0591  49.1791  49.1792  49.1793  49.1794
    51.9196  51.9196  51.9197  51.9198

          k = 0.0476 0.0476 0.0476 (  2280 PWs)   bands (ev):

     6.4494  10.5510  10.5510  10.5510  11.2108  11.2108  11.2108  12.5566
    13.0090  13.0090  13.3983  13.3983  13.3983  13.8670  13.8670  14.1589
    14.1589  14.1589  14.8200  14.8200  14.8200  17.3712  17.3712  17.3712
    25.4571  25.4571  25.4571  26.7649  26.7649  26.7649  31.1931  31.1932
    31.1932  33.5486  36.2611  36.2612  36.2612  39.0975  41.1904  41.1904
    42.8949  42.8950  42.8950  46.5053  47.6052  47.6052  51.8092  51.8092
    55.1814  55.1815  55.1815  56.0515

          k = 0.0476 0.0476 0.0952 (  2270 PWs)   bands (ev):

     7.4466  10.1647  11.0106  11.0106  11.4523  11.4523  11.5082  12.3093
    12.6777  12.6777  12.8430  13.0405  13.1306  13.7719  13.8063  13.8689
    13.8689  14.1425  14.7079  14.7377  14.7377  15.4285  18.6993  18.6993
    22.9169  22.9169  26.7635  27.3919  27.3919  30.4330  30.4331  30.8590
    31.0348  32.6973  36.7197  37.6824  37.9276  38.8207  38.8208  42.3681
    43.5832  44.4871  47.0645  47.0646  47.9243  49.0290  50.1889  50.1890
    50.7025  52.9462  53.0377  55.7716

          k = 0.0476 0.0476-0.1427 (  2260 PWs)   bands (ev):

     8.8886   8.8887  11.4383  11.4383  11.5056  11.5057  11.9184  11.9185
    12.2954  12.2954  12.8231  12.8232  13.3941  13.3941  13.6780  13.6780
    14.2944  14.2945  14.4575  14.4575  14.6901  14.6901  19.7785  19.7785
    21.4494  21.4495  28.3221  28.3221  28.5879  28.5880  29.0416  29.0416
    35.0077  35.0078  35.3885  35.3888  38.1719  38.1721  42.1856  42.1856
    44.8428  44.8430  45.3583  45.3583  49.4008  49.4011  50.8535  50.8536
    52.2183  52.2183  54.0616  54.0617

          k = 0.0476 0.0952 0.0952 (  2280 PWs)   bands (ev):

     8.3325  10.6127  10.6127  11.1244  11.6183  11.7592  11.7592  12.2855
    12.4914  12.4914  12.6164  12.9300  13.0794  13.5330  13.5330  13.5351
    13.8961  14.4567  14.6054  14.6054  14.6222  16.3663  16.3663  18.8990
    21.1471  24.1204  24.1204  28.1055  28.1804  31.1980  31.1980  32.2129
    32.2129  34.0717  35.2670  36.9342  39.3394  39.3394  40.0782  43.1509
    43.7270  44.7302  46.4569  46.4569  49.2466  49.2466  50.3493  50.5789
    50.9009  51.6902  52.3665  52.8531

          k = 0.0476 0.0952-0.1427 (  2276 PWs)   bands (ev):

     9.5532   9.5533  10.9761  10.9761  11.8791  11.8791  12.1190  12.1191
    12.4719  12.4720  12.6592  12.6593  13.2086  13.2086  13.3897  13.3898
    14.2152  14.2152  14.5134  14.5134  15.0628  15.0628  17.6016  17.6016
    22.1192  22.1192  25.8640  25.8641  29.5360  29.5361  33.0963  33.0963
    33.3220  33.3222  36.9177  36.9180  40.1218  40.1219  40.4686  40.4687
    45.1798  45.1800  45.6763  45.6764  47.6848  47.6850  50.6107  50.6108
    51.7299  51.7301  53.9992  53.9995

          k = 0.0476-0.1427-0.1427 (  2300 PWs)   bands (ev):

    10.3301  10.3301  10.3301  10.3301  12.2862  12.2863  12.2863  12.2863
    12.5061  12.5061  12.5061  12.5062  13.1531  13.1531  13.1531  13.1531
    14.2445  14.2445  14.2445  14.2446  15.9902  15.9903  15.9903  15.9903
    23.7104  23.7105  23.7105  23.7105  31.0557  31.0559  31.0559  31.0559
    38.2457  38.2458  38.2458  38.2459  38.2945  38.2946  38.2947  38.2948
    46.5874  46.5875  46.5875  46.5876  46.7834  46.7835  46.7836  46.7837
    54.8744  54.8744  54.8745  54.8747

          k = 0.0952 0.0952 0.0952 (  2284 PWs)   bands (ev):

     8.9975  10.5647  10.5647  10.5647  12.0748  12.0748  12.0748  12.5525
    12.7702  12.7703  12.7703  12.8971  12.8971  13.1704  13.1704  13.1704
    14.3365  14.3365  14.7481  14.7481  14.7481  16.6178  16.6178  16.6178
    21.7491  21.7491  21.7491  25.3759  32.5464  32.5465  32.5465  35.3058
    35.3058  35.3058  37.2868  37.2869  37.2869  37.6212  40.0380  40.0380
    44.4547  44.4547  47.7891  48.0144  48.0145  48.0145  48.1415  48.1416
    48.1416  52.4803  52.4803  52.4803

          k = 0.0952 0.0952-0.1427 (  2296 PWs)   bands (ev):

     9.8228   9.8228  10.5245  10.5245  12.2672  12.2672  12.5808  12.5808
    12.8281  12.8281  12.9309  12.9310  12.9737  12.9737  13.0379  13.0379
    14.6498  14.6498  14.6772  14.6772  14.8755  14.8755  16.8070  16.8070
    20.8186  20.8186  23.2577  23.2578  33.4235  33.4236  34.7136  34.7137
    36.2220  36.2222  37.3191  37.3191  39.0753  39.0755  39.4148  39.4148
    44.6789  44.6789  44.8806  44.8808  46.0255  46.0256  48.5110  48.5110
    49.6599  49.6600  53.0877  53.0877

          k = 0.0952-0.1427-0.1427 (  2292 PWs)   bands (ev):

    10.1368  10.1368  10.1368  10.1368  12.6145  12.6145  12.6145  12.6146
    12.8471  12.8472  12.8472  12.8472  13.2611  13.2612  13.2612  13.2612
    14.5870  14.5870  14.5870  14.5871  15.4994  15.4995  15.4995  15.4995
    21.4877  21.4878  21.4878  21.4878  35.1294  35.1295  35.1296  35.1296
    38.1888  38.1889  38.1889  38.1890  39.0096  39.0096  39.0097  39.0097
    44.1263  44.1263  44.1264  44.1265  45.1502  45.1502  45.1503  45.1503
    50.5111  50.5112  50.5112  50.5113

          k =-0.1427-0.1427-0.1427 (  2272 PWs)   bands (ev):

    10.0515  10.0515  10.0515  10.0515  12.7327  12.7327  12.7328  12.7328
    12.7328  12.7328  12.7328  12.7328  14.1935  14.1935  14.1936  14.1936
    14.7197  14.7197  14.7197  14.7198  14.7198  14.7198  14.7198  14.7198
    20.6961  20.6962  20.6962  20.6962  36.7667  36.7670  36.7670  36.7671
    39.6470  39.6470  39.6470  39.6470  39.6471  39.6471  39.6472  39.6472
    42.8334  42.8334  42.8334  42.8334  42.8335  42.8335  42.8336  42.8336
    48.8887  48.8887  48.8887  48.8888

          k =-0.0476 0.0000 0.0476 (  2277 PWs)   bands (ev):

     6.1008  10.3631  10.3631  10.5528  11.1092  11.1197  11.1197  12.6115
    12.9840  12.9884  13.6983  13.7396  13.7396  13.7515  13.9546  14.3519
    14.4780  14.4780  14.7489  14.7489  14.8196  16.7175  16.7175  18.9658
    24.1588  25.2287  26.4352  26.4352  28.3768  28.3769  28.9777  28.9777
    30.6669  36.1104  36.1388  37.0974  37.0974  37.3500  40.2337  40.2338
    41.1903  42.6910  43.5001  45.1752  46.4231  49.9460  50.3806  53.2656
    53.6346  55.3119  55.3119  56.2438

          k =-0.0476-0.0000 0.0952 (  2279 PWs)   bands (ev):

     7.1305   9.9660  10.8794  10.9977  11.3926  11.4253  11.4667  12.2990
    12.6762  12.8454  13.0391  13.0793  13.2595  13.5804  14.0024  14.0879
    14.1579  14.2442  14.2735  14.7460  14.7552  15.1454  18.3558  20.7870
    22.2794  24.8364  25.6556  26.6680  27.5262  29.7156  29.9642  30.0256
    31.1126  33.8017  34.5093  37.7210  38.6697  40.3414  40.5161  40.8677
    41.1179  44.1220  45.2365  47.1245  47.7077  48.5699  49.8772  51.2604
    52.8957  53.1706  55.0367  56.9908

          k =-0.0952 0.0000 0.0952 (  2268 PWs)   bands (ev):

     8.0805  10.6042  10.6042  11.3612  11.4435  11.6812  11.6812  12.2011
    12.3475  12.3475  12.5212  12.9185  13.4036  13.4768  13.7750  13.9140
    13.9140  14.2776  14.2776  14.4675  14.5444  16.2875  16.2875  19.6079
    22.3287  25.3575  26.9436  26.9437  27.9972  27.9973  31.1157  31.7295
    31.7295  31.8039  33.6565  36.8737  41.4639  41.8621  41.8622  43.1098
    43.2951  43.8142  43.8142  47.3105  47.3587  48.5199  48.5199  51.7334
    52.0682  52.1321  53.4032  55.2536

          k = 0.0476-0.0476 0.0476 (  2280 PWs)   bands (ev):

     6.4495  10.5510  10.5510  10.5510  11.2108  11.2108  11.2108  12.5566
    13.0090  13.0090  13.3983  13.3983  13.3983  13.8670  13.8670  14.1589
    14.1589  14.1589  14.8200  14.8200  14.8200  17.3712  17.3712  17.3712
    25.4571  25.4572  25.4572  26.7649  26.7649  26.7649  31.1930  31.1930
    31.1932  33.5488  36.2610  36.2611  36.2611  39.0975  41.1902  41.1904
    42.8950  42.8951  42.8952  46.5053  47.6051  47.6052  51.8090  51.8092
    55.1815  55.1815  55.1816  56.0512

          k = 0.0476-0.0476 0.0952 (  2270 PWs)   bands (ev):

     7.4467  10.1647  11.0106  11.0106  11.4523  11.4523  11.5082  12.3094
    12.6777  12.6777  12.8430  13.0405  13.1306  13.7719  13.8062  13.8689
    13.8689  14.1425  14.7079  14.7377  14.7377  15.4285  18.6993  18.6993
    22.9168  22.9169  26.7635  27.3919  27.3920  30.4330  30.4331  30.8592
    31.0349  32.6972  36.7197  37.6823  37.9274  38.8206  38.8208  42.3681
    43.5834  44.4871  47.0646  47.0647  47.9243  49.0289  50.1889  50.1891
    50.7025  52.9463  53.0377  55.7715

          k =-0.0952 0.0476 0.0476 (  2270 PWs)   bands (ev):

     7.4467  10.1647  11.0106  11.0106  11.4523  11.4524  11.5082  12.3094
    12.6777  12.6777  12.8430  13.0405  13.1306  13.7719  13.8062  13.8689
    13.8689  14.1425  14.7079  14.7377  14.7377  15.4284  18.6993  18.6993
    22.9169  22.9169  26.7634  27.3920  27.3920  30.4329  30.4329  30.8592
    31.0349  32.6973  36.7198  37.6824  37.9276  38.8206  38.8207  42.3681
    43.5833  44.4869  47.0647  47.0648  47.9242  49.0289  50.1890  50.1890
    50.7025  52.9464  53.0378  55.7716

          k = 0.0476-0.0476-0.1427 (  2260 PWs)   bands (ev):

     8.8886   8.8887  11.4383  11.4383  11.5057  11.5057  11.9184  11.9185
    12.2953  12.2954  12.8231  12.8232  13.3940  13.3941  13.6780  13.6780
    14.2944  14.2945  14.4575  14.4575  14.6901  14.6901  19.7785  19.7785
    21.4494  21.4494  28.3221  28.3222  28.5881  28.5881  29.0416  29.0417
    35.0076  35.0076  35.3885  35.3888  38.1718  38.1720  42.1855  42.1857
    44.8429  44.8431  45.3582  45.3584  49.4009  49.4010  50.8535  50.8535
    52.2182  52.2184  54.0616  54.0616

          k = 0.0952-0.0476 0.0952 (  2280 PWs)   bands (ev):

     8.3325  10.6127  10.6127  11.1245  11.6183  11.7592  11.7592  12.2855
    12.4914  12.4914  12.6164  12.9300  13.0794  13.5329  13.5329  13.5351
    13.8961  14.4567  14.6054  14.6054  14.6222  16.3663  16.3663  18.8989
    21.1470  24.1204  24.1204  28.1056  28.1805  31.1979  31.1980  32.2129
    32.2129  34.0717  35.2668  36.9342  39.3392  39.3392  40.0782  43.1508
    43.7270  44.7302  46.4569  46.4570  49.2467  49.2468  50.3494  50.5790
    50.9008  51.6903  52.3666  52.8532

          k =-0.0952 0.0476 0.0952 (  2280 PWs)   bands (ev):

     8.3325  10.6127  10.6127  11.1245  11.6184  11.7592  11.7592  12.2855
    12.4914  12.4914  12.6164  12.9300  13.0794  13.5330  13.5330  13.5351
    13.8961  14.4567  14.6054  14.6054  14.6222  16.3663  16.3663  18.8990
    21.1471  24.1203  24.1204  28.1056  28.1805  31.1979  31.1980  32.2129
    32.2130  34.0716  35.2670  36.9341  39.3393  39.3394  40.0781  43.1507
    43.7269  44.7301  46.4570  46.4571  49.2467  49.2468  50.3493  50.5788
    50.9009  51.6901  52.3667  52.8532

          k = 0.0952-0.0476-0.1427 (  2276 PWs)   bands (ev):

     9.5532   9.5533  10.9761  10.9761  11.8791  11.8791  12.1190  12.1191
    12.4719  12.4720  12.6592  12.6593  13.2086  13.2086  13.3897  13.3898
    14.2152  14.2152  14.5134  14.5134  15.0628  15.0628  17.6016  17.6016
    22.1191  22.1192  25.8641  25.8641  29.5360  29.5361  33.0961  33.0963
    33.3221  33.3222  36.9177  36.9179  40.1217  40.1219  40.4685  40.4686
    45.1798  45.1799  45.6762  45.6764  47.6850  47.6851  50.6108  50.6109
    51.7301  51.7302  53.9994  53.9996

          k = 0.0952-0.0952 0.0952 (  2284 PWs)   bands (ev):

     8.9975  10.5647  10.5647  10.5647  12.0748  12.0748  12.0748  12.5526
    12.7702  12.7703  12.7703  12.8971  12.8971  13.1704  13.1704  13.1704
    14.3365  14.3365  14.7480  14.7481  14.7481  16.6178  16.6178  16.6178
    21.7490  21.7491  21.7492  25.3760  32.5465  32.5465  32.5466  35.3057
    35.3057  35.3059  37.2867  37.2868  37.2869  37.6211  40.0378  40.0379
    44.4546  44.4546  47.7891  48.0145  48.0145  48.0146  48.1415  48.1415
    48.1417  52.4805  52.4806  52.4806

          k = 0.0952-0.0952-0.1427 (  2296 PWs)   bands (ev):

     9.8228   9.8228  10.5245  10.5245  12.2672  12.2673  12.5808  12.5808
    12.8281  12.8282  12.9309  12.9309  12.9737  12.9737  13.0379  13.0379
    14.6498  14.6498  14.6772  14.6772  14.8755  14.8755  16.8070  16.8070
    20.8185  20.8186  23.2578  23.2578  33.4236  33.4237  34.7137  34.7138
    36.2219  36.2221  37.3190  37.3190  39.0753  39.0755  39.4147  39.4149
    44.6788  44.6790  44.8806  44.8807  46.0255  46.0255  48.5111  48.5112
    49.6600  49.6600  53.0878  53.0878

     the Fermi energy is    14.4928 ev

!    total energy              =    -343.63027086 Ry
     Harris-Foulkes estimate   =    -343.63027086 Ry
     estimated scf accuracy    <          1.2E-11 Ry

     The total energy is the sum of the following terms:

     one-electron contribution =      -6.38003989 Ry
     hartree contribution      =      60.34782933 Ry
     xc contribution           =    -120.51420930 Ry
     ewald contribution        =    -277.03543306 Ry
     Dispersion Correction     =      -0.04784475 Ry
     smearing contrib. (-TS)   =      -0.00057319 Ry

     total magnetization       =     2.84 Bohr mag/cell
     absolute magnetization    =     3.25 Bohr mag/cell

     convergence has been achieved in  17 iterations

     Forces acting on atoms (Ry/au):

     atom    1 type  1   force =     0.00000317    0.00000317   -0.00000263
     atom    2 type  1   force =    -0.00000371   -0.00000371   -0.00000371
     atom    3 type  1   force =     0.00000317   -0.00000263    0.00000317
     atom    4 type  1   force =    -0.00000263    0.00000317    0.00000317

     Total force =     0.000011     Total SCF correction =     0.000006
     SCF correction compared to forces is large: reduce conv_thr to get better values


     entering subroutine stress ...

          total   stress  (Ry/bohr**3)                   (kbar)     P=    0.10
   0.00000068  -0.00000003  -0.00000003          0.10     -0.00     -0.00
  -0.00000003   0.00000068  -0.00000003         -0.00      0.10     -0.00
  -0.00000003  -0.00000003   0.00000068         -0.00     -0.00      0.10


     Writing output data file Ni-ferromag.save

     init_run     :     31.86s CPU     32.84s WALL (       2 calls)
     electrons    :   3024.68s CPU   3121.14s WALL (       6 calls)
     update_pot   :     22.05s CPU     22.13s WALL (       4 calls)
     forces       :     53.13s CPU     53.48s WALL (       6 calls)
     stress       :     97.33s CPU     98.92s WALL (       6 calls)

     Called by init_run:
     wfcinit      :     25.48s CPU     26.35s WALL (       2 calls)
     potinit      :      1.80s CPU      1.83s WALL (       2 calls)

     Called by electrons:
     c_bands      :   2601.59s CPU   2680.80s WALL (      74 calls)
     sum_band     :    379.45s CPU    393.55s WALL (      74 calls)
     v_of_rho     :     22.63s CPU     23.55s WALL (      80 calls)
     newd         :     21.98s CPU     23.87s WALL (      80 calls)
     mix_rho      :      1.50s CPU      1.89s WALL (      74 calls)

     Called by c_bands:
     init_us_2    :     18.47s CPU     20.58s WALL (   10368 calls)
     cegterg      :   2536.59s CPU   2614.60s WALL (    4736 calls)

     Called by sum_band:
     sum_band:bec :      0.79s CPU      0.79s WALL (    4736 calls)
     addusdens    :     31.58s CPU     33.42s WALL (      74 calls)

     Called by *egterg:
     h_psi        :   1403.11s CPU   1452.79s WALL (   13733 calls)
     s_psi        :    185.18s CPU    185.30s WALL (   13733 calls)
     g_psi        :      8.11s CPU      8.11s WALL (    8869 calls)
     cdiaghg      :    135.78s CPU    135.95s WALL (   13349 calls)

     Called by h_psi:
     add_vuspsi   :    185.71s CPU    185.79s WALL (   13733 calls)

     General routines
     calbec       :    337.39s CPU    337.58s WALL (   20389 calls)
     fft          :      7.70s CPU      8.51s WALL (    2684 calls)
     ffts         :      0.40s CPU      0.44s WALL (     308 calls)
     fftw         :   1098.27s CPU   1157.56s WALL ( 1354130 calls)
     interpolate  :      1.40s CPU      1.73s WALL (     308 calls)

     Parallel routines
     fft_scatter  :     62.14s CPU     79.71s WALL ( 1357122 calls)

     PWSCF        : 53m51.61s CPU    55m31.40s WALL


   This run was terminated on:   4:25:37  27May2016            

=------------------------------------------------------------------------------=
   JOB DONE.
=------------------------------------------------------------------------------=
