
     Program PWSCF v.5.3.0 (svn rev. 11974) starts on 27May2016 at  4:25:37 

     This program is part of the open-source Quantum ESPRESSO suite
     for quantum simulation of materials; please cite
         "P. Giannozzi et al., J. Phys.:Condens. Matter 21 395502 (2009);
          URL http://www.quantum-espresso.org", 
     in publications or presentations arising from this work. More details at
     http://www.quantum-espresso.org/quote

     Parallel version (MPI), running on     1 processors
     Waiting for input...
     Reading input from standard input
     Message from routine read_cards :
     DEPRECATED: no units specified in CELL_PARAMETERS card

     Current dimensions of program PWSCF are:
     Max number of different atomic species (ntypx) = 10
     Max number of k-points (npk) =  40000
     Max angular momentum in pseudopotentials (lmaxx) =  3
               file Ni.pbe-nd-rrkjus.UPF: wavefunction(s)  4S renormalized

     -------------------------------------
     Parameters for Dispersion Correction:
     -------------------------------------
       atom      VdW radius       C_6     

        Ni1        3.014        159.927

     Subspace diagonalization in iterative solution of the eigenvalue problem:
     a serial algorithm will be used


     G-vector sticks info
     --------------------
     sticks:   dense  smooth     PW     G-vecs:    dense   smooth      PW
     Sum        1413     917    277                39847    20815    3431

     Generating pointlists ...
     new r_m :   0.4125 (alat units)  0.7795 (a.u.) for type    1

     Title: 
     Ni-ferro-mag                                                               


     bravais-lattice index     =            0
     lattice parameter (alat)  =       1.8897  a.u.
     unit-cell volume          =     295.0010 (a.u.)^3
     number of atoms/cell      =            4
     number of atomic types    =            1
     number of electrons       =        40.00
     number of Kohn-Sham states=           52
     kinetic-energy cutoff     =      65.0000  Ry
     charge density cutoff     =     400.0000  Ry
     convergence threshold     =      1.0E-08
     mixing beta               =       0.2000
     number of iterations used =            8  plain     mixing
     Exchange-correlation      =  SLA  PW   PBE  PBE ( 1  4  3  4 0 0)
     nstep                     =           50


     celldm(1)=   1.889726  celldm(2)=   0.000000  celldm(3)=   0.000000
     celldm(4)=   0.000000  celldm(5)=   0.000000  celldm(6)=   0.000000

     crystal axes: (cart. coord. in units of alat)
               a(1) = (   3.522700   0.000000   0.000000 )  
               a(2) = (   0.000000   3.522700   0.000000 )  
               a(3) = (   0.000000   0.000000   3.522700 )  

     reciprocal axes: (cart. coord. in units 2 pi/alat)
               b(1) = (  0.283873  0.000000  0.000000 )  
               b(2) = (  0.000000  0.283873  0.000000 )  
               b(3) = (  0.000000  0.000000  0.283873 )  


     PseudoPot. # 1 for Ni read from file:
     /home/eliot/pseudo/Ni.pbe-nd-rrkjus.UPF
     MD5 check sum: 8081f0a005c9a5470caab1a58e82ecb2
     Pseudo is Ultrasoft + core correction, Zval = 10.0
     Generated by new atomic code, or converted to UPF format
     Using radial grid of 1203 points,  6 beta functions with: 
                l(1) =   0
                l(2) =   0
                l(3) =   1
                l(4) =   1
                l(5) =   2
                l(6) =   2
     Q(r) pseudized with 0 coefficients 


     atomic species   valence    mass     pseudopotential
        Ni1           10.00    58.69340     Ni( 1.00)

     Starting magnetic structure 
     atomic species   magnetization
        Ni1          0.500

      6 Sym. Ops. (no inversion) found



   Cartesian axes

     site n.     atom                  positions (alat units)
         1           Ni1 tau(   1) = (   1.7691699   1.7691699   0.0000000  )
         2           Ni1 tau(   2) = (   0.0000000   0.0000000   0.0000000  )
         3           Ni1 tau(   3) = (   1.7691699   0.0000000   1.7691699  )
         4           Ni1 tau(   4) = (   0.0000000   1.7691699   1.7691699  )

     number of k points=    32  Methfessel-Paxton smearing, width (Ry)=  0.0500
                       cart. coord. in units 2pi/alat
        k(    1) = (   0.0000000   0.0000000   0.0000000), wk =   0.0046296
        k(    2) = (   0.0000000   0.0000000   0.0473122), wk =   0.0277778
        k(    3) = (   0.0000000   0.0000000   0.0946244), wk =   0.0277778
        k(    4) = (   0.0000000   0.0000000  -0.1419366), wk =   0.0138889
        k(    5) = (   0.0000000   0.0473122   0.0473122), wk =   0.0277778
        k(    6) = (   0.0000000   0.0473122   0.0946244), wk =   0.0555556
        k(    7) = (   0.0000000   0.0473122  -0.1419366), wk =   0.0555556
        k(    8) = (   0.0000000   0.0946244   0.0946244), wk =   0.0277778
        k(    9) = (   0.0000000   0.0946244  -0.1419366), wk =   0.0555556
        k(   10) = (   0.0000000  -0.1419366  -0.1419366), wk =   0.0138889
        k(   11) = (   0.0473122   0.0473122   0.0473122), wk =   0.0092593
        k(   12) = (   0.0473122   0.0473122   0.0946244), wk =   0.0277778
        k(   13) = (   0.0473122   0.0473122  -0.1419366), wk =   0.0277778
        k(   14) = (   0.0473122   0.0946244   0.0946244), wk =   0.0277778
        k(   15) = (   0.0473122   0.0946244  -0.1419366), wk =   0.0555556
        k(   16) = (   0.0473122  -0.1419366  -0.1419366), wk =   0.0277778
        k(   17) = (   0.0946244   0.0946244   0.0946244), wk =   0.0092593
        k(   18) = (   0.0946244   0.0946244  -0.1419366), wk =   0.0277778
        k(   19) = (   0.0946244  -0.1419366  -0.1419366), wk =   0.0277778
        k(   20) = (  -0.1419366  -0.1419366  -0.1419366), wk =   0.0046296
        k(   21) = (  -0.0473122   0.0000000   0.0473122), wk =   0.0277778
        k(   22) = (  -0.0473122   0.0000000   0.0946244), wk =   0.0555556
        k(   23) = (  -0.0946244   0.0000000   0.0946244), wk =   0.0277778
        k(   24) = (   0.0473122  -0.0473122   0.0473122), wk =   0.0277778
        k(   25) = (   0.0473122  -0.0473122   0.0946244), wk =   0.0555556
        k(   26) = (  -0.0946244   0.0473122   0.0473122), wk =   0.0277778
        k(   27) = (   0.0473122  -0.0473122  -0.1419366), wk =   0.0277778
        k(   28) = (   0.0946244  -0.0473122   0.0946244), wk =   0.0277778
        k(   29) = (  -0.0946244   0.0473122   0.0946244), wk =   0.0555556
        k(   30) = (   0.0946244  -0.0473122  -0.1419366), wk =   0.0555556
        k(   31) = (   0.0946244  -0.0946244   0.0946244), wk =   0.0277778
        k(   32) = (   0.0946244  -0.0946244  -0.1419366), wk =   0.0277778

     Dense  grid:    39847 G-vectors     FFT dimensions: (  45,  45,  45)

     Smooth grid:    20815 G-vectors     FFT dimensions: (  36,  36,  36)

     Largest allocated arrays     est. size (Mb)     dimensions
        Kohn-Sham Wavefunctions         2.09 Mb     (    2630,   52)
        NL pseudopotentials             2.89 Mb     (    2630,   72)
        Each V/rho on FFT grid          2.78 Mb     (   91125,   2)
        Each G-vector array             0.30 Mb     (   39847)
        G-vector shells                 0.30 Mb     (   39847)
     Largest temporary arrays     est. size (Mb)     dimensions
        Auxiliary wavefunctions         8.35 Mb     (    2630,  208)
        Each subspace H/S matrix        0.66 Mb     (     208,  208)
        Each <psi_i|beta_j> matrix      0.06 Mb     (      72,   52)
        Arrays for rho mixing          11.12 Mb     (   91125,    8)

     Check: negative/imaginary core charge=   -0.000005    0.000000

     Initial potential from superposition of free atoms

     starting charge   39.99816, renormalised to   40.00000
     Starting wfc are   24 randomized atomic wfcs +   28 random wfc

     total cpu time spent up to now is       19.1 secs

     Self-consistent Calculation

     iteration #  1     ecut=    65.00 Ry     beta=0.20
     Davidson diagonalization with overlap
     ethr =  1.00E-02,  avg # of iterations =  6.3

     total cpu time spent up to now is      115.1 secs

     total energy              =    -342.90142788 Ry
     Harris-Foulkes estimate   =    -343.18551336 Ry
     estimated scf accuracy    <       2.43747691 Ry

     total magnetization       =     6.91 Bohr mag/cell
     absolute magnetization    =     6.92 Bohr mag/cell

     iteration #  2     ecut=    65.00 Ry     beta=0.20
     Davidson diagonalization with overlap
     ethr =  6.09E-03,  avg # of iterations =  1.0

     total cpu time spent up to now is      154.1 secs

     total energy              =    -343.20640565 Ry
     Harris-Foulkes estimate   =    -343.04087550 Ry
     estimated scf accuracy    <       0.77205745 Ry

     total magnetization       =     5.77 Bohr mag/cell
     absolute magnetization    =     5.87 Bohr mag/cell

     iteration #  3     ecut=    65.00 Ry     beta=0.20
     Davidson diagonalization with overlap
     ethr =  1.93E-03,  avg # of iterations =  1.7

     total cpu time spent up to now is      193.9 secs

     total energy              =    -343.53597431 Ry
     Harris-Foulkes estimate   =    -343.27849998 Ry
     estimated scf accuracy    <       0.36093513 Ry

     total magnetization       =     4.53 Bohr mag/cell
     absolute magnetization    =     4.85 Bohr mag/cell

     iteration #  4     ecut=    65.00 Ry     beta=0.20
     Davidson diagonalization with overlap
     ethr =  9.02E-04,  avg # of iterations =  1.7

     total cpu time spent up to now is      233.8 secs

     total energy              =    -343.61861982 Ry
     Harris-Foulkes estimate   =    -343.65314923 Ry
     estimated scf accuracy    <       0.12776921 Ry

     total magnetization       =     2.54 Bohr mag/cell
     absolute magnetization    =     3.17 Bohr mag/cell

     iteration #  5     ecut=    65.00 Ry     beta=0.20
     Davidson diagonalization with overlap
     ethr =  3.19E-04,  avg # of iterations =  1.0

     total cpu time spent up to now is      272.7 secs

     total energy              =    -343.62263266 Ry
     Harris-Foulkes estimate   =    -343.62828430 Ry
     estimated scf accuracy    <       0.01765070 Ry

     total magnetization       =     2.62 Bohr mag/cell
     absolute magnetization    =     3.23 Bohr mag/cell

     iteration #  6     ecut=    65.00 Ry     beta=0.20
     Davidson diagonalization with overlap
     ethr =  4.41E-05,  avg # of iterations =  3.6

     total cpu time spent up to now is      315.6 secs

     total energy              =    -343.62631340 Ry
     Harris-Foulkes estimate   =    -343.62738852 Ry
     estimated scf accuracy    <       0.00220580 Ry

     total magnetization       =     2.71 Bohr mag/cell
     absolute magnetization    =     3.30 Bohr mag/cell

     iteration #  7     ecut=    65.00 Ry     beta=0.20
     Davidson diagonalization with overlap
     ethr =  5.51E-06,  avg # of iterations =  3.8

     total cpu time spent up to now is      358.8 secs

     total energy              =    -343.62921876 Ry
     Harris-Foulkes estimate   =    -343.62816069 Ry
     estimated scf accuracy    <       0.00167286 Ry

     total magnetization       =     3.03 Bohr mag/cell
     absolute magnetization    =     3.52 Bohr mag/cell

     iteration #  8     ecut=    65.00 Ry     beta=0.20
     Davidson diagonalization with overlap
     ethr =  4.18E-06,  avg # of iterations =  1.4

     total cpu time spent up to now is      398.2 secs

     total energy              =    -343.62958988 Ry
     Harris-Foulkes estimate   =    -343.62956129 Ry
     estimated scf accuracy    <       0.00007182 Ry

     total magnetization       =     2.91 Bohr mag/cell
     absolute magnetization    =     3.37 Bohr mag/cell

     iteration #  9     ecut=    65.00 Ry     beta=0.20
     Davidson diagonalization with overlap
     ethr =  1.80E-07,  avg # of iterations =  1.9

     total cpu time spent up to now is      438.2 secs

     total energy              =    -343.62960393 Ry
     Harris-Foulkes estimate   =    -343.62962346 Ry
     estimated scf accuracy    <       0.00004089 Ry

     total magnetization       =     2.87 Bohr mag/cell
     absolute magnetization    =     3.32 Bohr mag/cell

     iteration # 10     ecut=    65.00 Ry     beta=0.20
     Davidson diagonalization with overlap
     ethr =  1.02E-07,  avg # of iterations =  1.1

     total cpu time spent up to now is      477.2 secs

     total energy              =    -343.62962795 Ry
     Harris-Foulkes estimate   =    -343.62961816 Ry
     estimated scf accuracy    <       0.00001605 Ry

     total magnetization       =     2.89 Bohr mag/cell
     absolute magnetization    =     3.33 Bohr mag/cell

     iteration # 11     ecut=    65.00 Ry     beta=0.20
     Davidson diagonalization with overlap
     ethr =  4.01E-08,  avg # of iterations =  1.0

     total cpu time spent up to now is      516.1 secs

     total energy              =    -343.62963548 Ry
     Harris-Foulkes estimate   =    -343.62963437 Ry
     estimated scf accuracy    <       0.00000236 Ry

     total magnetization       =     2.88 Bohr mag/cell
     absolute magnetization    =     3.31 Bohr mag/cell

     iteration # 12     ecut=    65.00 Ry     beta=0.20
     Davidson diagonalization with overlap
     ethr =  5.91E-09,  avg # of iterations =  1.0

     total cpu time spent up to now is      555.0 secs

     total energy              =    -343.62963678 Ry
     Harris-Foulkes estimate   =    -343.62963680 Ry
     estimated scf accuracy    <       0.00000032 Ry

     total magnetization       =     2.87 Bohr mag/cell
     absolute magnetization    =     3.30 Bohr mag/cell

     iteration # 13     ecut=    65.00 Ry     beta=0.20
     Davidson diagonalization with overlap
     ethr =  8.10E-10,  avg # of iterations =  1.5

     total cpu time spent up to now is      594.6 secs

     total energy              =    -343.62963688 Ry
     Harris-Foulkes estimate   =    -343.62963691 Ry
     estimated scf accuracy    <       0.00000001 Ry

     total magnetization       =     2.87 Bohr mag/cell
     absolute magnetization    =     3.30 Bohr mag/cell

     iteration # 14     ecut=    65.00 Ry     beta=0.20
     Davidson diagonalization with overlap
     ethr =  3.26E-11,  avg # of iterations =  1.1

     total cpu time spent up to now is      633.7 secs

     total energy              =    -343.62963691 Ry
     Harris-Foulkes estimate   =    -343.62963689 Ry
     estimated scf accuracy    <       0.00000004 Ry

     total magnetization       =     2.87 Bohr mag/cell
     absolute magnetization    =     3.30 Bohr mag/cell

     iteration # 15     ecut=    65.00 Ry     beta=0.20
     Davidson diagonalization with overlap
     ethr =  3.26E-11,  avg # of iterations =  1.0

     Magnetic moment per site:
     atom:    1    charge:    3.0543    magn:    0.3439    constr:    0.0000
     atom:    2    charge:    3.0526    magn:    0.3438    constr:    0.0000
     atom:    3    charge:    3.0543    magn:    0.3439    constr:    0.0000
     atom:    4    charge:    3.0543    magn:    0.3439    constr:    0.0000

     total cpu time spent up to now is      672.6 secs

     End of self-consistent calculation

 ------ SPIN UP ------------


          k = 0.0000 0.0000 0.0000 (  2553 PWs)   bands (ev):

     5.2290   9.4936   9.4936   9.4936   9.9340   9.9346   9.9346  11.6677
    11.6677  11.6677  12.8173  12.8173  13.5172  13.5172  13.5172  13.6029
    13.6029  13.6029  13.6031  13.6031  13.6031  16.7429  16.7431  16.7431
    23.3388  23.3388  23.3388  29.0913  29.0913  29.0913  29.0915  29.0915
    29.0916  34.1016  34.1016  34.1020  37.3458  37.3459  37.3459  38.0320
    41.8750  41.8750  41.8750  45.3831  45.3831  45.3831  47.5697  54.3400
    54.3400  54.3400  57.2491  58.5578

          k = 0.0000 0.0000 0.0473 (  2605 PWs)   bands (ev):

     5.5906   9.5129   9.6740   9.6740  10.0422  10.0573  10.0578  11.5427
    11.7675  11.7675  12.7021  12.8623  12.9701  12.9703  13.3674  13.3674
    13.4325  13.4325  13.4690  13.6034  13.6034  15.1468  17.6791  17.6793
    23.4378  23.4378  25.5826  27.3493  27.3495  27.9635  27.9635  29.6429
    29.6429  34.2200  36.2634  36.2637  37.3769  37.4764  39.2924  39.2925
    39.6485  39.6485  40.3560  46.8119  47.4728  47.4728  48.4055  50.8786
    55.3992  55.3992  55.9779  55.9785

          k = 0.0000 0.0000 0.0946 (  2605 PWs)   bands (ev):

     6.6280   9.2771  10.1018  10.1018  10.3422  10.4306  10.4313  11.2083
    11.9399  11.9406  12.0566  12.0566  12.4232  12.9883  12.9902  12.9902
    13.0032  13.0149  13.0149  13.3384  13.6039  13.6039  19.6089  19.6091
    23.7662  23.7662  24.5996  24.5997  26.1890  26.1890  29.8634  31.1978
    31.1978  34.5900  36.2201  36.4513  36.4513  37.8321  38.0183  40.2799
    40.2802  43.3963  43.4274  43.4274  50.2419  50.3922  50.3922  50.4108
    50.4108  54.3347  55.2812  55.2813

          k = 0.0000 0.0000-0.1419 (  2594 PWs)   bands (ev):

     8.1033   8.1260  10.3722  10.3722  10.7499  10.7816  11.0466  11.0469
    11.0783  11.0785  12.2292  12.2736  12.4848  12.4848  12.5086  12.5086
    12.7597  12.7597  13.1532  13.1708  13.6042  13.6042  21.9355  21.9357
    21.9918  21.9919  24.1630  24.1631  25.2227  25.2227  33.5225  33.5225
    33.5625  33.5625  34.3676  34.4498  35.2396  35.2581  39.5035  39.6342
    44.9893  44.9896  45.1025  45.1028  46.9028  46.9028  51.5753  51.5754
    53.4703  53.4703  53.5754  53.5754

          k = 0.0000 0.0473 0.0473 (  2610 PWs)   bands (ev):

     5.9439   9.7074   9.7075   9.8334  10.1563  10.1568  10.1702  11.4846
    11.8114  11.8280  12.6326  12.6667  12.6891  12.7014  12.8588  13.2431
    13.3640  13.3640  13.4308  13.4311  13.4909  16.0554  16.0554  18.4343
    23.4481  24.6342  25.7735  25.7738  27.8189  27.8189  28.4464  28.4471
    30.1618  35.4703  35.5990  36.4721  36.4725  36.7720  39.4615  39.4620
    40.7143  41.9445  42.9235  44.6224  45.6798  49.0062  49.8070  52.2830
    53.0105  54.6580  54.6592  55.6128

          k = 0.0000 0.0473 0.0946 (  2629 PWs)   bands (ev):

     6.9542   9.5094  10.1800  10.2278  10.4312  10.4836  10.5016  11.2115
    11.7069  11.8430  11.9546  12.0679  12.0954  12.5171  12.9282  12.9942
    13.0174  13.0346  13.1833  13.4266  13.4345  14.1032  17.6424  20.1896
    21.6670  24.1309  25.0542  26.0846  26.8876  29.1158  29.4124  29.4655
    30.4853  33.2003  33.9303  37.1244  38.0545  39.8310  40.0104  40.0861
    40.5348  43.3645  44.2793  46.3627  47.1622  47.9208  49.2226  50.6747
    52.2582  52.6004  54.0633  55.5550

          k = 0.0000 0.0473-0.1419 (  2630 PWs)   bands (ev):

     8.3825   8.4038  10.5201  10.5216  10.7999  10.8306  10.9204  10.9464
    11.0613  11.0921  11.8704  11.9032  12.4853  12.5096  12.7169  12.7275
    12.7448  12.7463  13.3410  13.3412  13.4229  13.4277  19.4747  19.5033
    22.4302  22.4808  24.9249  24.9619  27.8057  27.8173  30.9769  30.9946
    31.5014  31.5141  35.2389  35.3343  38.2673  38.2752  41.4784  41.5580
    42.4880  42.5167  45.2669  45.3739  49.3003  49.3977  49.6797  49.7250
    51.9263  51.9612  52.4863  52.5161

          k = 0.0000 0.0946 0.0946 (  2614 PWs)   bands (ev):

     7.8714  10.0872  10.0874  10.4490  10.6916  10.6929  10.7103  11.1442
    11.3844  11.3846  11.5356  11.8463  12.1950  12.4332  12.7182  12.8679
    12.8685  13.0037  13.0041  13.1693  13.3797  15.3278  15.3278  18.9092
    21.6946  24.6819  26.3094  26.3095  27.4156  27.4162  30.4794  31.1094
    31.1156  31.2275  33.0656  36.2831  40.9617  41.2937  41.2940  42.4382
    42.8505  43.1211  43.1211  46.4563  46.6545  47.7836  47.7845  50.9478
    51.5032  51.5322  52.4683  54.6559

          k = 0.0000 0.0946-0.1419 (  2608 PWs)   bands (ev):

     9.1196   9.1372  10.5389  10.5588  10.9221  10.9414  10.9568  10.9640
    11.0810  11.1097  11.5790  11.6005  12.5194  12.5353  12.5369  12.5432
    12.6036  12.6067  13.0302  13.0449  14.0250  14.0288  16.8296  16.8521
    23.7739  23.8126  25.7333  25.7633  28.1575  28.1766  29.0385  29.0416
    32.4124  32.4196  36.1863  36.2788  39.7704  39.7896  42.4548  42.4731
    42.5826  42.5913  46.0738  46.1611  47.1854  47.2379  49.7379  49.7862
    50.9648  51.0453  52.8756  52.8972

          k = 0.0000-0.1419-0.1419 (  2624 PWs)   bands (ev):

     9.9596   9.9747   9.9747   9.9892  11.0298  11.0572  11.0572  11.0842
    11.3544  11.3623  11.3623  11.3698  12.3908  12.3933  12.3933  12.3963
    12.6760  12.6985  12.6986  12.7208  15.0692  15.0798  15.0798  15.0906
    25.7169  25.7441  25.7441  25.7709  27.0759  27.0934  27.0935  27.1119
    37.2710  37.2968  37.2968  37.3238  37.9211  37.9543  37.9543  37.9830
    46.5751  46.5751  46.5765  46.5768  48.4720  48.5207  48.5207  48.5690
    51.0305  51.0339  51.0340  51.0366

          k = 0.0473 0.0473 0.0473 (  2629 PWs)   bands (ev):

     6.2858   9.8647   9.8648   9.8648  10.2680  10.2688  10.2688  11.4509
    11.8471  11.8471  12.3930  12.3930  12.3931  12.7740  12.7740  13.0151
    13.0157  13.0157  13.5437  13.5437  13.5439  16.6710  16.6711  16.6711
    24.8801  24.8804  24.8804  26.1044  26.1044  26.1048  30.6689  30.6693
    30.6693  32.9597  35.6022  35.6022  35.6026  38.7561  40.5181  40.5181
    42.1511  42.1511  42.1511  45.9791  47.0116  47.0116  50.8223  50.8223
    54.4865  54.5252  54.5264  54.5265

          k = 0.0473 0.0473 0.0946 (  2616 PWs)   bands (ev):

     7.2570   9.6658  10.2382  10.2385  10.5468  10.5760  10.5762  11.2475
    11.6973  11.6974  11.8833  11.9301  11.9840  12.6226  12.6905  12.7760
    12.7781  13.0080  13.4488  13.4489  13.4810  14.4606  17.9949  17.9950
    22.2749  22.2749  26.1512  26.7611  26.7613  29.8502  29.8505  30.2389
    30.4434  32.1272  36.0785  37.2594  37.2726  38.2139  38.2139  41.7454
    42.8374  43.8281  46.3353  46.3354  47.1846  48.4369  49.5253  49.5254
    50.0023  52.3481  52.3814  54.8103

          k = 0.0473 0.0473-0.1419 (  2596 PWs)   bands (ev):

     8.6092   8.6281  10.6121  10.6135  10.6768  10.6771  10.8956  10.9244
    11.3140  11.3141  11.7774  11.8096  12.2445  12.2555  12.6127  12.6132
    13.1630  13.1856  13.2738  13.2787  13.3944  13.3945  19.1396  19.1396
    20.7159  20.7160  27.7371  27.7416  27.9498  27.9659  28.4073  28.4140
    34.3664  34.4002  34.8809  34.9459  37.4626  37.5306  41.6080  41.6080
    44.0543  44.0894  44.7341  44.7344  48.8116  48.8621  50.2182  50.2359
    51.4393  51.4396  52.9807  52.9913

          k = 0.0473 0.0946 0.0946 (  2613 PWs)   bands (ev):

     8.0890   9.9781   9.9784  10.2611  10.8588  10.9015  10.9020  11.2917
    11.4980  11.4983  11.6289  11.8480  11.9695  12.4356  12.4360  12.4527
    12.7478  13.2878  13.3525  13.3696  13.3715  15.4603  15.4604  18.2542
    20.3728  23.4550  23.4550  27.4482  27.5767  30.6437  30.6439  31.5789
    31.5794  33.4734  34.7089  36.3565  38.7459  38.7463  39.6113  42.3602
    43.1183  44.1743  45.8094  45.8095  48.4878  48.4883  49.7491  49.9107
    50.2275  50.8620  51.5907  52.2446

          k = 0.0473 0.0946-0.1419 (  2598 PWs)   bands (ev):

     9.1598   9.1717  10.1938  10.1973  11.0661  11.0672  11.1970  11.2202
    11.5012  11.5109  11.6137  11.6348  12.1111  12.1192  12.3188  12.3239
    13.0323  13.0413  13.2531  13.2624  13.9349  13.9383  16.8166  16.8350
    21.3769  21.3915  25.1922  25.2030  28.9392  28.9469  32.5179  32.5228
    32.7133  32.7201  36.3139  36.3903  39.5532  39.5705  39.8411  39.8541
    44.5551  44.5617  45.0254  45.0608  47.0321  47.0506  49.8440  49.8742
    51.1001  51.1183  53.1371  53.1657

          k = 0.0473-0.1419-0.1419 (  2588 PWs)   bands (ev):

     9.7273   9.7328   9.7328   9.7373  11.4376  11.4454  11.4454  11.4524
    11.5176  11.5329  11.5329  11.5488  12.0800  12.0878  12.0878  12.0957
    13.0051  13.0192  13.0192  13.0335  14.9845  14.9962  14.9962  15.0080
    22.9924  23.0039  23.0039  23.0154  30.4662  30.4684  30.4684  30.4711
    37.5516  37.5723  37.5723  37.5982  37.7771  37.8082  37.8082  37.8312
    46.0260  46.0260  46.0302  46.0339  46.0618  46.0930  46.0930  46.1129
    54.0016  54.0195  54.0196  54.0442

          k = 0.0946 0.0946 0.0946 (  2608 PWs)   bands (ev):

     8.6327   9.8165   9.8170   9.8170  11.2524  11.2530  11.2530  11.7523
    11.8037  11.8037  11.8137  11.8226  11.8226  12.0909  12.0909  12.0914
    13.1392  13.1392  13.4939  13.4939  13.4941  15.8439  15.8441  15.8441
    20.9743  20.9743  20.9744  24.6861  31.9917  31.9917  31.9921  34.6848
    34.6851  34.6851  36.7184  36.7184  36.7190  37.3227  39.3288  39.3288
    43.8079  43.8079  47.0933  47.4187  47.4187  47.4204  47.4659  47.4662
    47.4662  51.6982  51.6990  51.6990

          k = 0.0946 0.0946-0.1419 (  2606 PWs)   bands (ev):

     9.2558   9.2592   9.7497   9.7500  11.3682  11.3685  11.6375  11.6552
    11.8551  11.8576  11.9695  11.9742  11.9870  12.0045  12.0911  12.0917
    13.4152  13.4171  13.4240  13.4255  13.8340  13.8354  16.1347  16.1348
    19.9442  19.9443  22.5145  22.5256  32.9195  32.9196  34.0586  34.0592
    35.8358  35.8672  36.6518  36.6700  38.3528  38.4068  38.8755  38.8757
    44.0028  44.0031  44.2647  44.2911  45.3590  45.3648  47.8925  47.8925
    48.8840  48.8956  52.2398  52.2416

          k = 0.0946-0.1419-0.1419 (  2608 PWs)   bands (ev):

     9.4336   9.4343   9.4343   9.4343  11.6017  11.6066  11.6066  11.6109
    11.7860  11.7908  11.7908  11.7960  12.5210  12.5309  12.5309  12.5410
    13.3389  13.3466  13.3466  13.3544  14.6262  14.6395  14.6395  14.6528
    20.6464  20.6557  20.6557  20.6650  34.6423  34.6454  34.6455  34.6489
    37.6579  37.6719  37.6719  37.6868  38.3183  38.3341  38.3341  38.3472
    43.4386  43.4503  43.4503  43.4614  44.5165  44.5191  44.5192  44.5213
    49.6868  49.6918  49.6918  49.6980

          k =-0.1419-0.1419-0.1419 (  2608 PWs)   bands (ev):

     9.3209   9.3215   9.3215   9.3215  11.6817  11.6817  11.6817  11.6819
    11.6819  11.6825  11.6825  11.6825  13.4696  13.4696  13.4696  13.4706
    13.4706  13.4707  13.4707  13.4707  14.0048  14.0056  14.0056  14.0056
    19.7738  19.7738  19.7738  19.7740  36.4961  36.4963  36.4963  36.4963
    38.9594  38.9594  38.9596  38.9596  38.9596  38.9605  38.9605  38.9605
    42.1754  42.1754  42.1756  42.1756  42.1756  42.1760  42.1760  42.1760
    48.0450  48.0450  48.0450  48.0453

          k =-0.0473 0.0000 0.0473 (  2610 PWs)   bands (ev):

     5.9439   9.7074   9.7075   9.8334  10.1563  10.1568  10.1702  11.4846
    11.8114  11.8280  12.6326  12.6667  12.6891  12.7014  12.8588  13.2431
    13.3640  13.3640  13.4308  13.4311  13.4909  16.0554  16.0554  18.4343
    23.4481  24.6342  25.7735  25.7738  27.8189  27.8189  28.4464  28.4471
    30.1618  35.4703  35.5990  36.4721  36.4725  36.7720  39.4614  39.4621
    40.7143  41.9445  42.9235  44.6224  45.6798  49.0062  49.8070  52.2830
    53.0105  54.6581  54.6592  55.6128

          k =-0.0473 0.0000 0.0946 (  2629 PWs)   bands (ev):

     6.9542   9.5094  10.1800  10.2278  10.4312  10.4836  10.5016  11.2115
    11.7069  11.8430  11.9546  12.0679  12.0954  12.5171  12.9282  12.9942
    13.0174  13.0346  13.1833  13.4266  13.4345  14.1032  17.6424  20.1896
    21.6670  24.1309  25.0542  26.0846  26.8876  29.1158  29.4124  29.4655
    30.4853  33.2003  33.9303  37.1244  38.0545  39.8310  40.0104  40.0861
    40.5348  43.3645  44.2793  46.3627  47.1622  47.9208  49.2227  50.6747
    52.2582  52.6004  54.0633  55.5549

          k =-0.0946 0.0000 0.0946 (  2614 PWs)   bands (ev):

     7.8714  10.0872  10.0874  10.4490  10.6916  10.6929  10.7103  11.1442
    11.3845  11.3846  11.5356  11.8463  12.1950  12.4332  12.7182  12.8679
    12.8685  13.0037  13.0041  13.1693  13.3797  15.3278  15.3279  18.9092
    21.6946  24.6819  26.3094  26.3095  27.4156  27.4162  30.4794  31.1094
    31.1156  31.2275  33.0656  36.2831  40.9617  41.2937  41.2940  42.4382
    42.8505  43.1211  43.1211  46.4563  46.6545  47.7836  47.7845  50.9478
    51.5032  51.5322  52.4683  54.6548

          k = 0.0473-0.0473 0.0473 (  2629 PWs)   bands (ev):

     6.2858   9.8647   9.8648   9.8648  10.2680  10.2688  10.2688  11.4509
    11.8471  11.8471  12.3930  12.3930  12.3931  12.7740  12.7740  13.0151
    13.0157  13.0157  13.5437  13.5437  13.5439  16.6710  16.6711  16.6711
    24.8801  24.8804  24.8804  26.1044  26.1044  26.1048  30.6689  30.6693
    30.6693  32.9597  35.6022  35.6022  35.6027  38.7561  40.5181  40.5181
    42.1510  42.1511  42.1511  45.9791  47.0116  47.0116  50.8223  50.8223
    54.4865  54.5253  54.5262  54.5263

          k = 0.0473-0.0473 0.0946 (  2616 PWs)   bands (ev):

     7.2570   9.6658  10.2382  10.2385  10.5468  10.5760  10.5762  11.2475
    11.6973  11.6974  11.8833  11.9301  11.9840  12.6226  12.6905  12.7760
    12.7781  13.0080  13.4488  13.4489  13.4810  14.4606  17.9949  17.9949
    22.2749  22.2749  26.1512  26.7612  26.7613  29.8502  29.8505  30.2389
    30.4434  32.1272  36.0785  37.2594  37.2726  38.2138  38.2139  41.7454
    42.8374  43.8281  46.3353  46.3354  47.1846  48.4369  49.5253  49.5254
    50.0023  52.3481  52.3814  54.8107

          k =-0.0946 0.0473 0.0473 (  2616 PWs)   bands (ev):

     7.2570   9.6658  10.2382  10.2385  10.5468  10.5760  10.5762  11.2475
    11.6973  11.6974  11.8833  11.9301  11.9840  12.6226  12.6905  12.7760
    12.7781  13.0080  13.4488  13.4489  13.4810  14.4606  17.9949  17.9950
    22.2749  22.2749  26.1512  26.7611  26.7613  29.8502  29.8505  30.2389
    30.4434  32.1272  36.0785  37.2594  37.2726  38.2139  38.2139  41.7454
    42.8374  43.8281  46.3353  46.3354  47.1846  48.4369  49.5253  49.5254
    50.0023  52.3481  52.3814  54.8103

          k = 0.0473-0.0473-0.1419 (  2596 PWs)   bands (ev):

     8.6092   8.6281  10.6121  10.6135  10.6768  10.6771  10.8956  10.9244
    11.3140  11.3141  11.7774  11.8096  12.2445  12.2555  12.6127  12.6132
    13.1630  13.1856  13.2738  13.2787  13.3944  13.3945  19.1396  19.1396
    20.7159  20.7160  27.7371  27.7416  27.9498  27.9660  28.4073  28.4140
    34.3664  34.4002  34.8809  34.9459  37.4626  37.5306  41.6079  41.6081
    44.0543  44.0894  44.7341  44.7344  48.8116  48.8621  50.2182  50.2359
    51.4393  51.4396  52.9810  52.9913

          k = 0.0946-0.0473 0.0946 (  2613 PWs)   bands (ev):

     8.0890   9.9781   9.9784  10.2611  10.8588  10.9015  10.9020  11.2917
    11.4980  11.4983  11.6289  11.8480  11.9695  12.4356  12.4360  12.4527
    12.7478  13.2878  13.3525  13.3696  13.3715  15.4603  15.4604  18.2542
    20.3728  23.4550  23.4550  27.4482  27.5767  30.6437  30.6439  31.5789
    31.5794  33.4734  34.7089  36.3565  38.7459  38.7463  39.6113  42.3602
    43.1183  44.1743  45.8094  45.8095  48.4878  48.4883  49.7491  49.9107
    50.2275  50.8620  51.5907  52.2442

          k =-0.0946 0.0473 0.0946 (  2613 PWs)   bands (ev):

     8.0890   9.9781   9.9784  10.2611  10.8588  10.9015  10.9020  11.2917
    11.4980  11.4983  11.6289  11.8480  11.9695  12.4356  12.4360  12.4527
    12.7478  13.2878  13.3525  13.3696  13.3715  15.4603  15.4603  18.2542
    20.3728  23.4550  23.4550  27.4482  27.5767  30.6437  30.6439  31.5790
    31.5794  33.4734  34.7089  36.3565  38.7459  38.7463  39.6113  42.3602
    43.1183  44.1743  45.8094  45.8095  48.4878  48.4883  49.7491  49.9107
    50.2275  50.8620  51.5907  52.2442

          k = 0.0946-0.0473-0.1419 (  2598 PWs)   bands (ev):

     9.1598   9.1717  10.1938  10.1973  11.0661  11.0672  11.1970  11.2202
    11.5012  11.5109  11.6137  11.6348  12.1111  12.1192  12.3188  12.3239
    13.0323  13.0413  13.2531  13.2624  13.9349  13.9383  16.8166  16.8350
    21.3769  21.3915  25.1922  25.2030  28.9392  28.9469  32.5179  32.5228
    32.7133  32.7201  36.3139  36.3903  39.5532  39.5705  39.8411  39.8541
    44.5551  44.5617  45.0254  45.0608  47.0321  47.0506  49.8440  49.8743
    51.1001  51.1183  53.1373  53.1662

          k = 0.0946-0.0946 0.0946 (  2608 PWs)   bands (ev):

     8.6327   9.8165   9.8170   9.8171  11.2524  11.2530  11.2530  11.7523
    11.8037  11.8037  11.8137  11.8226  11.8226  12.0909  12.0909  12.0914
    13.1392  13.1392  13.4939  13.4939  13.4941  15.8439  15.8441  15.8441
    20.9743  20.9743  20.9744  24.6861  31.9917  31.9917  31.9921  34.6848
    34.6851  34.6851  36.7184  36.7184  36.7190  37.3227  39.3288  39.3288
    43.8079  43.8079  47.0933  47.4186  47.4187  47.4204  47.4659  47.4662
    47.4662  51.6982  51.6989  51.6991

          k = 0.0946-0.0946-0.1419 (  2606 PWs)   bands (ev):

     9.2558   9.2592   9.7496   9.7500  11.3682  11.3685  11.6375  11.6552
    11.8551  11.8576  11.9695  11.9742  11.9870  12.0045  12.0910  12.0917
    13.4152  13.4171  13.4240  13.4255  13.8340  13.8354  16.1347  16.1348
    19.9443  19.9443  22.5145  22.5256  32.9195  32.9196  34.0586  34.0592
    35.8358  35.8672  36.6518  36.6700  38.3528  38.4068  38.8755  38.8757
    44.0028  44.0031  44.2647  44.2911  45.3590  45.3648  47.8925  47.8925
    48.8840  48.8956  52.2398  52.2416

 ------ SPIN DOWN ----------


          k = 0.0000 0.0000 0.0000 (  2553 PWs)   bands (ev):

     5.1725   9.9641   9.9641   9.9641  10.6611  10.6619  10.6619  12.5573
    12.5573  12.5573  13.6081  13.6081  14.3422  14.3422  14.3422  14.6213
    14.6213  14.6213  14.6217  14.6217  14.6217  16.6615  16.6618  16.6618
    23.6460  23.6460  23.6460  29.0762  29.0763  29.0763  29.0766  29.0766
    29.0766  34.2633  34.2633  34.2636  37.4879  37.4881  37.4881  37.8216
    41.8474  41.8474  41.8474  45.4539  45.4539  45.4539  47.4056  54.5233
    54.5233  54.5233  57.7732  58.5863

          k = 0.0000 0.0000 0.0473 (  2605 PWs)   bands (ev):

     5.5341   9.9356  10.1548  10.1548  10.7782  10.7819  10.7824  12.4190
    12.6612  12.6612  13.4831  13.6549  13.8005  13.8010  14.1794  14.1794
    14.2916  14.4339  14.4339  14.6220  14.6220  15.2179  17.7820  17.7823
    23.7296  23.7296  25.7841  27.4164  27.4168  27.9899  27.9900  29.6442
    29.6442  34.3691  36.3419  36.3422  37.2350  37.6160  39.4104  39.4105
    39.6919  39.6919  40.2866  46.8291  47.4446  47.4446  48.4825  50.8545
    55.6060  55.6060  55.9012  55.9018

          k = 0.0000 0.0000 0.0946 (  2605 PWs)   bands (ev):

     6.5757   9.4861  10.6076  10.6076  11.1038  11.1496  11.1504  12.0505
    12.6783  12.6792  12.9634  12.9634  13.1698  13.3834  13.7773  13.7774
    13.7873  13.9716  13.9716  14.1544  14.6226  14.6226  19.7914  19.7916
    24.0129  24.0130  24.7386  24.7387  26.2866  26.2866  29.9584  31.2334
    31.2334  34.7013  36.1827  36.5223  36.5223  37.7402  38.1617  40.2832
    40.2835  43.5248  43.5249  43.6136  50.1935  50.3124  50.3124  50.3162
    50.3163  54.2233  55.5006  55.5007

          k = 0.0000 0.0000-0.1419 (  2594 PWs)   bands (ev):

     8.0945   8.1179  10.8940  10.8940  11.5479  11.5820  11.7643  11.7650
    11.7968  11.7974  12.8859  12.9346  13.4134  13.4134  13.4383  13.4383
    13.5202  13.5202  13.9602  13.9785  14.6229  14.6229  22.1145  22.1147
    22.1720  22.1721  24.3585  24.3585  25.3810  25.3811  33.5866  33.5866
    33.6265  33.6265  34.3450  34.4295  35.2864  35.3088  39.6933  39.8262
    44.9413  44.9416  45.0574  45.0577  46.9758  46.9759  51.7533  51.7533
    53.3561  53.3561  53.4613  53.4613

          k = 0.0000 0.0473 0.0473 (  2610 PWs)   bands (ev):

     5.8884  10.1429  10.1430  10.3334  10.8785  10.8892  10.8899  12.3473
    12.7104  12.7145  13.4074  13.4312  13.4471  13.4740  13.6568  14.0448
    14.1676  14.1676  14.4326  14.4327  14.5021  16.3698  16.3699  18.5966
    23.7094  24.7611  25.9618  25.9621  27.9002  27.9002  28.4865  28.4872
    30.1716  35.5716  35.5916  36.5404  36.5409  36.7903  39.5775  39.5781
    40.6300  42.0295  42.8946  44.5611  45.7387  49.1612  49.7287  52.4581
    52.9594  54.6142  54.6154  55.5499

          k = 0.0000 0.0473 0.0946 (  2629 PWs)   bands (ev):

     6.9067   9.7333  10.6506  10.7697  11.1536  11.1882  11.2274  12.0428
    12.4071  12.5734  12.7562  12.8081  12.9792  13.2922  13.7041  13.7859
    13.8546  13.9402  13.9699  14.4291  14.4400  14.8197  17.9813  20.3911
    21.8642  24.3596  25.2040  26.2177  27.0131  29.2225  29.4740  29.5332
    30.5829  33.2770  33.9730  37.1643  38.0910  39.7807  39.9551  40.2032
    40.5323  43.4454  44.4845  46.4264  47.0808  47.9003  49.2034  50.5975
    52.2103  52.5055  54.2675  55.7839

          k = 0.0000 0.0473-0.1419 (  2630 PWs)   bands (ev):

     8.3857   8.4080  11.0319  11.0348  11.5832  11.6135  11.6139  11.6414
    11.7820  11.8137  12.6190  12.6569  13.4165  13.4410  13.4961  13.5023
    13.5104  13.5132  14.1894  14.1905  14.4259  14.4313  19.7554  19.7846
    22.6210  22.6721  25.0944  25.1345  27.9209  27.9348  31.0899  31.1059
    31.5596  31.5707  35.2631  35.3584  38.2678  38.2736  41.6275  41.7100
    42.4781  42.5101  45.2155  45.3252  49.3646  49.4603  49.6092  49.6549
    51.8387  51.8751  52.6417  52.6713

          k = 0.0000 0.0946 0.0946 (  2614 PWs)   bands (ev):

     7.8474  10.3633  10.3635  11.1215  11.2036  11.4361  11.4376  11.9474
    12.0874  12.0874  12.2569  12.6475  13.1194  13.1911  13.4829  13.6167
    13.6173  13.9733  13.9736  14.1592  14.2323  15.9385  15.9386  19.2169
    21.9115  24.8805  26.4741  26.4741  27.5160  27.5166  30.6085  31.1966
    31.2037  31.2956  33.1171  36.3172  40.8948  41.2736  41.2740  42.4751
    42.7306  43.1628  43.1629  46.5742  46.6818  47.8244  47.8253  51.0025
    51.4070  51.4554  52.6578  54.5629

          k = 0.0000 0.0946-0.1419 (  2608 PWs)   bands (ev):

     9.1790   9.1982  10.9648  10.9847  11.5983  11.6000  11.6983  11.7284
    11.8104  11.8404  12.3248  12.3487  13.2810  13.2817  13.3502  13.3537
    13.4667  13.4924  14.0073  14.0231  14.8399  14.8447  17.2966  17.3186
    23.9772  24.0151  25.8831  25.9159  28.3187  28.3358  29.1273  29.1318
    32.4822  32.4915  36.2132  36.3060  39.7688  39.7859  42.3997  42.4166
    42.6003  42.6081  46.0092  46.0983  47.2630  47.3180  49.6815  49.7312
    51.0807  51.1607  52.7879  52.8083

          k = 0.0000-0.1419-0.1419 (  2624 PWs)   bands (ev):

    10.1783  10.1952  10.1952  10.2117  11.7745  11.8038  11.8038  11.8325
    12.0328  12.0419  12.0419  12.0508  13.1392  13.1420  13.1420  13.1455
    13.6328  13.6565  13.6565  13.6802  15.7596  15.7687  15.7687  15.7776
    25.9113  25.9369  25.9369  25.9619  27.1968  27.2165  27.2165  27.2372
    37.3454  37.3701  37.3701  37.3969  37.8871  37.9186  37.9187  37.9450
    46.4528  46.4528  46.4529  46.4559  48.4577  48.5076  48.5076  48.5573
    51.1283  51.1343  51.1344  51.1395

          k = 0.0473 0.0473 0.0473 (  2629 PWs)   bands (ev):

     6.2331  10.3276  10.3277  10.3277  10.9773  10.9783  10.9783  12.2937
    12.7344  12.7344  13.1131  13.1131  13.1131  13.5711  13.5711  13.8567
    13.8572  13.8572  14.5016  14.5016  14.5020  17.0123  17.0126  17.0126
    25.0098  25.0100  25.0100  26.2777  26.2777  26.2780  30.6895  30.6900
    30.6900  33.0255  35.6956  35.6956  35.6959  38.5974  40.5715  40.5715
    42.2327  42.2328  42.2328  45.8876  46.9652  46.9652  50.9884  50.9884
    54.4764  54.4775  54.4775  54.8090

          k = 0.0473 0.0473 0.0946 (  2616 PWs)   bands (ev):

     7.2200   9.9301  10.7788  10.7790  11.2118  11.2127  11.2686  12.0525
    12.4088  12.4088  12.5683  12.7672  12.8538  13.4788  13.5097  13.5735
    13.5766  13.8409  14.3919  14.4215  14.4221  15.0977  18.3219  18.3221
    22.4838  22.4839  26.2938  26.9094  26.9096  29.9240  29.9243  30.3516
    30.5302  32.1725  36.1514  37.1766  37.3361  38.2427  38.2427  41.7554
    42.9151  43.8418  46.3778  46.3779  47.2243  48.3809  49.5103  49.5106
    50.0037  52.2722  52.3403  54.9239

          k = 0.0473 0.0473-0.1419 (  2596 PWs)   bands (ev):

     8.6411   8.6617  11.2000  11.2001  11.2599  11.2611  11.6543  11.6856
    12.0369  12.0373  12.5354  12.5713  13.1059  13.1149  13.3871  13.3875
    13.9766  14.0009  14.1465  14.1491  14.3754  14.3755  19.3956  19.3957
    21.0199  21.0199  27.8505  27.8547  28.0902  28.1054  28.5217  28.5292
    34.4351  34.4683  34.8512  34.9184  37.5397  37.6082  41.5879  41.5880
    44.1366  44.1749  44.7216  44.7220  48.7284  48.7791  50.1713  50.1892
    51.4710  51.4712  53.1387  53.1558

          k = 0.0473 0.0946 0.0946 (  2613 PWs)   bands (ev):

     8.0988  10.3743  10.3746  10.8870  11.3753  11.5122  11.5130  12.0278
    12.2276  12.2280  12.3499  12.6585  12.8037  13.2441  13.2457  13.2496
    13.6012  14.1470  14.2905  14.2925  14.3114  16.0182  16.0184  18.5277
    20.7172  23.6705  23.6705  27.6046  27.7076  30.7059  30.7061  31.6712
    31.6717  33.5271  34.7351  36.3800  38.7592  38.7595  39.5301  42.4757
    43.1075  44.1186  45.8023  45.8024  48.5383  48.5388  49.6798  49.8932
    50.2032  50.9322  51.6473  52.1682

          k = 0.0473 0.0946-0.1419 (  2598 PWs)   bands (ev):

     9.3061   9.3217  10.7330  10.7399  11.6293  11.6326  11.8506  11.8772
    12.2029  12.2151  12.3822  12.4060  12.9264  12.9325  13.1041  13.1084
    13.9054  13.9185  14.1979  14.2084  14.7363  14.7410  17.2296  17.2472
    21.6769  21.6901  25.3915  25.4006  29.0378  29.0476  32.5755  32.5781
    32.7802  32.7891  36.3264  36.4020  39.5365  39.5524  39.8615  39.8756
    44.5412  44.5468  45.0148  45.0524  47.0099  47.0311  49.8787  49.9088
    51.0380  51.0555  53.2151  53.2474

          k = 0.0473-0.1419-0.1419 (  2588 PWs)   bands (ev):

    10.0817  10.0915  10.0915  10.1006  12.0137  12.0269  12.0269  12.0397
    12.2282  12.2438  12.2438  12.2594  12.8685  12.8753  12.8753  12.8824
    13.9246  13.9408  13.9408  13.9573  15.6381  15.6480  15.6480  15.6576
    23.2504  23.2602  23.2602  23.2699  30.5460  30.5503  30.5503  30.5552
    37.6242  37.6401  37.6401  37.6695  37.7273  37.7607  37.7607  37.7779
    45.9589  45.9589  45.9606  45.9628  46.0845  46.1144  46.1144  46.1394
    54.0622  54.0810  54.0812  54.1082

          k = 0.0946 0.0946 0.0946 (  2608 PWs)   bands (ev):

     8.7637  10.3314  10.3321  10.3321  11.8212  11.8217  11.8217  12.2852
    12.4990  12.4990  12.5009  12.6266  12.6266  12.8921  12.8921  12.8926
    14.0302  14.0302  14.4312  14.4312  14.4317  16.2723  16.2726  16.2726
    21.3125  21.3125  21.3126  24.9100  32.0379  32.0379  32.0383  34.7453
    34.7458  34.7458  36.7288  36.7288  36.7294  37.1476  39.4147  39.4147
    43.8163  43.8163  47.1068  47.3641  47.3641  47.3661  47.4665  47.4668
    47.4668  51.7276  51.7282  51.7282

          k = 0.0946 0.0946-0.1419 (  2606 PWs)   bands (ev):

     9.5870   9.5946  10.2938  10.2942  12.0104  12.0108  12.3064  12.3239
    12.5449  12.5670  12.6572  12.6591  12.6999  12.7000  12.7630  12.7631
    14.3339  14.3367  14.3620  14.3631  14.5558  14.5596  16.4645  16.4646
    20.3832  20.3833  22.8036  22.8131  32.9263  32.9264  34.1443  34.1450
    35.7238  35.7571  36.7242  36.7412  38.4331  38.4866  38.8478  38.8479
    44.0282  44.0285  44.2387  44.2654  45.3659  45.3732  47.8499  47.8499
    48.9358  48.9471  52.3404  52.3423

          k = 0.0946-0.1419-0.1419 (  2608 PWs)   bands (ev):

     9.9068   9.9094   9.9094   9.9113  12.3453  12.3499  12.3499  12.3542
    12.5722  12.5767  12.5767  12.5817  12.9686  12.9804  12.9805  12.9923
    14.2658  14.2745  14.2745  14.2834  15.1611  15.1720  15.1720  15.1825
    21.0409  21.0487  21.0488  21.0566  34.6157  34.6213  34.6214  34.6273
    37.6230  37.6356  37.6356  37.6491  38.3881  38.4031  38.4031  38.4155
    43.4680  43.4811  43.4811  43.4937  44.5064  44.5098  44.5099  44.5128
    49.7732  49.7782  49.7782  49.7846

          k =-0.1419-0.1419-0.1419 (  2608 PWs)   bands (ev):

     9.8275   9.8283   9.8283   9.8283  12.4647  12.4647  12.4647  12.4651
    12.4651  12.4654  12.4654  12.4654  13.9018  13.9018  13.9018  13.9028
    14.4037  14.4037  14.4041  14.4041  14.4041  14.4045  14.4045  14.4045
    20.2588  20.2588  20.2588  20.2588  36.3076  36.3078  36.3078  36.3078
    39.0297  39.0297  39.0298  39.0298  39.0298  39.0308  39.0308  39.0308
    42.2044  42.2044  42.2045  42.2045  42.2045  42.2050  42.2050  42.2050
    48.1557  48.1557  48.1557  48.1561

          k =-0.0473 0.0000 0.0473 (  2610 PWs)   bands (ev):

     5.8884  10.1429  10.1430  10.3334  10.8785  10.8892  10.8899  12.3473
    12.7104  12.7145  13.4074  13.4312  13.4471  13.4740  13.6568  14.0448
    14.1676  14.1676  14.4326  14.4327  14.5021  16.3698  16.3699  18.5966
    23.7094  24.7611  25.9618  25.9622  27.9001  27.9003  28.4865  28.4872
    30.1716  35.5716  35.5916  36.5404  36.5408  36.7903  39.5774  39.5782
    40.6300  42.0295  42.8946  44.5611  45.7387  49.1612  49.7287  52.4581
    52.9594  54.6142  54.6154  55.5499

          k =-0.0473 0.0000 0.0946 (  2629 PWs)   bands (ev):

     6.9067   9.7333  10.6506  10.7697  11.1536  11.1882  11.2274  12.0428
    12.4071  12.5734  12.7562  12.8081  12.9792  13.2922  13.7041  13.7859
    13.8546  13.9402  13.9699  14.4291  14.4400  14.8197  17.9813  20.3911
    21.8642  24.3596  25.2040  26.2177  27.0131  29.2225  29.4740  29.5332
    30.5829  33.2770  33.9730  37.1643  38.0910  39.7807  39.9551  40.2032
    40.5323  43.4454  44.4845  46.4264  47.0808  47.9003  49.2034  50.5975
    52.2103  52.5055  54.2675  55.7838

          k =-0.0946 0.0000 0.0946 (  2614 PWs)   bands (ev):

     7.8474  10.3633  10.3635  11.1215  11.2036  11.4360  11.4376  11.9474
    12.0874  12.0875  12.2569  12.6475  13.1194  13.1911  13.4829  13.6167
    13.6173  13.9733  13.9736  14.1592  14.2323  15.9385  15.9386  19.2169
    21.9115  24.8805  26.4740  26.4742  27.5159  27.5167  30.6085  31.1967
    31.2037  31.2956  33.1171  36.3172  40.8948  41.2737  41.2739  42.4751
    42.7306  43.1628  43.1629  46.5742  46.6818  47.8244  47.8253  51.0025
    51.4070  51.4554  52.6578  54.5599

          k = 0.0473-0.0473 0.0473 (  2629 PWs)   bands (ev):

     6.2331  10.3276  10.3277  10.3277  10.9773  10.9783  10.9783  12.2937
    12.7344  12.7344  13.1131  13.1131  13.1131  13.5711  13.5711  13.8567
    13.8572  13.8572  14.5016  14.5016  14.5020  17.0123  17.0126  17.0126
    25.0098  25.0100  25.0100  26.2777  26.2777  26.2781  30.6896  30.6900
    30.6900  33.0255  35.6955  35.6956  35.6960  38.5974  40.5715  40.5715
    42.2327  42.2328  42.2328  45.8876  46.9652  46.9652  50.9884  50.9884
    54.4764  54.4775  54.4775  54.8089

          k = 0.0473-0.0473 0.0946 (  2616 PWs)   bands (ev):

     7.2200   9.9301  10.7788  10.7790  11.2119  11.2127  11.2686  12.0525
    12.4088  12.4088  12.5683  12.7672  12.8538  13.4788  13.5097  13.5735
    13.5766  13.8409  14.3919  14.4214  14.4221  15.0977  18.3219  18.3221
    22.4838  22.4839  26.2938  26.9095  26.9096  29.9240  29.9243  30.3516
    30.5302  32.1725  36.1514  37.1766  37.3361  38.2427  38.2427  41.7554
    42.9151  43.8418  46.3778  46.3779  47.2243  48.3809  49.5103  49.5106
    50.0037  52.2722  52.3403  54.9239

          k =-0.0946 0.0473 0.0473 (  2616 PWs)   bands (ev):

     7.2200   9.9301  10.7788  10.7790  11.2119  11.2127  11.2686  12.0525
    12.4088  12.4088  12.5683  12.7672  12.8538  13.4788  13.5097  13.5735
    13.5766  13.8409  14.3919  14.4215  14.4221  15.0977  18.3219  18.3221
    22.4838  22.4839  26.2938  26.9094  26.9096  29.9240  29.9243  30.3516
    30.5302  32.1725  36.1514  37.1766  37.3361  38.2427  38.2427  41.7554
    42.9151  43.8418  46.3778  46.3779  47.2243  48.3809  49.5103  49.5106
    50.0037  52.2722  52.3403  54.9239

          k = 0.0473-0.0473-0.1419 (  2596 PWs)   bands (ev):

     8.6411   8.6617  11.2000  11.2001  11.2599  11.2611  11.6543  11.6856
    12.0369  12.0373  12.5354  12.5713  13.1059  13.1149  13.3871  13.3876
    13.9766  14.0009  14.1465  14.1491  14.3754  14.3755  19.3956  19.3957
    21.0199  21.0199  27.8506  27.8547  28.0902  28.1055  28.5218  28.5291
    34.4351  34.4683  34.8512  34.9184  37.5397  37.6082  41.5878  41.5880
    44.1366  44.1749  44.7216  44.7220  48.7284  48.7791  50.1713  50.1892
    51.4710  51.4713  53.1387  53.1558

          k = 0.0946-0.0473 0.0946 (  2613 PWs)   bands (ev):

     8.0988  10.3743  10.3746  10.8870  11.3753  11.5122  11.5130  12.0278
    12.2276  12.2280  12.3499  12.6585  12.8037  13.2441  13.2457  13.2496
    13.6012  14.1470  14.2905  14.2925  14.3114  16.0182  16.0184  18.5277
    20.7172  23.6705  23.6705  27.6046  27.7076  30.7059  30.7061  31.6712
    31.6717  33.5271  34.7351  36.3800  38.7592  38.7595  39.5301  42.4757
    43.1075  44.1186  45.8023  45.8024  48.5383  48.5388  49.6798  49.8932
    50.2032  50.9322  51.6473  52.1689

          k =-0.0946 0.0473 0.0946 (  2613 PWs)   bands (ev):

     8.0988  10.3743  10.3746  10.8870  11.3753  11.5122  11.5130  12.0278
    12.2276  12.2280  12.3499  12.6585  12.8037  13.2441  13.2457  13.2496
    13.6012  14.1470  14.2905  14.2925  14.3114  16.0182  16.0184  18.5277
    20.7172  23.6705  23.6705  27.6046  27.7076  30.7059  30.7061  31.6712
    31.6716  33.5271  34.7351  36.3800  38.7592  38.7595  39.5301  42.4757
    43.1075  44.1186  45.8023  45.8023  48.5383  48.5388  49.6798  49.8932
    50.2032  50.9322  51.6473  52.1691

          k = 0.0946-0.0473-0.1419 (  2598 PWs)   bands (ev):

     9.3061   9.3217  10.7330  10.7399  11.6293  11.6326  11.8506  11.8772
    12.2029  12.2151  12.3822  12.4060  12.9264  12.9325  13.1041  13.1084
    13.9054  13.9185  14.1979  14.2084  14.7363  14.7410  17.2296  17.2472
    21.6769  21.6901  25.3915  25.4006  29.0378  29.0476  32.5755  32.5781
    32.7802  32.7891  36.3264  36.4020  39.5365  39.5524  39.8615  39.8756
    44.5412  44.5468  45.0148  45.0524  47.0099  47.0311  49.8787  49.9088
    51.0380  51.0555  53.2148  53.2472

          k = 0.0946-0.0946 0.0946 (  2608 PWs)   bands (ev):

     8.7637  10.3314  10.3321  10.3321  11.8212  11.8217  11.8217  12.2852
    12.4990  12.4990  12.5009  12.6266  12.6266  12.8920  12.8921  12.8926
    14.0302  14.0302  14.4312  14.4312  14.4317  16.2723  16.2726  16.2726
    21.3125  21.3125  21.3125  24.9100  32.0379  32.0379  32.0383  34.7454
    34.7458  34.7458  36.7288  36.7288  36.7294  37.1476  39.4147  39.4147
    43.8163  43.8163  47.1068  47.3640  47.3641  47.3661  47.4665  47.4668
    47.4668  51.7276  51.7282  51.7282

          k = 0.0946-0.0946-0.1419 (  2606 PWs)   bands (ev):

     9.5870   9.5946  10.2937  10.2942  12.0104  12.0107  12.3064  12.3239
    12.5449  12.5670  12.6572  12.6591  12.7000  12.7000  12.7630  12.7631
    14.3339  14.3367  14.3619  14.3631  14.5558  14.5596  16.4645  16.4646
    20.3833  20.3833  22.8036  22.8131  32.9263  32.9265  34.1444  34.1449
    35.7238  35.7571  36.7242  36.7412  38.4331  38.4866  38.8477  38.8480
    44.0282  44.0285  44.2387  44.2654  45.3659  45.3732  47.8499  47.8500
    48.9358  48.9471  52.3404  52.3423

     the Fermi energy is    14.1792 ev

!    total energy              =    -343.62963694 Ry
     Harris-Foulkes estimate   =    -343.62963693 Ry
     estimated scf accuracy    <          1.7E-09 Ry

     The total energy is the sum of the following terms:

     one-electron contribution =      -8.70027251 Ry
     hartree contribution      =      61.07893018 Ry
     xc contribution           =    -120.47484592 Ry
     ewald contribution        =    -275.48620515 Ry
     Dispersion Correction     =      -0.04675218 Ry
     smearing contrib. (-TS)   =      -0.00049136 Ry

     total magnetization       =     2.87 Bohr mag/cell
     absolute magnetization    =     3.30 Bohr mag/cell

     convergence has been achieved in  15 iterations

     Forces acting on atoms (Ry/au):

     atom    1 type  1   force =    -0.00230682   -0.00230682    0.00230743
     atom    2 type  1   force =     0.00230620    0.00230620    0.00230620
     atom    3 type  1   force =    -0.00230682    0.00230743   -0.00230682
     atom    4 type  1   force =     0.00230743   -0.00230682   -0.00230682

     Total force =     0.007991     Total SCF correction =     0.000006


     entering subroutine stress ...

          total   stress  (Ry/bohr**3)                   (kbar)     P=  -31.81
  -0.00021625   0.00000000   0.00000000        -31.81      0.00      0.00
   0.00000000  -0.00021625   0.00000000          0.00    -31.81      0.00
   0.00000000   0.00000000  -0.00021625          0.00      0.00    -31.81


     BFGS Geometry Optimization

     number of scf cycles    =   1
     number of bfgs steps    =   0

     enthalpy new            =    -343.6296369358 Ry

     new trust radius        =       0.0185710506 bohr
     new conv_thr            =       0.0000000100 Ry

     new unit-cell volume =    290.24224 a.u.^3 (    43.00946 Ang^3 )

CELL_PARAMETERS (alat=  1.88972590)
   3.503655462   0.000000072   0.000000072
   0.000000072   3.503655462   0.000000072
   0.000000072   0.000000072   3.503655462

ATOMIC_POSITIONS (alat)
Ni1      1.758391323   1.758391323   0.001214513
Ni1      0.001213791   0.001213791   0.001213791
Ni1      1.758391323   0.001214513   1.758391323
Ni1      0.001214513   1.758391323   1.758391323



     Writing output data file Ni-ferromag.save
     NEW-OLD atomic charge density approx. for the potential

     Check: negative/imaginary core charge=   -0.000005    0.000000
     extrapolated charge   39.34420, renormalised to   40.00000

     total cpu time spent up to now is      706.3 secs

     Self-consistent Calculation

     iteration #  1     ecut=    65.00 Ry     beta=0.20
     Davidson diagonalization with overlap
     c_bands:  1 eigenvalues not converged
     c_bands:  1 eigenvalues not converged
     c_bands:  2 eigenvalues not converged
     c_bands:  3 eigenvalues not converged
     c_bands:  2 eigenvalues not converged
     ethr =  1.00E-06,  avg # of iterations =  7.1

     total cpu time spent up to now is      804.1 secs

     total energy              =    -343.54466481 Ry
     Harris-Foulkes estimate   =    -344.35312241 Ry
     estimated scf accuracy    <       0.14031721 Ry

     total magnetization       =     2.55 Bohr mag/cell
     absolute magnetization    =     2.98 Bohr mag/cell

     iteration #  2     ecut=    65.00 Ry     beta=0.20
     Davidson diagonalization with overlap
     ethr =  3.51E-04,  avg # of iterations =  3.3

     total cpu time spent up to now is      847.2 secs

     total energy              =    -343.63310048 Ry
     Harris-Foulkes estimate   =    -343.64342249 Ry
     estimated scf accuracy    <       0.05296757 Ry

     total magnetization       =     2.94 Bohr mag/cell
     absolute magnetization    =     3.35 Bohr mag/cell

     iteration #  3     ecut=    65.00 Ry     beta=0.20
     Davidson diagonalization with overlap
     ethr =  1.32E-04,  avg # of iterations =  1.2

     total cpu time spent up to now is      886.2 secs

     total energy              =    -343.62645360 Ry
     Harris-Foulkes estimate   =    -343.63479202 Ry
     estimated scf accuracy    <       0.01832224 Ry

     total magnetization       =     2.90 Bohr mag/cell
     absolute magnetization    =     3.32 Bohr mag/cell

     iteration #  4     ecut=    65.00 Ry     beta=0.20
     Davidson diagonalization with overlap
     ethr =  4.58E-05,  avg # of iterations =  2.9

     total cpu time spent up to now is      927.8 secs

     total energy              =    -343.63052749 Ry
     Harris-Foulkes estimate   =    -343.63025900 Ry
     estimated scf accuracy    <       0.00015306 Ry

     total magnetization       =     2.84 Bohr mag/cell
     absolute magnetization    =     3.26 Bohr mag/cell

     iteration #  5     ecut=    65.00 Ry     beta=0.20
     Davidson diagonalization with overlap
     ethr =  3.83E-07,  avg # of iterations =  4.1

     total cpu time spent up to now is      980.2 secs

     total energy              =    -343.63067128 Ry
     Harris-Foulkes estimate   =    -343.63071755 Ry
     estimated scf accuracy    <       0.00198669 Ry

     total magnetization       =     2.82 Bohr mag/cell
     absolute magnetization    =     3.25 Bohr mag/cell

     iteration #  6     ecut=    65.00 Ry     beta=0.20
     Davidson diagonalization with overlap
     ethr =  3.83E-07,  avg # of iterations =  1.0

     total cpu time spent up to now is     1019.1 secs

     total energy              =    -343.63019899 Ry
     Harris-Foulkes estimate   =    -343.63067219 Ry
     estimated scf accuracy    <       0.00180068 Ry

     total magnetization       =     2.82 Bohr mag/cell
     absolute magnetization    =     3.25 Bohr mag/cell

     iteration #  7     ecut=    65.00 Ry     beta=0.20
     Davidson diagonalization with overlap
     ethr =  3.83E-07,  avg # of iterations =  2.2

     total cpu time spent up to now is     1060.1 secs

     total energy              =    -343.63027511 Ry
     Harris-Foulkes estimate   =    -343.63030601 Ry
     estimated scf accuracy    <       0.00031233 Ry

     total magnetization       =     2.83 Bohr mag/cell
     absolute magnetization    =     3.25 Bohr mag/cell

     iteration #  8     ecut=    65.00 Ry     beta=0.20
     Davidson diagonalization with overlap
     ethr =  3.83E-07,  avg # of iterations =  1.0

     total cpu time spent up to now is     1098.9 secs

     total energy              =    -343.63024809 Ry
     Harris-Foulkes estimate   =    -343.63027769 Ry
     estimated scf accuracy    <       0.00019593 Ry

     total magnetization       =     2.83 Bohr mag/cell
     absolute magnetization    =     3.25 Bohr mag/cell

     iteration #  9     ecut=    65.00 Ry     beta=0.20
     Davidson diagonalization with overlap
     ethr =  3.83E-07,  avg # of iterations =  1.0

     total cpu time spent up to now is     1137.7 secs

     total energy              =    -343.63023789 Ry
     Harris-Foulkes estimate   =    -343.63025175 Ry
     estimated scf accuracy    <       0.00008922 Ry

     total magnetization       =     2.83 Bohr mag/cell
     absolute magnetization    =     3.25 Bohr mag/cell

     iteration # 10     ecut=    65.00 Ry     beta=0.20
     Davidson diagonalization with overlap
     ethr =  2.23E-07,  avg # of iterations =  1.0

     total cpu time spent up to now is     1176.6 secs

     total energy              =    -343.63022313 Ry
     Harris-Foulkes estimate   =    -343.63023965 Ry
     estimated scf accuracy    <       0.00003969 Ry

     total magnetization       =     2.84 Bohr mag/cell
     absolute magnetization    =     3.25 Bohr mag/cell

     iteration # 11     ecut=    65.00 Ry     beta=0.20
     Davidson diagonalization with overlap
     ethr =  9.92E-08,  avg # of iterations =  1.0

     Magnetic moment per site:
     atom:    1    charge:    3.0068    magn:    0.3352    constr:    0.0000
     atom:    2    charge:    3.0051    magn:    0.3351    constr:    0.0000
     atom:    3    charge:    3.0068    magn:    0.3352    constr:    0.0000
     atom:    4    charge:    3.0068    magn:    0.3352    constr:    0.0000

     total cpu time spent up to now is     1215.5 secs

     End of self-consistent calculation

 ------ SPIN UP ------------


          k = 0.0000 0.0000 0.0000 (  2553 PWs)   bands (ev):

     5.4250   9.7079   9.7079   9.7079  10.1604  10.1607  10.1607  11.9383
    11.9383  11.9383  13.1161  13.1161  13.8336  13.8336  13.8336  13.9232
    13.9233  13.9233  13.9234  13.9234  13.9234  17.0625  17.0626  17.0626
    23.7961  23.7962  23.7962  29.5545  29.5546  29.5546  29.5547  29.5547
    29.5547  34.6296  34.6296  34.6297  37.9718  37.9719  37.9719  38.4830
    42.4553  42.4553  42.4553  46.0494  46.0494  46.0494  48.1564  55.1445
    55.1445  55.1445  57.5988  59.0215

          k =-0.0000-0.0000 0.0476 (  2605 PWs)   bands (ev):

     5.7910   9.7300   9.8920   9.8920  10.2710  10.2868  10.2870  11.8097
    12.0406  12.0406  12.9980  13.1625  13.2703  13.2704  13.6800  13.6800
    13.7478  13.7478  13.7841  13.9237  13.9237  15.4618  18.0204  18.0205
    23.8921  23.8922  26.0453  27.8029  27.8030  28.4307  28.4307  30.1147
    30.1147  34.7458  36.8022  36.8023  37.8465  38.1037  39.9278  39.9279
    40.2341  40.2341  40.9009  47.4698  48.1079  48.1079  49.1279  51.5380
    56.2389  56.2389  56.6539  56.6542

          k =-0.0000-0.0000 0.0951 (  2605 PWs)   bands (ev):

     6.8400   9.5006  10.3287  10.3287  10.5783  10.6695  10.6698  11.4661
    12.2147  12.2151  12.3369  12.3369  12.7108  13.2914  13.2964  13.2964
    13.2983  13.3149  13.3149  13.6501  13.9242  13.9242  19.9818  19.9819
    24.2098  24.2098  25.0300  25.0301  26.6623  26.6623  30.3446  31.6931
    31.6931  35.1093  36.7127  37.0128  37.0128  38.3341  38.6557  40.8457
    40.8459  44.0924  44.0924  44.1234  50.9056  51.0294  51.0294  51.0319
    51.0319  55.0154  55.9197  55.9198

          k = 0.0000 0.0000-0.1427 (  2594 PWs)   bands (ev):

     8.3313   8.3466  10.6046  10.6046  11.0015  11.0239  11.3050  11.3051
    11.3272  11.3273  12.5184  12.5498  12.7800  12.7800  12.7968  12.7968
    13.0546  13.0546  13.4632  13.4755  13.9245  13.9245  22.3470  22.3471
    22.3859  22.3860  24.5837  24.5837  25.7162  25.7162  34.0563  34.0563
    34.0836  34.0836  34.8656  34.9230  35.7507  35.7642  40.2024  40.2942
    45.6062  45.6063  45.6861  45.6863  47.5973  47.5974  52.2691  52.2691
    54.1204  54.1204  54.1942  54.1942

          k =-0.0000 0.0476 0.0476 (  2610 PWs)   bands (ev):

     6.1485   9.9282   9.9282  10.0550  10.3882  10.3884  10.4022  11.7499
    12.0856  12.1025  12.9241  12.9657  12.9825  12.9907  13.1583  13.5518
    13.6760  13.6760  13.7463  13.7464  13.8079  16.3930  16.3930  18.7897
    23.8869  25.0854  26.2328  26.2329  28.2800  28.2800  28.9230  28.9233
    30.6421  36.0182  36.1040  37.0107  37.0109  37.3163  40.0967  40.0969
    41.2553  42.5845  43.5140  45.2141  46.3427  49.7650  50.4365  53.0695
    53.6499  55.3301  55.3306  56.2843

          k =-0.0000 0.0476 0.0951 (  2629 PWs)   bands (ev):

     7.1697   9.7366  10.4099  10.4584  10.6697  10.7230  10.7420  11.4692
    11.9765  12.1157  12.2314  12.3485  12.3746  12.8072  13.2283  13.3011
    13.3181  13.3378  13.4896  13.7425  13.7496  14.4266  18.0064  20.5716
    22.0690  24.5944  25.4911  26.5203  27.3860  29.5934  29.8847  29.9448
    31.0001  33.7087  34.4515  37.6631  38.6151  40.3740  40.5526  40.7287
    41.1015  44.0202  45.0107  47.0375  47.7675  48.5683  49.8742  51.3165
    52.9205  53.2420  54.7953  56.1832

          k = 0.0000 0.0476-0.1427 (  2630 PWs)   bands (ev):

     8.6131   8.6275  10.7565  10.7575  11.0532  11.0748  11.1752  11.1934
    11.3198  11.3415  12.1492  12.1724  12.7806  12.7977  13.0144  13.0220
    13.0393  13.0403  13.6527  13.6529  13.7389  13.7424  19.8644  19.8841
    22.8480  22.8830  25.3851  25.4117  28.2905  28.2993  31.4765  31.4881
    32.0019  32.0100  35.7801  35.8461  38.8096  38.8147  42.1644  42.2210
    43.0864  43.1075  45.8845  45.9600  50.0269  50.0943  50.3203  50.3521
    52.5809  52.6061  53.1723  53.1927

          k =-0.0000 0.0951 0.0951 (  2614 PWs)   bands (ev):

     8.0959  10.3237  10.3238  10.6893  10.9371  10.9378  10.9518  11.3997
    11.6462  11.6463  11.8006  12.1191  12.4791  12.7209  13.0126  13.1668
    13.1670  13.3076  13.3078  13.4775  13.6925  15.6718  15.6718  19.2890
    22.0974  25.1451  26.7628  26.7629  27.8828  27.8831  30.9704  31.6222
    31.6255  31.7251  33.5888  36.8220  41.5115  41.8633  41.8634  43.0569
    43.3967  43.7531  43.7532  47.1680  47.3099  48.4547  48.4551  51.6531
    52.1585  52.1717  53.1793  55.3274

          k = 0.0000 0.0951-0.1427 (  2608 PWs)   bands (ev):

     9.3567   9.3685  10.7873  10.8011  11.1787  11.1922  11.2031  11.2083
    11.3394  11.3596  11.8477  11.8628  12.8167  12.8257  12.8268  12.8339
    12.8936  12.8962  13.3373  13.3476  14.3521  14.3549  17.1950  17.2104
    24.2074  24.2340  26.2021  26.2237  28.6325  28.6451  29.5224  29.5251
    32.9312  32.9370  36.7428  36.8072  40.3417  40.3544  43.0268  43.0393
    43.1960  43.2019  46.6918  46.7533  47.8850  47.9222  50.3911  50.4254
    51.7124  51.7675  53.5367  53.5512

          k = 0.0000-0.1427-0.1427 (  2624 PWs)   bands (ev):

    10.2053  10.2155  10.2155  10.2254  11.2918  11.3110  11.3110  11.3301
    11.6148  11.6204  11.6204  11.6258  12.6782  12.6800  12.6800  12.6821
    12.9787  12.9946  12.9946  13.0103  15.4160  15.4233  15.4233  15.4306
    26.1755  26.1938  26.1939  26.2120  27.5524  27.5653  27.5653  27.5787
    37.8578  37.8754  37.8754  37.8938  38.4632  38.4854  38.4855  38.5054
    47.1611  47.1611  47.1615  47.1621  49.1363  49.1711  49.1711  49.2056
    51.7929  51.7960  51.7960  51.7987

          k = 0.0476 0.0476 0.0476 (  2629 PWs)   bands (ev):

     6.4941  10.0889  10.0890  10.0890  10.5025  10.5028  10.5028  11.7150
    12.1221  12.1221  12.6788  12.6788  12.6788  13.0714  13.0714  13.3185
    13.3187  13.3187  13.8618  13.8618  13.8619  17.0198  17.0198  17.0198
    25.3127  25.3128  25.3128  26.5775  26.5775  26.5777  31.1569  31.1571
    31.1571  33.4673  36.1497  36.1497  36.1499  39.2389  41.1200  41.1200
    42.7917  42.7918  42.7918  46.5752  47.6298  47.6298  51.6186  51.6186
    55.0901  55.2080  55.2086  55.2086

          k = 0.0476 0.0476 0.0951 (  2616 PWs)   bands (ev):

     7.4753   9.8952  10.4716  10.4718  10.7879  10.8163  10.8164  11.5059
    11.9668  11.9669  12.1600  12.2038  12.2618  12.9164  12.9864  13.0727
    13.0737  13.3111  13.7646  13.7646  13.7970  14.7883  18.3614  18.3615
    22.6942  22.6942  26.6055  27.2290  27.2291  30.3436  30.3437  30.7304
    30.9333  32.6360  36.6288  37.7622  37.8334  38.7739  38.7739  42.3429
    43.4838  44.4514  47.0004  47.0004  47.8620  49.0648  50.1809  50.1810
    50.6757  52.9978  53.0577  55.6314

          k = 0.0476 0.0476-0.1427 (  2596 PWs)   bands (ev):

     8.8409   8.8536  10.8579  10.8585  10.9167  10.9169  11.1497  11.1700
    11.5735  11.5735  12.0538  12.0765  12.5306  12.5384  12.9051  12.9053
    13.4724  13.4884  13.5850  13.5885  13.7087  13.7088  19.5101  19.5102
    21.1330  21.1331  28.1919  28.1939  28.4270  28.4362  28.9120  28.9151
    34.9111  34.9340  35.3783  35.4236  38.0539  38.1013  42.1872  42.1873
    44.7236  44.7492  45.3508  45.3510  49.4441  49.4797  50.8738  50.8861
    52.1634  52.1635  53.6567  53.6613

          k = 0.0476 0.0951 0.0951 (  2613 PWs)   bands (ev):

     8.3138  10.2125  10.2127  10.4985  11.1036  11.1494  11.1496  11.5509
    11.7631  11.7633  11.8962  12.1212  12.2466  12.7242  12.7244  12.7411
    13.0439  13.5982  13.6664  13.6826  13.6836  15.8026  15.8027  18.6136
    20.7907  23.8904  23.8904  27.9244  28.0440  31.1202  31.1202  32.1048
    32.1050  34.0016  35.2262  36.8930  39.3079  39.3081  40.1392  43.0179
    43.7174  44.7669  46.4441  46.4442  49.1712  49.1714  50.3983  50.5760
    50.9043  51.5960  52.2806  52.9069

          k = 0.0476 0.0951-0.1427 (  2598 PWs)   bands (ev):

     9.3929   9.4008  10.4325  10.4348  11.3164  11.3172  11.4569  11.4733
    11.7665  11.7734  11.8836  11.8985  12.3929  12.3985  12.6046  12.6082
    13.3374  13.3438  13.5648  13.5714  14.2587  14.2612  17.1737  17.1862
    21.8014  21.8112  25.6469  25.6539  29.4185  29.4246  33.0232  33.0258
    33.2353  33.2408  36.8626  36.9154  40.1154  40.1270  40.4243  40.4337
    45.1721  45.1765  45.6533  45.6787  47.6783  47.6919  50.5411  50.5622
    51.7650  51.7773  53.8546  53.8781

          k = 0.0476-0.1427-0.1427 (  2588 PWs)   bands (ev):

     9.9627   9.9661   9.9661   9.9691  11.7020  11.7074  11.7074  11.7124
    11.7843  11.7954  11.7954  11.8067  12.3618  12.3672  12.3672  12.3727
    13.3132  13.3232  13.3232  13.3332  15.3264  15.3344  15.3344  15.3424
    23.4321  23.4397  23.4397  23.4472  30.9565  30.9588  30.9588  30.9613
    38.1404  38.1543  38.1544  38.1721  38.3099  38.3309  38.3310  38.3469
    46.6359  46.6359  46.6365  46.6390  46.7198  46.7402  46.7403  46.7572
    54.7725  54.7856  54.7856  55.0488

          k = 0.0951 0.0951 0.0951 (  2608 PWs)   bands (ev):

     8.8576  10.0475  10.0478  10.0478  11.5076  11.5079  11.5079  12.0209
    12.0779  12.0779  12.0834  12.0921  12.0921  12.3706  12.3706  12.3708
    13.4462  13.4462  13.8106  13.8106  13.8107  16.1811  16.1812  16.1812
    21.3978  21.3978  21.3979  25.1370  32.4855  32.4855  32.4857  35.2283
    35.2285  35.2285  37.2582  37.2582  37.2584  37.7790  39.9341  39.9341
    44.4270  44.4270  47.7534  48.0473  48.0473  48.0481  48.1207  48.1208
    48.1208  52.4270  52.4274  52.4274

          k = 0.0951 0.0951-0.1427 (  2606 PWs)   bands (ev):

     9.4825   9.4846   9.9791   9.9793  11.6274  11.6276  11.9076  11.9200
    12.1295  12.1312  12.2477  12.2507  12.2607  12.2732  12.3655  12.3658
    13.7303  13.7316  13.7390  13.7397  14.1499  14.1506  16.4656  16.4657
    20.3687  20.3688  22.9516  22.9589  33.4016  33.4016  34.6113  34.6116
    36.3061  36.3282  37.2240  37.2359  38.9589  38.9964  39.4242  39.4243
    44.6334  44.6335  44.8760  44.8947  45.9958  46.0008  48.5322  48.5322
    49.5817  49.5896  52.9564  52.9572

          k = 0.0951-0.1427-0.1427 (  2608 PWs)   bands (ev):

     9.6589   9.6592   9.6592   9.6592  11.8700  11.8734  11.8734  11.8764
    12.0595  12.0629  12.0629  12.0665  12.8052  12.8123  12.8123  12.8195
    13.6538  13.6593  13.6593  13.6648  14.9493  14.9584  14.9584  14.9675
    21.0761  21.0822  21.0822  21.0883  35.1380  35.1409  35.1410  35.1441
    38.1945  38.2041  38.2042  38.2142  38.9134  38.9237  38.9237  38.9327
    44.0670  44.0757  44.0757  44.0841  45.1368  45.1391  45.1391  45.1412
    50.3956  50.3992  50.3992  50.4034

          k =-0.1427-0.1427-0.1427 (  2608 PWs)   bands (ev):

     9.5430   9.5433   9.5433   9.5433  11.9513  11.9513  11.9513  11.9514
    11.9514  11.9517  11.9517  11.9517  13.7861  13.7861  13.7861  13.7866
    13.7866  13.7867  13.7867  13.7867  14.2846  14.2850  14.2851  14.2851
    20.2009  20.2009  20.2009  20.2010  36.9382  36.9384  36.9384  36.9384
    39.5593  39.5593  39.5594  39.5594  39.5594  39.5599  39.5599  39.5599
    42.7846  42.7846  42.7848  42.7848  42.7848  42.7849  42.7850  42.7850
    48.7530  48.7530  48.7530  48.7532

          k =-0.0476 0.0000 0.0476 (  2610 PWs)   bands (ev):

     6.1485   9.9282   9.9282  10.0550  10.3882  10.3884  10.4022  11.7499
    12.0856  12.1025  12.9241  12.9657  12.9825  12.9907  13.1583  13.5518
    13.6760  13.6760  13.7463  13.7464  13.8079  16.3930  16.3930  18.7897
    23.8869  25.0854  26.2327  26.2329  28.2800  28.2800  28.9230  28.9233
    30.6421  36.0182  36.1040  37.0107  37.0109  37.3163  40.0966  40.0970
    41.2553  42.5845  43.5140  45.2141  46.3427  49.7650  50.4365  53.0695
    53.6499  55.3301  55.3307  56.2843

          k =-0.0476-0.0000 0.0951 (  2629 PWs)   bands (ev):

     7.1697   9.7366  10.4099  10.4584  10.6697  10.7230  10.7420  11.4692
    11.9765  12.1157  12.2314  12.3485  12.3746  12.8072  13.2283  13.3011
    13.3181  13.3378  13.4896  13.7425  13.7496  14.4266  18.0064  20.5716
    22.0690  24.5944  25.4911  26.5203  27.3860  29.5934  29.8847  29.9448
    31.0001  33.7087  34.4515  37.6631  38.6151  40.3740  40.5526  40.7287
    41.1015  44.0202  45.0107  47.0375  47.7675  48.5683  49.8742  51.3165
    52.9205  53.2420  54.7953  56.1832

          k =-0.0951 0.0000 0.0951 (  2614 PWs)   bands (ev):

     8.0959  10.3237  10.3238  10.6893  10.9371  10.9378  10.9518  11.3997
    11.6462  11.6463  11.8006  12.1191  12.4791  12.7209  13.0126  13.1668
    13.1670  13.3076  13.3078  13.4775  13.6925  15.6718  15.6718  19.2890
    22.0974  25.1451  26.7628  26.7629  27.8828  27.8831  30.9704  31.6222
    31.6255  31.7251  33.5888  36.8220  41.5115  41.8633  41.8634  43.0569
    43.3967  43.7531  43.7532  47.1680  47.3099  48.4547  48.4551  51.6531
    52.1585  52.1717  53.1793  55.3269

          k = 0.0476-0.0476 0.0476 (  2629 PWs)   bands (ev):

     6.4941  10.0890  10.0890  10.0890  10.5025  10.5028  10.5028  11.7150
    12.1221  12.1221  12.6788  12.6788  12.6789  13.0714  13.0714  13.3185
    13.3187  13.3187  13.8618  13.8618  13.8619  17.0198  17.0198  17.0198
    25.3127  25.3128  25.3128  26.5775  26.5775  26.5777  31.1569  31.1571
    31.1571  33.4673  36.1497  36.1497  36.1499  39.2389  41.1200  41.1200
    42.7917  42.7918  42.7918  46.5752  47.6298  47.6298  51.6186  51.6186
    55.0901  55.2080  55.2086  55.2086

          k = 0.0476-0.0476 0.0951 (  2616 PWs)   bands (ev):

     7.4753   9.8952  10.4716  10.4718  10.7879  10.8163  10.8164  11.5059
    11.9668  11.9669  12.1600  12.2038  12.2618  12.9164  12.9864  13.0727
    13.0737  13.3111  13.7646  13.7646  13.7970  14.7883  18.3614  18.3615
    22.6942  22.6942  26.6055  27.2290  27.2290  30.3436  30.3437  30.7304
    30.9333  32.6360  36.6288  37.7622  37.8334  38.7738  38.7739  42.3429
    43.4839  44.4514  47.0004  47.0005  47.8620  49.0648  50.1808  50.1810
    50.6757  52.9978  53.0577  55.6314

          k =-0.0951 0.0476 0.0476 (  2616 PWs)   bands (ev):

     7.4753   9.8952  10.4716  10.4718  10.7879  10.8163  10.8164  11.5059
    11.9668  11.9669  12.1600  12.2038  12.2618  12.9164  12.9864  13.0727
    13.0737  13.3111  13.7646  13.7646  13.7970  14.7883  18.3614  18.3615
    22.6942  22.6942  26.6055  27.2290  27.2291  30.3436  30.3437  30.7304
    30.9333  32.6360  36.6288  37.7622  37.8334  38.7739  38.7739  42.3429
    43.4838  44.4514  47.0004  47.0004  47.8620  49.0648  50.1809  50.1810
    50.6757  52.9978  53.0577  55.6314

          k = 0.0476-0.0476-0.1427 (  2596 PWs)   bands (ev):

     8.8409   8.8536  10.8579  10.8585  10.9168  10.9169  11.1497  11.1700
    11.5735  11.5735  12.0538  12.0765  12.5306  12.5384  12.9051  12.9053
    13.4724  13.4884  13.5850  13.5885  13.7087  13.7088  19.5101  19.5101
    21.1330  21.1331  28.1919  28.1939  28.4269  28.4362  28.9120  28.9151
    34.9111  34.9340  35.3783  35.4236  38.0539  38.1013  42.1872  42.1873
    44.7236  44.7492  45.3508  45.3510  49.4441  49.4797  50.8738  50.8861
    52.1633  52.1635  53.6567  53.6612

          k = 0.0951-0.0476 0.0951 (  2613 PWs)   bands (ev):

     8.3138  10.2125  10.2127  10.4985  11.1036  11.1494  11.1496  11.5509
    11.7631  11.7633  11.8962  12.1212  12.2466  12.7242  12.7244  12.7411
    13.0439  13.5982  13.6664  13.6826  13.6836  15.8026  15.8027  18.6136
    20.7907  23.8904  23.8904  27.9244  28.0440  31.1202  31.1202  32.1048
    32.1050  34.0016  35.2262  36.8930  39.3079  39.3081  40.1392  43.0179
    43.7174  44.7669  46.4441  46.4442  49.1712  49.1714  50.3983  50.5760
    50.9043  51.5960  52.2806  52.9067

          k =-0.0951 0.0476 0.0951 (  2613 PWs)   bands (ev):

     8.3138  10.2125  10.2127  10.4985  11.1036  11.1494  11.1496  11.5509
    11.7631  11.7633  11.8962  12.1212  12.2466  12.7242  12.7244  12.7411
    13.0439  13.5982  13.6664  13.6826  13.6836  15.8026  15.8026  18.6136
    20.7907  23.8904  23.8904  27.9244  28.0440  31.1201  31.1203  32.1048
    32.1050  34.0016  35.2262  36.8930  39.3079  39.3081  40.1392  43.0179
    43.7174  44.7669  46.4441  46.4441  49.1711  49.1714  50.3983  50.5760
    50.9043  51.5960  52.2806  52.9067

          k = 0.0951-0.0476-0.1427 (  2598 PWs)   bands (ev):

     9.3929   9.4008  10.4325  10.4348  11.3164  11.3172  11.4569  11.4733
    11.7665  11.7734  11.8836  11.8985  12.3929  12.3985  12.6046  12.6082
    13.3374  13.3438  13.5648  13.5714  14.2587  14.2612  17.1737  17.1862
    21.8014  21.8112  25.6469  25.6539  29.4185  29.4246  33.0232  33.0258
    33.2353  33.2408  36.8626  36.9154  40.1154  40.1270  40.4243  40.4337
    45.1721  45.1765  45.6533  45.6787  47.6783  47.6919  50.5411  50.5622
    51.7650  51.7773  53.8546  53.8787

          k = 0.0951-0.0951 0.0951 (  2608 PWs)   bands (ev):

     8.8576  10.0475  10.0478  10.0478  11.5076  11.5079  11.5079  12.0209
    12.0779  12.0779  12.0834  12.0921  12.0921  12.3706  12.3706  12.3708
    13.4462  13.4462  13.8106  13.8106  13.8107  16.1811  16.1812  16.1812
    21.3978  21.3978  21.3978  25.1370  32.4855  32.4855  32.4857  35.2283
    35.2285  35.2285  37.2581  37.2582  37.2584  37.7790  39.9341  39.9341
    44.4270  44.4270  47.7534  48.0472  48.0473  48.0482  48.1207  48.1208
    48.1208  52.4270  52.4274  52.4274

          k = 0.0951-0.0951-0.1427 (  2606 PWs)   bands (ev):

     9.4825   9.4846   9.9791   9.9793  11.6274  11.6276  11.9076  11.9200
    12.1295  12.1312  12.2477  12.2507  12.2607  12.2732  12.3655  12.3658
    13.7303  13.7316  13.7390  13.7397  14.1499  14.1506  16.4656  16.4656
    20.3687  20.3688  22.9516  22.9589  33.4016  33.4017  34.6113  34.6116
    36.3061  36.3282  37.2240  37.2359  38.9589  38.9964  39.4242  39.4243
    44.6334  44.6335  44.8760  44.8947  45.9958  46.0008  48.5322  48.5322
    49.5817  49.5896  52.9564  52.9572

 ------ SPIN DOWN ----------


          k = 0.0000 0.0000 0.0000 (  2553 PWs)   bands (ev):

     5.3702  10.1703  10.1703  10.1703  10.8791  10.8795  10.8795  12.8193
    12.8193  12.8193  13.8967  13.8967  14.6482  14.6483  14.6483  14.9333
    14.9333  14.9333  14.9335  14.9335  14.9335  16.9836  16.9837  16.9837
    24.1018  24.1019  24.1019  29.5406  29.5407  29.5407  29.5409  29.5409
    29.5409  34.7937  34.7937  34.7939  38.1151  38.1153  38.1153  38.2772
    42.4260  42.4260  42.4260  46.1218  46.1218  46.1218  47.9967  55.3334
    55.3334  55.3334  58.1191  59.5389

          k =-0.0000-0.0000 0.0476 (  2605 PWs)   bands (ev):

     5.7362  10.1458  10.3644  10.3644  10.9986  11.0029  11.0032  12.6775
    12.9257  12.9257  13.7689  13.9451  14.0910  14.0912  14.4813  14.4813
    14.5964  14.7409  14.7409  14.9338  14.9338  15.5319  18.1270  18.1272
    24.1827  24.1828  26.2471  27.8714  27.8716  28.4579  28.4580  30.1172
    30.1172  34.8974  36.8830  36.8832  37.7076  38.2447  40.0477  40.0478
    40.2765  40.2765  40.8310  47.4901  48.0816  48.0816  49.1997  51.5283
    56.4501  56.4501  56.5803  56.5806

          k =-0.0000-0.0000 0.0951 (  2605 PWs)   bands (ev):

     6.7895   9.7088  10.8256  10.8256  11.3313  11.3803  11.3807  12.2996
    12.9446  12.9450  13.2351  13.2351  13.4481  13.6700  14.0694  14.0694
    14.0801  14.2667  14.2667  14.4558  14.9344  14.9344  20.1668  20.1669
    24.4560  24.4560  25.1707  25.1707  26.7604  26.7604  30.4401  31.7300
    31.7300  35.2232  36.6779  37.0842  37.0842  38.2438  38.8015  40.8510
    40.8512  44.1916  44.1917  44.3415  50.8610  50.9344  50.9344  50.9583
    50.9583  54.9107  56.1599  56.1600

          k = 0.0000 0.0000-0.1427 (  2594 PWs)   bands (ev):

     8.3244   8.3402  11.1172  11.1172  11.7915  11.8155  12.0145  12.0148
    12.0373  12.0376  13.1654  13.1997  13.7011  13.7011  13.7186  13.7186
    13.8029  13.8029  14.2599  14.2728  14.9347  14.9347  22.5282  22.5283
    22.5679  22.5680  24.7803  24.7803  25.8736  25.8736  34.1213  34.1213
    34.1486  34.1486  34.8449  34.9039  35.8006  35.8168  40.3936  40.4869
    45.5607  45.5608  45.6425  45.6427  47.6712  47.6714  52.4578  52.4578
    54.0099  54.0099  54.0838  54.0838

          k =-0.0000 0.0476 0.0476 (  2610 PWs)   bands (ev):

     6.0947  10.3566  10.3567  10.5464  11.1024  11.1127  11.1130  12.6039
    12.9760  12.9804  13.6897  13.7214  13.7312  13.7526  13.9460  14.3430
    14.4690  14.4690  14.7397  14.7398  14.8106  16.7076  16.7076  18.9553
    24.1457  25.2150  26.4214  26.4216  28.3628  28.3628  28.9639  28.9643
    30.6530  36.0951  36.1229  37.0812  37.0814  37.3338  40.2145  40.2147
    41.1744  42.6717  43.4831  45.1575  46.4033  49.9235  50.3617  53.2422
    53.6148  55.2918  55.2924  56.2244

          k =-0.0000 0.0476 0.0951 (  2629 PWs)   bands (ev):

     7.1240   9.9592  10.8726  10.9909  11.3855  11.4181  11.4595  12.2918
    12.6684  12.8373  13.0287  13.0737  13.2512  13.5722  13.9938  14.0784
    14.1489  14.2358  14.2651  14.7365  14.7466  15.1361  18.3451  20.7756
    22.2674  24.8224  25.6427  26.6550  27.5112  29.7018  29.9468  30.0148
    31.0975  33.7867  34.4940  37.7050  38.6530  40.3255  40.5001  40.8483
    41.1010  44.1023  45.2152  47.1038  47.6897  48.5506  49.8581  51.2416
    52.8760  53.1512  55.0145  56.4350

          k = 0.0000 0.0476-0.1427 (  2630 PWs)   bands (ev):

     8.6183   8.6333  11.2597  11.2616  11.8320  11.8539  11.8569  11.8755
    12.0321  12.0544  12.8890  12.9156  13.7042  13.7218  13.7836  13.7876
    13.7930  13.7956  14.4916  14.4924  14.7335  14.7374  20.1457  20.1658
    23.0409  23.0762  25.5556  25.5842  28.4066  28.4170  31.5911  31.6015
    32.0603  32.0672  35.8053  35.8712  38.8116  38.8152  42.3161  42.3745
    43.0782  43.1016  45.8355  45.9128  50.0928  50.1590  50.2525  50.2846
    52.4967  52.5229  53.3399  53.3600

          k =-0.0000 0.0951 0.0951 (  2614 PWs)   bands (ev):

     8.0737  10.5971  10.5972  11.3540  11.4364  11.6733  11.6740  12.1942
    12.3400  12.3400  12.5135  12.9109  13.3950  13.4685  13.7668  13.9049
    13.9052  14.2689  14.2690  14.4590  14.5354  16.2774  16.2774  19.5966
    22.3166  25.3435  26.9296  26.9296  27.9840  27.9843  31.1013  31.7104
    31.7143  31.7931  33.6412  36.8577  41.4478  41.8451  41.8453  43.0916
    43.2791  43.7954  43.7955  47.2891  47.3391  48.4994  48.4999  51.7124
    52.0486  52.1131  53.3821  55.2334

          k = 0.0000 0.0951-0.1427 (  2608 PWs)   bands (ev):

     9.4175   9.4303  11.2074  11.2211  11.8385  11.8398  11.9449  11.9662
    12.0603  12.0814  12.5843  12.6011  13.5610  13.5614  13.6328  13.6354
    13.7531  13.7714  14.3060  14.3172  15.1584  15.1618  17.6594  17.6746
    24.4128  24.4388  26.3528  26.3764  28.7954  28.8066  29.6120  29.6157
    33.0022  33.0094  36.7703  36.8349  40.3412  40.3525  42.9730  42.9846
    43.2146  43.2197  46.6294  46.6920  47.9663  48.0052  50.3378  50.3730
    51.8331  51.8880  53.4516  53.4653

          k = 0.0000-0.1427-0.1427 (  2624 PWs)   bands (ev):

    10.4236  10.4350  10.4350  10.4462  12.0288  12.0493  12.0493  12.0696
    12.2839  12.2903  12.2903  12.2966  13.4163  13.4184  13.4184  13.4207
    13.9274  13.9441  13.9441  13.9608  16.0994  16.1056  16.1056  16.1117
    26.3715  26.3888  26.3888  26.4058  27.6744  27.6889  27.6889  27.7038
    37.9324  37.9493  37.9493  37.9675  38.4305  38.4516  38.4517  38.4700
    47.0406  47.0410  47.0411  47.0430  49.1246  49.1601  49.1602  49.1956
    51.8923  51.8971  51.8971  51.9015

          k = 0.0476 0.0476 0.0476 (  2629 PWs)   bands (ev):

     6.4432  10.5444  10.5445  10.5445  11.2036  11.2041  11.2041  12.5491
    13.0008  13.0008  13.3901  13.3901  13.3901  13.8583  13.8583  14.1501
    14.1504  14.1504  14.8108  14.8108  14.8109  17.3608  17.3609  17.3609
    25.4441  25.4442  25.4442  26.7508  26.7508  26.7510  31.1787  31.1790
    31.1790  33.5338  36.2446  36.2446  36.2448  39.0833  41.1726  41.1726
    42.8757  42.8758  42.8758  46.4876  47.5868  47.5868  51.7853  51.7853
    55.1611  55.1617  55.1617  55.4270

          k = 0.0476 0.0476 0.0951 (  2616 PWs)   bands (ev):

     7.4401  10.1579  11.0037  11.0038  11.4449  11.4453  11.5010  12.3021
    12.6698  12.6698  12.8346  13.0333  13.1227  13.7632  13.7964  13.8601
    13.8617  14.1341  14.6987  14.7285  14.7288  15.4190  18.6884  18.6885
    22.9044  22.9044  26.7497  27.3780  27.3780  30.4184  30.4185  30.8444
    31.0207  32.6824  36.7032  37.6680  37.9105  38.8041  38.8041  42.3505
    43.5640  44.4687  47.0445  47.0445  47.9040  49.0104  50.1696  50.1697
    50.6824  52.9270  53.0178  55.7459

          k = 0.0476 0.0476-0.1427 (  2596 PWs)   bands (ev):

     8.8748   8.8887  11.4311  11.4311  11.4980  11.4986  11.9001  11.9222
    12.2880  12.2882  12.8028  12.8280  13.3825  13.3889  13.6693  13.6695
    14.2771  14.2943  14.4477  14.4495  14.6811  14.6811  19.7674  19.7675
    21.4370  21.4370  28.3068  28.3087  28.5690  28.5775  29.0266  29.0301
    34.9806  35.0031  35.3507  35.3976  38.1310  38.1787  42.1685  42.1685
    44.8093  44.8370  45.3398  45.3400  49.3644  49.4001  50.8279  50.8404
    52.1968  52.1968  53.8327  53.8403

          k = 0.0476 0.0951 0.0951 (  2613 PWs)   bands (ev):

     8.3257  10.6056  10.6057  11.1174  11.6112  11.7515  11.7519  12.2781
    12.4837  12.4839  12.6086  12.9224  13.0715  13.5234  13.5244  13.5276
    13.8878  14.4478  14.5953  14.5964  14.6144  16.3562  16.3563  18.8883
    21.1346  24.1073  24.1073  28.0840  28.1740  31.1839  31.1839  32.1973
    32.1976  34.0562  35.2518  36.9182  39.3226  39.3228  40.0627  43.1316
    43.7090  44.7126  46.4380  46.4381  49.2257  49.2259  50.3299  50.5595
    50.8806  51.6685  52.3458  52.8335

          k = 0.0476 0.0951-0.1427 (  2598 PWs)   bands (ev):

     9.5411   9.5515  10.9667  10.9713  11.8705  11.8728  12.1022  12.1208
    12.4601  12.4687  12.6434  12.6602  13.1983  13.2026  13.3799  13.3829
    14.2018  14.2111  14.5008  14.5083  15.0518  15.0551  17.5851  17.5971
    22.1021  22.1109  25.8474  25.8533  29.5183  29.5258  33.0808  33.0817
    33.3035  33.3104  36.8759  36.9281  40.1000  40.1107  40.4464  40.4566
    45.1596  45.1633  45.6443  45.6711  47.6582  47.6736  50.5792  50.6003
    51.7046  51.7165  53.9368  53.9589

          k = 0.0476-0.1427-0.1427 (  2588 PWs)   bands (ev):

    10.3168  10.3232  10.3232  10.3292  12.2693  12.2784  12.2784  12.2874
    12.4877  12.4988  12.4988  12.5099  13.1401  13.1449  13.1449  13.1499
    14.2243  14.2358  14.2358  14.2474  15.9737  15.9804  15.9804  15.9870
    23.6910  23.6974  23.6974  23.7037  31.0377  31.0414  31.0414  31.0454
    38.2131  38.2215  38.2215  38.2438  38.2619  38.2867  38.2868  38.2964
    46.5683  46.5683  46.5686  46.5702  46.7441  46.7651  46.7651  46.7842
    54.8353  54.8495  54.8495  55.0666

          k = 0.0951 0.0951 0.0951 (  2608 PWs)   bands (ev):

     8.9907  10.5576  10.5579  10.5579  12.0671  12.0673  12.0673  12.5445
    12.7620  12.7620  12.7629  12.8897  12.8897  13.1622  13.1622  13.1624
    14.3277  14.3277  14.7388  14.7388  14.7390  16.6077  16.6079  16.6079
    21.7364  21.7364  21.7365  25.3624  32.5319  32.5319  32.5321  35.2897
    35.2899  35.2899  37.2708  37.2708  37.2710  37.6078  40.0202  40.0202
    44.4362  44.4362  47.7683  47.9956  47.9956  47.9966  48.1220  48.1222
    48.1222  52.4582  52.4585  52.4585

          k = 0.0951 0.0951-0.1427 (  2606 PWs)   bands (ev):

     9.8136   9.8184  10.5176  10.5178  12.2595  12.2597  12.5667  12.5791
    12.8125  12.8280  12.9222  12.9234  12.9661  12.9661  13.0299  13.0299
    14.6396  14.6416  14.6679  14.6684  14.8651  14.8678  16.7971  16.7972
    20.8059  20.8060  23.2415  23.2478  33.4094  33.4094  34.6973  34.6976
    36.1967  36.2201  37.2968  37.3079  39.0393  39.0765  39.3987  39.3988
    44.6598  44.6600  44.8530  44.8720  46.0037  46.0096  48.4919  48.4919
    49.6352  49.6429  53.0650  53.0659

          k = 0.0951-0.1427-0.1427 (  2608 PWs)   bands (ev):

    10.1287  10.1302  10.1302  10.1314  12.6036  12.6068  12.6068  12.6098
    12.8360  12.8392  12.8392  12.8427  13.2448  13.2531  13.2531  13.2614
    14.5719  14.5780  14.5780  14.5842  15.4826  15.4901  15.4901  15.4974
    21.4698  21.4750  21.4750  21.4801  35.1105  35.1150  35.1151  35.1198
    38.1643  38.1730  38.1730  38.1821  38.9830  38.9928  38.9928  39.0013
    44.0980  44.1077  44.1077  44.1172  45.1289  45.1317  45.1317  45.1343
    50.4858  50.4894  50.4895  50.4938

          k =-0.1427-0.1427-0.1427 (  2608 PWs)   bands (ev):

    10.0447  10.0450  10.0450  10.0450  12.7248  12.7248  12.7248  12.7250
    12.7250  12.7251  12.7251  12.7251  14.1847  14.1848  14.1848  14.1852
    14.7106  14.7106  14.7107  14.7107  14.7107  14.7109  14.7109  14.7109
    20.6834  20.6834  20.6834  20.6835  36.7538  36.7541  36.7541  36.7541
    39.6294  39.6294  39.6294  39.6295  39.6295  39.6299  39.6299  39.6300
    42.8150  42.8150  42.8150  42.8151  42.8151  42.8153  42.8153  42.8153
    48.8669  48.8669  48.8669  48.8671

          k =-0.0476 0.0000 0.0476 (  2610 PWs)   bands (ev):

     6.0947  10.3567  10.3567  10.5464  11.1024  11.1127  11.1130  12.6039
    12.9760  12.9804  13.6897  13.7214  13.7312  13.7526  13.9460  14.3430
    14.4690  14.4690  14.7397  14.7398  14.8106  16.7076  16.7076  18.9553
    24.1457  25.2150  26.4214  26.4216  28.3628  28.3629  28.9639  28.9643
    30.6530  36.0951  36.1229  37.0812  37.0814  37.3338  40.2144  40.2148
    41.1744  42.6717  43.4831  45.1575  46.4033  49.9235  50.3617  53.2422
    53.6148  55.2918  55.2924  56.2244

          k =-0.0476-0.0000 0.0951 (  2629 PWs)   bands (ev):

     7.1240   9.9592  10.8726  10.9909  11.3855  11.4181  11.4595  12.2918
    12.6684  12.8373  13.0287  13.0737  13.2512  13.5722  13.9938  14.0784
    14.1489  14.2358  14.2651  14.7365  14.7466  15.1361  18.3451  20.7756
    22.2674  24.8224  25.6427  26.6550  27.5112  29.7018  29.9468  30.0148
    31.0975  33.7867  34.4940  37.7050  38.6530  40.3255  40.5001  40.8483
    41.1010  44.1023  45.2152  47.1038  47.6897  48.5506  49.8581  51.2416
    52.8760  53.1512  55.0145  56.4350

          k =-0.0951 0.0000 0.0951 (  2614 PWs)   bands (ev):

     8.0737  10.5971  10.5972  11.3540  11.4364  11.6733  11.6740  12.1942
    12.3400  12.3400  12.5135  12.9109  13.3950  13.4685  13.7668  13.9049
    13.9052  14.2689  14.2690  14.4590  14.5354  16.2774  16.2774  19.5966
    22.3166  25.3435  26.9295  26.9296  27.9839  27.9843  31.1013  31.7104
    31.7143  31.7931  33.6412  36.8577  41.4478  41.8451  41.8452  43.0916
    43.2791  43.7954  43.7955  47.2891  47.3391  48.4994  48.4999  51.7124
    52.0486  52.1131  53.3821  55.2321

          k = 0.0476-0.0476 0.0476 (  2629 PWs)   bands (ev):

     6.4432  10.5444  10.5445  10.5445  11.2036  11.2041  11.2041  12.5491
    13.0008  13.0008  13.3901  13.3901  13.3901  13.8583  13.8583  14.1501
    14.1504  14.1504  14.8108  14.8108  14.8110  17.3608  17.3609  17.3609
    25.4441  25.4442  25.4442  26.7508  26.7508  26.7510  31.1787  31.1789
    31.1790  33.5338  36.2446  36.2446  36.2448  39.0833  41.1725  41.1726
    42.8757  42.8758  42.8758  46.4876  47.5868  47.5868  51.7853  51.7853
    55.1612  55.1617  55.1617  55.4270

          k = 0.0476-0.0476 0.0951 (  2616 PWs)   bands (ev):

     7.4401  10.1579  11.0037  11.0038  11.4449  11.4453  11.5010  12.3021
    12.6698  12.6698  12.8346  13.0333  13.1227  13.7632  13.7964  13.8601
    13.8617  14.1340  14.6987  14.7285  14.7288  15.4190  18.6884  18.6885
    22.9044  22.9044  26.7497  27.3780  27.3780  30.4184  30.4185  30.8444
    31.0207  32.6824  36.7032  37.6680  37.9105  38.8041  38.8041  42.3505
    43.5640  44.4687  47.0445  47.0446  47.9040  49.0104  50.1696  50.1697
    50.6824  52.9270  53.0178  55.7459

          k =-0.0951 0.0476 0.0476 (  2616 PWs)   bands (ev):

     7.4401  10.1579  11.0037  11.0038  11.4449  11.4453  11.5010  12.3021
    12.6698  12.6698  12.8346  13.0333  13.1227  13.7632  13.7964  13.8601
    13.8617  14.1340  14.6987  14.7285  14.7288  15.4190  18.6884  18.6885
    22.9044  22.9044  26.7497  27.3780  27.3780  30.4184  30.4185  30.8444
    31.0207  32.6824  36.7032  37.6680  37.9105  38.8041  38.8041  42.3505
    43.5640  44.4687  47.0445  47.0445  47.9040  49.0104  50.1696  50.1697
    50.6824  52.9270  53.0178  55.7463

          k = 0.0476-0.0476-0.1427 (  2596 PWs)   bands (ev):

     8.8748   8.8887  11.4311  11.4311  11.4980  11.4986  11.9001  11.9222
    12.2880  12.2882  12.8028  12.8280  13.3825  13.3889  13.6693  13.6696
    14.2771  14.2942  14.4477  14.4495  14.6811  14.6811  19.7674  19.7675
    21.4370  21.4370  28.3069  28.3087  28.5690  28.5775  29.0267  29.0300
    34.9806  35.0031  35.3507  35.3976  38.1310  38.1787  42.1684  42.1685
    44.8093  44.8370  45.3398  45.3400  49.3644  49.4001  50.8279  50.8404
    52.1967  52.1969  53.8327  53.8403

          k = 0.0951-0.0476 0.0951 (  2613 PWs)   bands (ev):

     8.3257  10.6056  10.6057  11.1174  11.6112  11.7515  11.7519  12.2781
    12.4837  12.4839  12.6086  12.9224  13.0715  13.5234  13.5244  13.5276
    13.8878  14.4478  14.5953  14.5964  14.6144  16.3562  16.3563  18.8883
    21.1346  24.1073  24.1073  28.0840  28.1740  31.1839  31.1839  32.1973
    32.1976  34.0562  35.2518  36.9182  39.3226  39.3228  40.0627  43.1316
    43.7090  44.7126  46.4380  46.4381  49.2257  49.2259  50.3299  50.5595
    50.8806  51.6685  52.3458  52.8338

          k =-0.0951 0.0476 0.0951 (  2613 PWs)   bands (ev):

     8.3257  10.6056  10.6057  11.1174  11.6112  11.7515  11.7519  12.2781
    12.4837  12.4839  12.6086  12.9224  13.0715  13.5234  13.5244  13.5276
    13.8878  14.4478  14.5953  14.5964  14.6144  16.3562  16.3563  18.8883
    21.1346  24.1073  24.1073  28.0840  28.1740  31.1838  31.1840  32.1973
    32.1975  34.0562  35.2518  36.9182  39.3226  39.3228  40.0627  43.1316
    43.7090  44.7126  46.4381  46.4381  49.2257  49.2259  50.3299  50.5595
    50.8806  51.6685  52.3458  52.8339

          k = 0.0951-0.0476-0.1427 (  2598 PWs)   bands (ev):

     9.5411   9.5515  10.9667  10.9713  11.8705  11.8728  12.1022  12.1208
    12.4601  12.4687  12.6434  12.6602  13.1983  13.2026  13.3799  13.3829
    14.2018  14.2111  14.5008  14.5083  15.0518  15.0551  17.5851  17.5971
    22.1021  22.1109  25.8474  25.8533  29.5183  29.5258  33.0808  33.0817
    33.3035  33.3104  36.8759  36.9281  40.1000  40.1107  40.4464  40.4566
    45.1596  45.1633  45.6443  45.6711  47.6582  47.6736  50.5792  50.6003
    51.7046  51.7165  53.9368  53.9589

          k = 0.0951-0.0951 0.0951 (  2608 PWs)   bands (ev):

     8.9907  10.5576  10.5579  10.5579  12.0671  12.0673  12.0673  12.5445
    12.7620  12.7620  12.7629  12.8897  12.8897  13.1622  13.1622  13.1624
    14.3277  14.3277  14.7388  14.7388  14.7390  16.6078  16.6079  16.6079
    21.7364  21.7364  21.7364  25.3624  32.5319  32.5319  32.5321  35.2897
    35.2899  35.2899  37.2707  37.2708  37.2711  37.6078  40.0202  40.0202
    44.4362  44.4362  47.7683  47.9955  47.9956  47.9967  48.1220  48.1222
    48.1222  52.4582  52.4585  52.4585

          k = 0.0951-0.0951-0.1427 (  2606 PWs)   bands (ev):

     9.8136   9.8184  10.5175  10.5178  12.2595  12.2597  12.5667  12.5791
    12.8125  12.8280  12.9222  12.9234  12.9661  12.9661  13.0299  13.0300
    14.6396  14.6416  14.6679  14.6684  14.8651  14.8678  16.7972  16.7972
    20.8059  20.8059  23.2415  23.2478  33.4093  33.4095  34.6973  34.6976
    36.1967  36.2201  37.2968  37.3079  39.0393  39.0765  39.3987  39.3988
    44.6598  44.6600  44.8530  44.8720  46.0037  46.0096  48.4919  48.4920
    49.6352  49.6429  53.0650  53.0659

     the Fermi energy is    14.4838 ev

!    total energy              =    -343.63022994 Ry
     Harris-Foulkes estimate   =    -343.63022994 Ry
     estimated scf accuracy    <          4.2E-09 Ry

     The total energy is the sum of the following terms:

     one-electron contribution =      -6.45322662 Ry
     hartree contribution      =      60.37244106 Ry
     xc contribution           =    -120.51340319 Ry
     ewald contribution        =    -276.98765451 Ry
     Dispersion Correction     =      -0.04781398 Ry
     smearing contrib. (-TS)   =      -0.00057271 Ry

     total magnetization       =     2.84 Bohr mag/cell
     absolute magnetization    =     3.25 Bohr mag/cell

     convergence has been achieved in  11 iterations

     Forces acting on atoms (Ry/au):

     atom    1 type  1   force =    -0.00171151   -0.00171151    0.00171195
     atom    2 type  1   force =     0.00171106    0.00171106    0.00171106
     atom    3 type  1   force =    -0.00171151    0.00171195   -0.00171151
     atom    4 type  1   force =     0.00171195   -0.00171151   -0.00171151

     Total force =     0.005929     Total SCF correction =     0.000009


     entering subroutine stress ...

          total   stress  (Ry/bohr**3)                   (kbar)     P=   -0.16
  -0.00000106  -0.00000001  -0.00000001         -0.16     -0.00     -0.00
  -0.00000001  -0.00000106  -0.00000001         -0.00     -0.16     -0.00
  -0.00000001  -0.00000001  -0.00000106         -0.00     -0.00     -0.16


     number of scf cycles    =   2
     number of bfgs steps    =   1

     enthalpy old            =    -343.6296369358 Ry
     enthalpy new            =    -343.6302299401 Ry

     CASE: enthalpy_new < enthalpy_old

     new trust radius        =       0.0032077362 bohr
     new conv_thr            =       0.0000000002 Ry

     new unit-cell volume =    290.06467 a.u.^3 (    42.98315 Ang^3 )

CELL_PARAMETERS (alat=  1.88972590)
   3.502940790  -0.000000496  -0.000000496
  -0.000000496   3.502940790  -0.000000496
  -0.000000496  -0.000000496   3.502940790

ATOMIC_POSITIONS (alat)
Ni1      1.757052618   1.757052618   0.002193696
Ni1      0.002193029   0.002193029   0.002193029
Ni1      1.757052618   0.002193696   1.757052618
Ni1      0.002193696   1.757052618   1.757052618



     Writing output data file Ni-ferromag.save
     NEW-OLD atomic charge density approx. for the potential

     Check: negative/imaginary core charge=   -0.000005    0.000000
     extrapolated charge   39.97551, renormalised to   40.00000

     total cpu time spent up to now is     1249.9 secs

     Self-consistent Calculation

     iteration #  1     ecut=    65.00 Ry     beta=0.20
     Davidson diagonalization with overlap
     ethr =  1.00E-06,  avg # of iterations =  2.4

     total cpu time spent up to now is     1310.6 secs

     total energy              =    -343.63011388 Ry
     Harris-Foulkes estimate   =    -343.65602259 Ry
     estimated scf accuracy    <       0.00019120 Ry

     total magnetization       =     2.83 Bohr mag/cell
     absolute magnetization    =     3.24 Bohr mag/cell

     iteration #  2     ecut=    65.00 Ry     beta=0.20
     Davidson diagonalization with overlap
     ethr =  4.78E-07,  avg # of iterations =  1.8

     total cpu time spent up to now is     1350.7 secs

     total energy              =    -343.63023606 Ry
     Harris-Foulkes estimate   =    -343.63025094 Ry
     estimated scf accuracy    <       0.00007887 Ry

     total magnetization       =     2.84 Bohr mag/cell
     absolute magnetization    =     3.26 Bohr mag/cell

     iteration #  3     ecut=    65.00 Ry     beta=0.20
     Davidson diagonalization with overlap
     ethr =  1.97E-07,  avg # of iterations =  1.0

     total cpu time spent up to now is     1389.7 secs

     total energy              =    -343.63021820 Ry
     Harris-Foulkes estimate   =    -343.63023857 Ry
     estimated scf accuracy    <       0.00002791 Ry

     total magnetization       =     2.84 Bohr mag/cell
     absolute magnetization    =     3.25 Bohr mag/cell

     iteration #  4     ecut=    65.00 Ry     beta=0.20
     Davidson diagonalization with overlap
     ethr =  6.98E-08,  avg # of iterations =  2.0

     total cpu time spent up to now is     1431.6 secs

     total energy              =    -343.63023370 Ry
     Harris-Foulkes estimate   =    -343.63024395 Ry
     estimated scf accuracy    <       0.00004862 Ry

     total magnetization       =     2.83 Bohr mag/cell
     absolute magnetization    =     3.25 Bohr mag/cell

     iteration #  5     ecut=    65.00 Ry     beta=0.20
     Davidson diagonalization with overlap
     ethr =  6.98E-08,  avg # of iterations =  1.0

     total cpu time spent up to now is     1470.6 secs

     total energy              =    -343.63023314 Ry
     Harris-Foulkes estimate   =    -343.63023549 Ry
     estimated scf accuracy    <       0.00001444 Ry

     total magnetization       =     2.83 Bohr mag/cell
     absolute magnetization    =     3.25 Bohr mag/cell

     iteration #  6     ecut=    65.00 Ry     beta=0.20
     Davidson diagonalization with overlap
     ethr =  3.61E-08,  avg # of iterations =  1.0

     total cpu time spent up to now is     1509.5 secs

     total energy              =    -343.63023066 Ry
     Harris-Foulkes estimate   =    -343.63023345 Ry
     estimated scf accuracy    <       0.00000612 Ry

     total magnetization       =     2.84 Bohr mag/cell
     absolute magnetization    =     3.25 Bohr mag/cell

     iteration #  7     ecut=    65.00 Ry     beta=0.20
     Davidson diagonalization with overlap
     ethr =  1.53E-08,  avg # of iterations =  1.0

     total cpu time spent up to now is     1548.5 secs

     total energy              =    -343.63023191 Ry
     Harris-Foulkes estimate   =    -343.63023196 Ry
     estimated scf accuracy    <       0.00000007 Ry

     total magnetization       =     2.84 Bohr mag/cell
     absolute magnetization    =     3.25 Bohr mag/cell

     iteration #  8     ecut=    65.00 Ry     beta=0.20
     Davidson diagonalization with overlap
     ethr =  1.79E-10,  avg # of iterations =  2.0

     total cpu time spent up to now is     1595.3 secs

     total energy              =    -343.63023203 Ry
     Harris-Foulkes estimate   =    -343.63023208 Ry
     estimated scf accuracy    <       0.00000054 Ry

     total magnetization       =     2.84 Bohr mag/cell
     absolute magnetization    =     3.25 Bohr mag/cell

     iteration #  9     ecut=    65.00 Ry     beta=0.20
     Davidson diagonalization with overlap
     ethr =  1.79E-10,  avg # of iterations =  1.0

     total cpu time spent up to now is     1634.2 secs

     total energy              =    -343.63023210 Ry
     Harris-Foulkes estimate   =    -343.63023204 Ry
     estimated scf accuracy    <       0.00000034 Ry

     total magnetization       =     2.84 Bohr mag/cell
     absolute magnetization    =     3.25 Bohr mag/cell

     iteration # 10     ecut=    65.00 Ry     beta=0.20
     Davidson diagonalization with overlap
     ethr =  1.79E-10,  avg # of iterations =  1.0

     total cpu time spent up to now is     1673.3 secs

     total energy              =    -343.63023184 Ry
     Harris-Foulkes estimate   =    -343.63023210 Ry
     estimated scf accuracy    <       0.00000062 Ry

     total magnetization       =     2.84 Bohr mag/cell
     absolute magnetization    =     3.25 Bohr mag/cell

     iteration # 11     ecut=    65.00 Ry     beta=0.20
     Davidson diagonalization with overlap
     ethr =  1.79E-10,  avg # of iterations =  2.0

     Magnetic moment per site:
     atom:    1    charge:    3.0049    magn:    0.3349    constr:    0.0000
     atom:    2    charge:    3.0031    magn:    0.3347    constr:    0.0000
     atom:    3    charge:    3.0049    magn:    0.3349    constr:    0.0000
     atom:    4    charge:    3.0049    magn:    0.3349    constr:    0.0000

     total cpu time spent up to now is     1718.0 secs

     End of self-consistent calculation

 ------ SPIN UP ------------


          k = 0.0000 0.0000 0.0000 (  2553 PWs)   bands (ev):

     5.4324   9.7162   9.7162   9.7162  10.1694  10.1695  10.1695  11.9488
    11.9488  11.9488  13.1277  13.1277  13.8458  13.8458  13.8458  13.9357
    13.9357  13.9357  13.9358  13.9358  13.9358  17.0745  17.0746  17.0746
    23.8136  23.8136  23.8136  29.5719  29.5720  29.5720  29.5720  29.5720
    29.5720  34.6497  34.6497  34.6498  37.9957  37.9959  37.9959  38.4997
    42.4769  42.4769  42.4769  46.0748  46.0748  46.0748  48.1788  55.1749
    55.1749  55.1749  57.6121  59.0339

          k = 0.0000 0.0000 0.0476 (  2605 PWs)   bands (ev):

     5.7986   9.7383   9.9004   9.9004  10.2799  10.2958  10.2959  11.8201
    12.0512  12.0512  13.0097  13.1743  13.2817  13.2818  13.6922  13.6922
    13.7599  13.7599  13.7962  13.9360  13.9360  15.4736  18.0333  18.0333
    23.9095  23.9095  26.0629  27.8200  27.8200  28.4484  28.4484  30.1323
    30.1323  34.7658  36.8227  36.8227  37.8640  38.1277  39.9528  39.9529
    40.2554  40.2554  40.9213  47.4948  48.1319  48.1319  49.1552  51.5631
    56.2707  56.2707  56.6793  56.6794

          k = 0.0000 0.0000 0.0952 (  2605 PWs)   bands (ev):

     6.8480   9.5091  10.3374  10.3375  10.5876  10.6789  10.6791  11.4760
    12.2255  12.2256  12.3478  12.3478  12.7219  13.3031  13.3093  13.3108
    13.3108  13.3239  13.3239  13.6621  13.9366  13.9366  19.9960  19.9960
    24.2267  24.2268  25.0463  25.0463  26.6802  26.6802  30.3629  31.7117
    31.7117  35.1291  36.7312  37.0339  37.0339  38.3531  38.6799  40.8672
    40.8672  44.1177  44.1178  44.1508  50.9308  51.0528  51.0528  51.0559
    51.0559  55.0410  55.9435  55.9436

          k =-0.0000-0.0000-0.1427 (  2594 PWs)   bands (ev):

     8.3426   8.3523  10.6136  10.6136  11.0154  11.0296  11.3188  11.3189
    11.3329  11.3330  12.5349  12.5548  12.7946  12.7946  12.8052  12.8052
    13.0655  13.0655  13.4773  13.4851  13.9368  13.9368  22.3694  22.3695
    22.3941  22.3941  24.5997  24.5998  25.7349  25.7349  34.0811  34.0811
    34.0984  34.0984  34.8945  34.9309  35.7724  35.7809  40.2450  40.3032
    45.6435  45.6435  45.6942  45.6942  47.6238  47.6239  52.2953  52.2953
    54.1578  54.1578  54.2045  54.2045

          k = 0.0000 0.0476 0.0476 (  2610 PWs)   bands (ev):

     6.1562   9.9367   9.9367  10.0636  10.3973  10.3974  10.4112  11.7601
    12.0962  12.1132  12.9355  12.9809  12.9938  12.9981  13.1698  13.5636
    13.6881  13.6881  13.7585  13.7585  13.8200  16.4058  16.4058  18.8032
    23.9036  25.1026  26.2502  26.2503  28.2976  28.2976  28.9408  28.9409
    30.6600  36.0392  36.1229  37.0311  37.0312  37.3369  40.1210  40.1210
    41.2757  42.6088  43.5361  45.2365  46.3679  49.7937  50.4603  53.0993
    53.6741  55.3554  55.3556  56.3094

          k = 0.0000 0.0476 0.0952 (  2629 PWs)   bands (ev):

     7.1779   9.7452  10.4188  10.4673  10.6791  10.7324  10.7515  11.4791
    11.9870  12.1265  12.2421  12.3595  12.3851  12.8183  13.2398  13.3155
    13.3276  13.3491  13.5013  13.7550  13.7615  14.4389  18.0202  20.5861
    22.0842  24.6121  25.5076  26.5368  27.4051  29.6113  29.9046  29.9609
    31.0195  33.7278  34.4712  37.6835  38.6364  40.3944  40.5730  40.7531
    41.1230  44.0451  45.0382  47.0634  47.7903  48.5929  49.8986  51.3406
    52.9455  53.2664  54.8227  56.2065

          k =-0.0000 0.0476-0.1427 (  2630 PWs)   bands (ev):

     8.6244   8.6335  10.7658  10.7664  11.0673  11.0810  11.1879  11.1995
    11.3335  11.3473  12.1640  12.1787  12.7953  12.8062  13.0276  13.0325
    13.0503  13.0509  13.6647  13.6648  13.7517  13.7539  19.8827  19.8952
    22.8699  22.8921  25.4073  25.4241  28.3105  28.3161  31.4973  31.5047
    32.0221  32.0272  35.8121  35.8539  38.8310  38.8342  42.2003  42.2362
    43.1127  43.1261  45.9210  45.9689  50.0663  50.1091  50.3500  50.3702
    52.6101  52.6261  53.2017  53.2146

          k = 0.0000 0.0952 0.0952 (  2614 PWs)   bands (ev):

     8.1045  10.3328  10.3328  10.6987  10.9471  10.9473  10.9611  11.4093
    11.6563  11.6563  11.8109  12.1295  12.4903  12.7320  13.0238  13.1787
    13.1788  13.3191  13.3192  13.4892  13.7045  15.6850  15.6850  19.3034
    22.1128  25.1628  26.7803  26.7804  27.9002  27.9003  30.9889  31.6435
    31.6449  31.7420  33.6085  36.8424  41.5321  41.8849  41.8849  43.0802
    43.4171  43.7770  43.7770  47.1951  47.3348  48.4803  48.4805  51.6796
    52.1830  52.1963  53.2058  55.3547

          k =-0.0000 0.0952-0.1427 (  2608 PWs)   bands (ev):

     9.3678   9.3752  10.7993  10.8081  11.1936  11.2032  11.2112  11.2134
    11.3527  11.3655  11.8606  11.8702  12.8321  12.8372  12.8378  12.8432
    12.9042  12.9060  13.3508  13.3574  14.3652  14.3669  17.2116  17.2213
    24.2286  24.2454  26.2238  26.2376  28.6524  28.6604  29.5411  29.5429
    32.9518  32.9555  36.7751  36.8159  40.3655  40.3735  43.0506  43.0585
    43.2201  43.2238  46.7259  46.7649  47.9181  47.9417  50.4220  50.4437
    51.7502  51.7851  53.5641  53.5733

          k =-0.0000-0.1427-0.1427 (  2624 PWs)   bands (ev):

    10.2183  10.2247  10.2247  10.2310  11.3087  11.3209  11.3209  11.3330
    11.6267  11.6302  11.6302  11.6337  12.6901  12.6913  12.6913  12.6926
    12.9957  13.0058  13.0058  13.0158  15.4319  15.4364  15.4364  15.4411
    26.1996  26.2112  26.2113  26.2228  27.5746  27.5828  27.5829  27.5913
    37.8864  37.8976  37.8976  37.9092  38.4911  38.5049  38.5049  38.5178
    47.1835  47.1835  47.1836  47.1840  49.1735  49.1955  49.1955  49.2175
    51.8229  51.8248  51.8248  51.8266

          k = 0.0476 0.0476 0.0476 (  2629 PWs)   bands (ev):

     6.5020  10.0976  10.0977  10.0977  10.5118  10.5119  10.5119  11.7252
    12.1328  12.1328  12.6898  12.6898  12.6899  13.0829  13.0829  13.3302
    13.3303  13.3303  13.8741  13.8741  13.8741  17.0330  17.0331  17.0331
    25.3292  25.3292  25.3292  26.5955  26.5955  26.5955  31.1753  31.1754
    31.1754  33.4865  36.1705  36.1705  36.1706  39.2569  41.1427  41.1427
    42.8161  42.8162  42.8162  46.5976  47.6531  47.6531  51.6489  51.6489
    55.1126  55.2339  55.2341  55.2341

          k = 0.0476 0.0476 0.0952 (  2616 PWs)   bands (ev):

     7.4835   9.9039  10.4807  10.4808  10.7975  10.8257  10.8257  11.5158
    11.9773  11.9773  12.1718  12.2131  12.2724  12.9278  12.9982  13.0842
    13.0846  13.3227  13.7768  13.7768  13.8091  14.8008  18.3754  18.3754
    22.7101  22.7101  26.6229  27.2467  27.2468  30.3622  30.3623  30.7490
    30.9516  32.6551  36.6496  37.7806  37.8551  38.7950  38.7950  42.3655
    43.5084  44.4749  47.0258  47.0258  47.8878  49.0884  50.2056  50.2056
    50.7011  53.0223  53.0832  55.6631

          k = 0.0476 0.0476-0.1427 (  2596 PWs)   bands (ev):

     8.8519   8.8600  10.8679  10.8681  10.9260  10.9261  11.1630  11.1759
    11.5834  11.5834  12.0684  12.0828  12.5431  12.5480  12.9165  12.9166
    13.4871  13.4972  13.5976  13.5998  13.7208  13.7208  19.5242  19.5242
    21.1489  21.1489  28.2102  28.2110  28.4471  28.4525  28.9311  28.9324
    34.9356  34.9501  35.4050  35.4337  38.0845  38.1145  42.2091  42.2091
    44.7534  44.7697  45.3743  45.3743  49.4743  49.4968  50.9007  50.9085
    52.1908  52.1908  53.6845  53.6864

          k = 0.0476 0.0952 0.0952 (  2613 PWs)   bands (ev):

     8.3224  10.2217  10.2217  10.5078  11.1131  11.1591  11.1592  11.5608
    11.7733  11.7734  11.9066  12.1315  12.2573  12.7356  12.7357  12.7521
    13.0551  13.6101  13.6790  13.6946  13.6951  15.8157  15.8157  18.6272
    20.8066  23.9069  23.9069  27.9454  28.0589  31.1382  31.1382  32.1247
    32.1248  34.0215  35.2457  36.9133  39.3292  39.3292  40.1590  43.0427
    43.7401  44.7892  46.4682  46.4682  49.1973  49.1974  50.4230  50.6009
    50.9300  51.6237  52.3067  52.9317

          k = 0.0476 0.0952-0.1427 (  2598 PWs)   bands (ev):

     9.4032   9.4081  10.4422  10.4437  11.3264  11.3268  11.4698  11.4802
    11.7780  11.7824  11.8964  11.9059  12.4048  12.4084  12.6163  12.6185
    13.3503  13.3543  13.5779  13.5821  14.2715  14.2731  17.1895  17.1974
    21.8193  21.8255  25.6655  25.6699  29.4376  29.4415  33.0428  33.0444
    33.2558  33.2593  36.8925  36.9260  40.1386  40.1459  40.4479  40.4539
    45.1963  45.1990  45.6815  45.6977  47.7051  47.7137  50.5714  50.5848
    51.7922  51.8000  53.8911  53.9062

          k = 0.0476-0.1427-0.1427 (  2588 PWs)   bands (ev):

     9.9729   9.9750   9.9750   9.9770  11.7144  11.7177  11.7177  11.7210
    11.7982  11.8053  11.8053  11.8124  12.3746  12.3781  12.3781  12.3816
    13.3285  13.3349  13.3349  13.3412  15.3423  15.3473  15.3473  15.3524
    23.4515  23.4563  23.4563  23.4611  30.9758  30.9773  30.9773  30.9789
    38.1683  38.1775  38.1775  38.1883  38.3365  38.3492  38.3492  38.3599
    46.6598  46.6599  46.6599  46.6615  46.7513  46.7639  46.7639  46.7751
    54.8069  54.8158  54.8158  55.0789

          k = 0.0952 0.0952 0.0952 (  2608 PWs)   bands (ev):

     8.8662  10.0566  10.0567  10.0567  11.5176  11.5178  11.5178  12.0316
    12.0905  12.0905  12.0932  12.1005  12.1005  12.3814  12.3814  12.3815
    13.4579  13.4579  13.8229  13.8229  13.8229  16.1939  16.1940  16.1940
    21.4140  21.4140  21.4140  25.1542  32.5042  32.5042  32.5042  35.2488
    35.2489  35.2489  37.2786  37.2786  37.2786  37.7960  39.9569  39.9569
    44.4504  44.4504  47.7789  48.0712  48.0712  48.0715  48.1455  48.1455
    48.1455  52.4550  52.4551  52.4551

          k = 0.0952 0.0952-0.1427 (  2606 PWs)   bands (ev):

     9.4916   9.4929   9.9881   9.9882  11.6375  11.6376  11.9202  11.9281
    12.1404  12.1415  12.2601  12.2614  12.2725  12.2807  12.3760  12.3762
    13.7428  13.7436  13.7512  13.7515  14.1621  14.1625  16.4782  16.4782
    20.3850  20.3850  22.9696  22.9741  33.4198  33.4198  34.6322  34.6324
    36.3276  36.3416  37.2477  37.2552  38.9883  39.0121  39.4448  39.4448
    44.6574  44.6575  44.9025  44.9143  46.0208  46.0240  48.5564  48.5564
    49.6096  49.6146  52.9840  52.9844

          k = 0.0952-0.1427-0.1427 (  2608 PWs)   bands (ev):

     9.6677   9.6679   9.6679   9.6679  11.8816  11.8837  11.8837  11.8857
    12.0712  12.0734  12.0734  12.0757  12.8186  12.8231  12.8231  12.8276
    13.6679  13.6713  13.6713  13.6748  14.9648  14.9706  14.9706  14.9763
    21.0946  21.0985  21.0985  21.1024  35.1576  35.1595  35.1596  35.1615
    38.2181  38.2242  38.2243  38.2306  38.9393  38.9456  38.9457  38.9515
    44.0939  44.0994  44.0994  44.1048  45.1612  45.1626  45.1626  45.1639
    50.4239  50.4262  50.4262  50.4288

          k =-0.1427-0.1427-0.1427 (  2608 PWs)   bands (ev):

     9.5517   9.5519   9.5519   9.5519  11.9618  11.9618  11.9618  11.9619
    11.9619  11.9620  11.9620  11.9620  13.7986  13.7986  13.7986  13.7988
    13.7988  13.7988  13.7988  13.7988  14.2952  14.2953  14.2954  14.2954
    20.2173  20.2173  20.2173  20.2174  36.9546  36.9548  36.9548  36.9548
    39.5820  39.5820  39.5820  39.5820  39.5820  39.5822  39.5822  39.5822
    42.8079  42.8079  42.8080  42.8080  42.8080  42.8080  42.8081  42.8081
    48.7801  48.7801  48.7801  48.7802

          k =-0.0476-0.0000 0.0476 (  2610 PWs)   bands (ev):

     6.1562   9.9367   9.9367  10.0636  10.3973  10.3974  10.4112  11.7601
    12.0962  12.1132  12.9355  12.9809  12.9939  12.9981  13.1698  13.5636
    13.6881  13.6881  13.7585  13.7585  13.8200  16.4058  16.4058  18.8032
    23.9036  25.1026  26.2502  26.2503  28.2976  28.2976  28.9408  28.9409
    30.6601  36.0392  36.1229  37.0311  37.0312  37.3369  40.1209  40.1211
    41.2757  42.6088  43.5361  45.2365  46.3680  49.7937  50.4603  53.0993
    53.6741  55.3553  55.3556  56.3094

          k =-0.0476 0.0000 0.0952 (  2629 PWs)   bands (ev):

     7.1779   9.7452  10.4188  10.4673  10.6791  10.7324  10.7515  11.4791
    11.9870  12.1265  12.2421  12.3595  12.3851  12.8183  13.2398  13.3155
    13.3276  13.3491  13.5013  13.7550  13.7615  14.4389  18.0202  20.5861
    22.0842  24.6121  25.5076  26.5368  27.4051  29.6113  29.9046  29.9609
    31.0195  33.7278  34.4712  37.6835  38.6364  40.3944  40.5730  40.7531
    41.1230  44.0451  45.0382  47.0633  47.7903  48.5929  49.8986  51.3406
    52.9455  53.2664  54.8227  56.2065

          k =-0.0952-0.0000 0.0952 (  2614 PWs)   bands (ev):

     8.1045  10.3328  10.3328  10.6987  10.9471  10.9473  10.9611  11.4093
    11.6563  11.6563  11.8109  12.1295  12.4903  12.7320  13.0238  13.1787
    13.1788  13.3191  13.3192  13.4892  13.7045  15.6850  15.6850  19.3034
    22.1128  25.1628  26.7803  26.7804  27.9002  27.9003  30.9888  31.6435
    31.6449  31.7420  33.6085  36.8424  41.5321  41.8849  41.8849  43.0803
    43.4171  43.7770  43.7770  47.1951  47.3348  48.4803  48.4805  51.6796
    52.1830  52.1963  53.2058  55.3544

          k = 0.0476-0.0476 0.0476 (  2629 PWs)   bands (ev):

     6.5020  10.0976  10.0976  10.0977  10.5118  10.5119  10.5119  11.7252
    12.1328  12.1328  12.6898  12.6898  12.6899  13.0829  13.0829  13.3302
    13.3303  13.3303  13.8741  13.8741  13.8741  17.0330  17.0330  17.0331
    25.3292  25.3292  25.3292  26.5955  26.5955  26.5956  31.1753  31.1754
    31.1754  33.4864  36.1705  36.1706  36.1706  39.2569  41.1427  41.1427
    42.8161  42.8162  42.8162  46.5976  47.6531  47.6531  51.6489  51.6489
    55.1126  55.2339  55.2341  55.2341

          k = 0.0476-0.0476 0.0952 (  2616 PWs)   bands (ev):

     7.4835   9.9039  10.4807  10.4808  10.7975  10.8257  10.8257  11.5158
    11.9773  11.9773  12.1718  12.2131  12.2724  12.9278  12.9982  13.0842
    13.0846  13.3227  13.7768  13.7768  13.8091  14.8008  18.3754  18.3754
    22.7101  22.7101  26.6229  27.2468  27.2468  30.3622  30.3623  30.7490
    30.9516  32.6551  36.6497  37.7806  37.8551  38.7950  38.7950  42.3655
    43.5083  44.4749  47.0258  47.0258  47.8878  49.0884  50.2055  50.2056
    50.7011  53.0223  53.0832  55.6631

          k =-0.0952 0.0476 0.0476 (  2616 PWs)   bands (ev):

     7.4835   9.9039  10.4807  10.4808  10.7975  10.8257  10.8257  11.5158
    11.9773  11.9773  12.1718  12.2131  12.2724  12.9278  12.9982  13.0842
    13.0846  13.3227  13.7768  13.7768  13.8091  14.8008  18.3754  18.3754
    22.7101  22.7101  26.6229  27.2467  27.2468  30.3622  30.3623  30.7490
    30.9516  32.6551  36.6496  37.7806  37.8551  38.7950  38.7950  42.3655
    43.5084  44.4749  47.0258  47.0258  47.8878  49.0884  50.2056  50.2056
    50.7011  53.0223  53.0832  55.6630

          k = 0.0476-0.0476-0.1427 (  2596 PWs)   bands (ev):

     8.8519   8.8600  10.8679  10.8681  10.9260  10.9261  11.1630  11.1759
    11.5834  11.5834  12.0684  12.0828  12.5431  12.5480  12.9165  12.9166
    13.4871  13.4972  13.5976  13.5998  13.7208  13.7208  19.5242  19.5242
    21.1489  21.1489  28.2102  28.2110  28.4471  28.4525  28.9311  28.9324
    34.9356  34.9501  35.4050  35.4337  38.0845  38.1145  42.2091  42.2091
    44.7534  44.7697  45.3743  45.3744  49.4743  49.4968  50.9007  50.9085
    52.1908  52.1909  53.6845  53.6863

          k = 0.0952-0.0476 0.0952 (  2613 PWs)   bands (ev):

     8.3224  10.2217  10.2217  10.5078  11.1131  11.1591  11.1592  11.5608
    11.7733  11.7734  11.9066  12.1315  12.2573  12.7356  12.7357  12.7521
    13.0551  13.6101  13.6790  13.6946  13.6951  15.8157  15.8157  18.6272
    20.8066  23.9069  23.9069  27.9454  28.0588  31.1382  31.1382  32.1247
    32.1248  34.0215  35.2457  36.9133  39.3292  39.3293  40.1590  43.0427
    43.7401  44.7892  46.4682  46.4682  49.1973  49.1974  50.4229  50.6009
    50.9300  51.6237  52.3067  52.9317

          k =-0.0952 0.0476 0.0952 (  2613 PWs)   bands (ev):

     8.3224  10.2217  10.2217  10.5078  11.1131  11.1591  11.1592  11.5608
    11.7733  11.7734  11.9066  12.1315  12.2573  12.7356  12.7357  12.7521
    13.0551  13.6101  13.6790  13.6946  13.6951  15.8157  15.8157  18.6272
    20.8066  23.9069  23.9069  27.9454  28.0588  31.1381  31.1382  32.1247
    32.1248  34.0215  35.2457  36.9133  39.3292  39.3293  40.1590  43.0427
    43.7401  44.7892  46.4682  46.4682  49.1973  49.1974  50.4229  50.6009
    50.9300  51.6237  52.3067  52.9317

          k = 0.0952-0.0476-0.1427 (  2598 PWs)   bands (ev):

     9.4032   9.4081  10.4422  10.4437  11.3264  11.3268  11.4698  11.4802
    11.7780  11.7824  11.8964  11.9059  12.4048  12.4084  12.6163  12.6185
    13.3503  13.3543  13.5779  13.5821  14.2715  14.2731  17.1895  17.1974
    21.8193  21.8255  25.6655  25.6699  29.4376  29.4415  33.0428  33.0444
    33.2558  33.2593  36.8925  36.9260  40.1386  40.1459  40.4479  40.4539
    45.1963  45.1990  45.6815  45.6977  47.7051  47.7137  50.5713  50.5848
    51.7922  51.8000  53.8911  53.9066

          k = 0.0952-0.0952 0.0952 (  2608 PWs)   bands (ev):

     8.8662  10.0566  10.0567  10.0567  11.5177  11.5178  11.5178  12.0316
    12.0905  12.0905  12.0932  12.1005  12.1005  12.3814  12.3814  12.3815
    13.4579  13.4580  13.8229  13.8229  13.8229  16.1940  16.1940  16.1940
    21.4140  21.4140  21.4140  25.1542  32.5041  32.5042  32.5042  35.2489
    35.2489  35.2489  37.2785  37.2786  37.2787  37.7960  39.9569  39.9569
    44.4504  44.4504  47.7789  48.0711  48.0712  48.0715  48.1455  48.1455
    48.1455  52.4550  52.4551  52.4551

          k = 0.0952-0.0952-0.1427 (  2606 PWs)   bands (ev):

     9.4916   9.4929   9.9881   9.9882  11.6375  11.6376  11.9202  11.9281
    12.1404  12.1415  12.2601  12.2614  12.2725  12.2807  12.3760  12.3762
    13.7428  13.7436  13.7512  13.7515  14.1621  14.1625  16.4782  16.4782
    20.3850  20.3850  22.9696  22.9741  33.4197  33.4198  34.6322  34.6323
    36.3276  36.3416  37.2477  37.2552  38.9883  39.0121  39.4448  39.4449
    44.6574  44.6575  44.9025  44.9143  46.0208  46.0240  48.5564  48.5564
    49.6096  49.6146  52.9840  52.9843

 ------ SPIN DOWN ----------


          k = 0.0000 0.0000 0.0000 (  2553 PWs)   bands (ev):

     5.3778  10.1782  10.1783  10.1783  10.8876  10.8878  10.8878  12.8293
    12.8293  12.8293  13.9079  13.9079  14.6599  14.6600  14.6600  14.9452
    14.9452  14.9452  14.9453  14.9453  14.9453  16.9958  16.9958  16.9958
    24.1193  24.1193  24.1193  29.5582  29.5582  29.5582  29.5583  29.5583
    29.5583  34.8140  34.8140  34.8141  38.1392  38.1394  38.1394  38.2942
    42.4476  42.4476  42.4477  46.1473  46.1473  46.1473  48.0194  55.3639
    55.3639  55.3639  58.1322  59.5510

          k = 0.0000 0.0000 0.0476 (  2605 PWs)   bands (ev):

     5.7440  10.1539  10.3725  10.3725  11.0070  11.0115  11.0116  12.6873
    12.9357  12.9357  13.7802  13.9566  14.1019  14.1020  14.4929  14.4929
    14.6080  14.7526  14.7526  14.9456  14.9456  15.5437  18.1401  18.1402
    24.2001  24.2001  26.2649  27.8886  27.8887  28.4756  28.4757  30.1349
    30.1350  34.9176  36.9037  36.9037  37.7253  38.2688  40.0731  40.0732
    40.2975  40.2975  40.8514  47.5154  48.1058  48.1058  49.2268  51.5540
    56.4820  56.4820  56.6059  56.6060

          k = 0.0000 0.0000 0.0952 (  2605 PWs)   bands (ev):

     6.7977   9.7173  10.8340  10.8340  11.3402  11.3893  11.3894  12.3089
    12.9549  12.9550  13.2455  13.2455  13.4593  13.6801  14.0808  14.0808
    14.0913  14.2777  14.2777  14.4673  14.9462  14.9462  20.1811  20.1812
    24.4729  24.4730  25.1870  25.1870  26.7783  26.7784  30.4585  31.7487
    31.7487  35.2431  36.6966  37.1054  37.1054  38.2629  38.8259  40.8726
    40.8727  44.2171  44.2171  44.3689  50.8865  50.9579  50.9580  50.9825
    50.9825  54.9368  56.1846  56.1847

          k =-0.0000-0.0000-0.1427 (  2594 PWs)   bands (ev):

     8.3359   8.3460  11.1258  11.1258  11.8054  11.8206  12.0280  12.0281
    12.0424  12.0426  13.1820  13.2038  13.7158  13.7158  13.7269  13.7269
    13.8123  13.8123  14.2737  14.2819  14.9465  14.9465  22.5508  22.5509
    22.5760  22.5761  24.7965  24.7965  25.8922  25.8923  34.1462  34.1462
    34.1635  34.1635  34.8742  34.9116  35.8230  35.8333  40.4365  40.4957
    45.5985  45.5985  45.6504  45.6504  47.6978  47.6979  52.4845  52.4845
    54.0475  54.0475  54.0943  54.0943

          k = 0.0000 0.0476 0.0476 (  2610 PWs)   bands (ev):

     6.1025  10.3649  10.3649  10.5546  11.1110  11.1214  11.1215  12.6136
    12.9861  12.9905  13.7006  13.7370  13.7420  13.7588  13.9570  14.3544
    14.4805  14.4805  14.7514  14.7515  14.8222  16.7204  16.7204  18.9689
    24.1624  25.2323  26.4390  26.4390  28.3805  28.3806  28.9818  28.9820
    30.6711  36.1144  36.1435  37.1018  37.1019  37.3544  40.2389  40.2389
    41.1949  42.6962  43.5052  45.1801  46.4286  49.9524  50.3858  53.2719
    53.6398  55.3174  55.3177  56.2496

          k = 0.0000 0.0476 0.0952 (  2629 PWs)   bands (ev):

     7.1323   9.9679  10.8812  10.9995  11.3944  11.4271  11.4685  12.3012
    12.6784  12.8475  13.0404  13.0825  13.2617  13.5828  14.0048  14.0900
    14.1603  14.2468  14.2761  14.7484  14.7580  15.1481  18.3589  20.7902
    22.2828  24.8401  25.6593  26.6716  27.5303  29.7198  29.9666  30.0312
    31.1169  33.8060  34.5137  37.7255  38.6744  40.3460  40.5207  40.8729
    41.1226  44.1273  45.2427  47.1298  47.7128  48.5753  49.8827  51.2659
    52.9011  53.1758  55.0426  56.4593

          k =-0.0000 0.0476-0.1427 (  2630 PWs)   bands (ev):

     8.6298   8.6393  11.2688  11.2701  11.8480  11.8622  11.8670  11.8785
    12.0454  12.0596  12.9039  12.9208  13.7191  13.7304  13.7965  13.7989
    13.8022  13.8042  14.5032  14.5037  14.7458  14.7483  20.1641  20.1768
    23.0630  23.0854  25.5782  25.5963  28.4270  28.4336  31.6118  31.6184
    32.0803  32.0847  35.8374  35.8792  38.8328  38.8351  42.3524  42.3895
    43.1051  43.1199  45.8725  45.9215  50.1321  50.1742  50.2824  50.3027
    52.5263  52.5429  53.3698  53.3826

          k = 0.0000 0.0952 0.0952 (  2614 PWs)   bands (ev):

     8.0823  10.6061  10.6061  11.3630  11.4454  11.6828  11.6831  12.2033
    12.3496  12.3496  12.5233  12.9208  13.4057  13.4791  13.7775  13.9162
    13.9163  14.2801  14.2801  14.4701  14.5469  16.2903  16.2903  19.6111
    22.3320  25.3612  26.9472  26.9472  28.0014  28.0015  31.1199  31.7321
    31.7337  31.8097  33.6610  36.8782  41.4686  41.8668  41.8669  43.1149
    43.2998  43.8194  43.8194  47.3164  47.3641  48.5252  48.5254  51.7392
    52.0733  52.1378  53.4092  55.2591

          k =-0.0000 0.0952-0.1427 (  2608 PWs)   bands (ev):

     9.4288   9.4370  11.2191  11.2277  11.8484  11.8493  11.9579  11.9715
    12.0732  12.0866  12.5971  12.6077  13.5718  13.5721  13.6446  13.6463
    13.7667  13.7783  14.3192  14.3262  15.1711  15.1733  17.6759  17.6855
    24.4340  24.4504  26.3750  26.3900  28.8152  28.8223  29.6309  29.6333
    33.0231  33.0277  36.8027  36.8436  40.3649  40.3720  42.9968  43.0041
    43.2387  43.2419  46.6638  46.7036  47.9999  48.0245  50.3691  50.3914
    51.8712  51.9059  53.4791  53.4877

          k =-0.0000-0.1427-0.1427 (  2624 PWs)   bands (ev):

    10.4369  10.4441  10.4441  10.4512  12.0458  12.0589  12.0589  12.0718
    12.2955  12.2996  12.2996  12.3036  13.4278  13.4291  13.4291  13.4306
    13.9443  13.9549  13.9549  13.9655  16.1145  16.1184  16.1184  16.1223
    26.3954  26.4063  26.4064  26.4171  27.6972  27.7064  27.7065  27.7159
    37.9609  37.9717  37.9717  37.9831  38.4580  38.4711  38.4711  38.4831
    47.0632  47.0636  47.0637  47.0647  49.1622  49.1848  49.1848  49.2073
    51.9230  51.9260  51.9260  51.9289

          k = 0.0476 0.0476 0.0476 (  2629 PWs)   bands (ev):

     6.4512  10.5528  10.5528  10.5528  11.2125  11.2127  11.2127  12.5587
    13.0111  13.0111  13.4006  13.4006  13.4006  13.8693  13.8693  14.1613
    14.1615  14.1615  14.8226  14.8226  14.8226  17.3741  17.3741  17.3741
    25.4607  25.4608  25.4608  26.7688  26.7688  26.7689  31.1972  31.1973
    31.1973  33.5531  36.2656  36.2656  36.2656  39.1016  41.1953  41.1953
    42.9002  42.9003  42.9003  46.5103  47.6103  47.6103  51.8157  51.8157
    55.1871  55.1874  55.1874  55.4500

          k = 0.0476 0.0476 0.0952 (  2616 PWs)   bands (ev):

     7.4485  10.1666  11.0124  11.0124  11.4541  11.4542  11.5100  12.3115
    12.6798  12.6798  12.8450  13.0430  13.1329  13.7742  13.8081  13.8712
    13.8718  14.1451  14.7104  14.7402  14.7403  15.4312  18.7023  18.7024
    22.9204  22.9204  26.7671  27.3958  27.3959  30.4371  30.4372  30.8632
    31.0391  32.7016  36.7242  37.6865  37.9323  38.8254  38.8254  42.3731
    43.5887  44.4923  47.0700  47.0700  47.9299  49.0342  50.1945  50.1946
    50.7081  52.9518  53.0434  55.7779

          k = 0.0476 0.0476-0.1427 (  2596 PWs)   bands (ev):

     8.8862   8.8949  11.4401  11.4401  11.5074  11.5076  11.9134  11.9274
    12.2975  12.2975  12.8173  12.8334  13.3943  13.3983  13.6803  13.6803
    14.2915  14.3024  14.4594  14.4606  14.6926  14.6927  19.7816  19.7816
    21.4529  21.4529  28.3252  28.3260  28.5893  28.5941  29.0458  29.0472
    35.0051  35.0194  35.3779  35.4076  38.1617  38.1919  42.1904  42.1905
    44.8397  44.8573  45.3634  45.3634  49.3948  49.4175  50.8550  50.8629
    52.2243  52.2243  53.8629  53.8660

          k = 0.0476 0.0952 0.0952 (  2613 PWs)   bands (ev):

     8.3344  10.6145  10.6146  11.1263  11.6202  11.7610  11.7611  12.2876
    12.4935  12.4936  12.6185  12.9323  13.0816  13.5347  13.5352  13.5378
    13.8986  14.4592  14.6075  14.6080  14.6252  16.3691  16.3691  18.9020
    21.1505  24.1240  24.1240  28.1063  28.1876  31.2020  31.2020  32.2173
    32.2174  34.0761  35.2713  36.9386  39.3440  39.3441  40.0827  43.1563
    43.7319  44.7351  46.4622  46.4622  49.2521  49.2522  50.3547  50.5846
    50.9064  51.6964  52.3723  52.8587

          k = 0.0476 0.0952-0.1427 (  2598 PWs)   bands (ev):

     9.5519   9.5584  10.9765  10.9794  11.8803  11.8817  12.1151  12.1270
    12.4714  12.4768  12.6562  12.6668  13.2095  13.2122  13.3910  13.3929
    14.2147  14.2206  14.5136  14.5183  15.0643  15.0665  17.6007  17.6084
    22.1198  22.1254  25.8659  25.8696  29.5377  29.5425  33.1001  33.1007
    33.3244  33.3288  36.9058  36.9389  40.1231  40.1299  40.4703  40.4767
    45.1838  45.1861  45.6729  45.6900  47.6854  47.6952  50.6097  50.6231
    51.7319  51.7394  53.9727  53.9861

          k = 0.0476-0.1427-0.1427 (  2588 PWs)   bands (ev):

    10.3280  10.3320  10.3320  10.3359  12.2825  12.2882  12.2882  12.2939
    12.5013  12.5084  12.5084  12.5154  13.1522  13.1553  13.1553  13.1584
    14.2397  14.2470  14.2470  14.2543  15.9888  15.9930  15.9930  15.9973
    23.7100  23.7140  23.7141  23.7180  31.0576  31.0600  31.0600  31.0625
    38.2409  38.2474  38.2474  38.2603  38.2881  38.3024  38.3025  38.3100
    46.5920  46.5920  46.5921  46.5930  46.7762  46.7893  46.7893  46.8017
    54.8704  54.8799  54.8800  55.0937

          k = 0.0952 0.0952 0.0952 (  2608 PWs)   bands (ev):

     8.9994  10.5664  10.5665  10.5665  12.0767  12.0768  12.0768  12.5546
    12.7723  12.7723  12.7726  12.8995  12.8995  13.1726  13.1726  13.1727
    14.3390  14.3390  14.7506  14.7506  14.7506  16.6205  16.6206  16.6206
    21.7526  21.7526  21.7526  25.3797  32.5506  32.5506  32.5507  35.3103
    35.3104  35.3104  37.2913  37.2913  37.2914  37.6251  40.0430  40.0430
    44.4598  44.4598  47.7941  48.0197  48.0197  48.0201  48.1469  48.1471
    48.1471  52.4863  52.4864  52.4864

          k = 0.0952 0.0952-0.1427 (  2606 PWs)   bands (ev):

     9.8231   9.8262  10.5262  10.5263  12.2692  12.2693  12.5789  12.5868
    12.8254  12.8352  12.9327  12.9334  12.9760  12.9760  13.0401  13.0401
    14.6516  14.6529  14.6797  14.6799  14.8773  14.8790  16.8098  16.8098
    20.8220  20.8221  23.2593  23.2633  33.4276  33.4277  34.7182  34.7184
    36.2186  36.2334  37.3204  37.3274  39.0687  39.0922  39.4195  39.4195
    44.6840  44.6841  44.8797  44.8917  46.0289  46.0327  48.5164  48.5164
    49.6632  49.6680  53.0931  53.0935

          k = 0.0952-0.1427-0.1427 (  2608 PWs)   bands (ev):

    10.1377  10.1386  10.1386  10.1394  12.6146  12.6166  12.6166  12.6186
    12.8472  12.8493  12.8493  12.8515  13.2582  13.2634  13.2635  13.2687
    14.5856  14.5895  14.5895  14.5935  15.4974  15.5022  15.5022  15.5068
    21.4880  21.4912  21.4913  21.4945  35.1307  35.1337  35.1337  35.1367
    38.1878  38.1934  38.1934  38.1991  39.0088  39.0148  39.0148  39.0204
    44.1254  44.1315  44.1316  44.1376  45.1536  45.1554  45.1554  45.1571
    50.5143  50.5167  50.5167  50.5194

          k =-0.1427-0.1427-0.1427 (  2608 PWs)   bands (ev):

    10.0531  10.0533  10.0533  10.0533  12.7348  12.7348  12.7348  12.7349
    12.7349  12.7349  12.7350  12.7350  14.1957  14.1958  14.1958  14.1959
    14.7223  14.7223  14.7223  14.7224  14.7224  14.7224  14.7224  14.7224
    20.6996  20.6996  20.6996  20.6997  36.7706  36.7709  36.7709  36.7709
    39.6521  39.6521  39.6521  39.6521  39.6521  39.6523  39.6523  39.6523
    42.8384  42.8384  42.8384  42.8385  42.8385  42.8385  42.8386  42.8386
    48.8942  48.8942  48.8942  48.8943

          k =-0.0476-0.0000 0.0476 (  2610 PWs)   bands (ev):

     6.1025  10.3649  10.3649  10.5546  11.1110  11.1214  11.1215  12.6136
    12.9861  12.9905  13.7006  13.7370  13.7420  13.7588  13.9570  14.3544
    14.4805  14.4805  14.7514  14.7515  14.8222  16.7204  16.7204  18.9689
    24.1624  25.2323  26.4389  26.4390  28.3805  28.3806  28.9818  28.9820
    30.6711  36.1144  36.1435  37.1018  37.1019  37.3544  40.2387  40.2390
    41.1949  42.6962  43.5052  45.1802  46.4286  49.9524  50.3858  53.2719
    53.6398  55.3174  55.3176  56.2497

          k =-0.0476 0.0000 0.0952 (  2629 PWs)   bands (ev):

     7.1323   9.9679  10.8812  10.9995  11.3944  11.4271  11.4685  12.3012
    12.6784  12.8475  13.0404  13.0825  13.2617  13.5828  14.0048  14.0900
    14.1603  14.2468  14.2761  14.7484  14.7580  15.1481  18.3589  20.7902
    22.2827  24.8401  25.6593  26.6716  27.5303  29.7198  29.9666  30.0312
    31.1169  33.8060  34.5137  37.7255  38.6744  40.3460  40.5207  40.8729
    41.1226  44.1273  45.2427  47.1298  47.7128  48.5753  49.8827  51.2659
    52.9011  53.1758  55.0427  56.4593

          k =-0.0952-0.0000 0.0952 (  2614 PWs)   bands (ev):

     8.0823  10.6061  10.6061  11.3630  11.4454  11.6828  11.6831  12.2033
    12.3496  12.3496  12.5233  12.9208  13.4057  13.4791  13.7775  13.9162
    13.9163  14.2801  14.2801  14.4701  14.5469  16.2903  16.2903  19.6111
    22.3320  25.3612  26.9472  26.9473  28.0014  28.0016  31.1199  31.7321
    31.7337  31.8097  33.6610  36.8782  41.4686  41.8669  41.8669  43.1149
    43.2998  43.8194  43.8194  47.3164  47.3641  48.5252  48.5254  51.7391
    52.0733  52.1378  53.4092  55.2588

          k = 0.0476-0.0476 0.0476 (  2629 PWs)   bands (ev):

     6.4512  10.5528  10.5528  10.5528  11.2125  11.2127  11.2127  12.5587
    13.0111  13.0111  13.4006  13.4006  13.4006  13.8693  13.8693  14.1614
    14.1614  14.1615  14.8226  14.8226  14.8226  17.3741  17.3741  17.3741
    25.4607  25.4608  25.4608  26.7688  26.7688  26.7689  31.1972  31.1973
    31.1973  33.5531  36.2655  36.2656  36.2657  39.1016  41.1953  41.1953
    42.9002  42.9003  42.9003  46.5103  47.6103  47.6104  51.8157  51.8157
    55.1872  55.1874  55.1874  55.4500

          k = 0.0476-0.0476 0.0952 (  2616 PWs)   bands (ev):

     7.4485  10.1666  11.0124  11.0124  11.4541  11.4542  11.5100  12.3115
    12.6798  12.6798  12.8450  13.0430  13.1329  13.7742  13.8081  13.8712
    13.8718  14.1451  14.7104  14.7402  14.7403  15.4312  18.7024  18.7024
    22.9204  22.9204  26.7671  27.3958  27.3958  30.4371  30.4372  30.8632
    31.0391  32.7016  36.7242  37.6865  37.9323  38.8254  38.8254  42.3731
    43.5887  44.4923  47.0700  47.0700  47.9299  49.0342  50.1945  50.1946
    50.7081  52.9518  53.0434  55.7779

          k =-0.0952 0.0476 0.0476 (  2616 PWs)   bands (ev):

     7.4485  10.1666  11.0124  11.0124  11.4541  11.4542  11.5100  12.3115
    12.6798  12.6798  12.8450  13.0430  13.1329  13.7742  13.8081  13.8712
    13.8718  14.1451  14.7104  14.7402  14.7403  15.4312  18.7023  18.7024
    22.9204  22.9204  26.7672  27.3958  27.3958  30.4371  30.4372  30.8632
    31.0391  32.7016  36.7242  37.6865  37.9323  38.8254  38.8254  42.3731
    43.5887  44.4924  47.0700  47.0700  47.9299  49.0342  50.1945  50.1946
    50.7081  52.9518  53.0434  55.7779

          k = 0.0476-0.0476-0.1427 (  2596 PWs)   bands (ev):

     8.8862   8.8949  11.4401  11.4401  11.5074  11.5076  11.9134  11.9274
    12.2975  12.2975  12.8173  12.8334  13.3943  13.3983  13.6802  13.6804
    14.2915  14.3024  14.4594  14.4606  14.6926  14.6927  19.7816  19.7816
    21.4529  21.4529  28.3252  28.3259  28.5893  28.5941  29.0458  29.0472
    35.0051  35.0194  35.3779  35.4076  38.1617  38.1919  42.1904  42.1905
    44.8397  44.8572  45.3634  45.3634  49.3948  49.4175  50.8550  50.8629
    52.2243  52.2244  53.8629  53.8660

          k = 0.0952-0.0476 0.0952 (  2613 PWs)   bands (ev):

     8.3344  10.6145  10.6146  11.1263  11.6202  11.7610  11.7611  12.2876
    12.4935  12.4936  12.6185  12.9323  13.0816  13.5347  13.5352  13.5378
    13.8986  14.4592  14.6075  14.6080  14.6252  16.3691  16.3691  18.9020
    21.1505  24.1240  24.1240  28.1063  28.1876  31.2020  31.2020  32.2173
    32.2174  34.0761  35.2713  36.9386  39.3440  39.3441  40.0827  43.1563
    43.7319  44.7351  46.4622  46.4622  49.2521  49.2522  50.3547  50.5846
    50.9064  51.6964  52.3723  52.8588

          k =-0.0952 0.0476 0.0952 (  2613 PWs)   bands (ev):

     8.3344  10.6145  10.6146  11.1263  11.6202  11.7610  11.7611  12.2876
    12.4935  12.4936  12.6185  12.9323  13.0816  13.5347  13.5352  13.5378
    13.8986  14.4592  14.6075  14.6080  14.6252  16.3691  16.3691  18.9020
    21.1505  24.1240  24.1240  28.1063  28.1876  31.2019  31.2020  32.2173
    32.2174  34.0761  35.2713  36.9386  39.3440  39.3441  40.0828  43.1563
    43.7319  44.7351  46.4622  46.4622  49.2521  49.2522  50.3547  50.5846
    50.9064  51.6964  52.3723  52.8589

          k = 0.0952-0.0476-0.1427 (  2598 PWs)   bands (ev):

     9.5519   9.5584  10.9765  10.9794  11.8803  11.8817  12.1151  12.1270
    12.4714  12.4768  12.6562  12.6668  13.2095  13.2122  13.3910  13.3929
    14.2147  14.2206  14.5136  14.5183  15.0643  15.0665  17.6007  17.6084
    22.1198  22.1254  25.8659  25.8696  29.5377  29.5425  33.1001  33.1007
    33.3244  33.3288  36.9058  36.9389  40.1231  40.1299  40.4703  40.4767
    45.1838  45.1861  45.6729  45.6900  47.6854  47.6952  50.6097  50.6231
    51.7319  51.7394  53.9727  53.9862

          k = 0.0952-0.0952 0.0952 (  2608 PWs)   bands (ev):

     8.9994  10.5664  10.5665  10.5665  12.0767  12.0768  12.0768  12.5546
    12.7723  12.7723  12.7726  12.8995  12.8995  13.1726  13.1726  13.1727
    14.3390  14.3390  14.7506  14.7506  14.7507  16.6206  16.6206  16.6206
    21.7526  21.7526  21.7526  25.3797  32.5506  32.5506  32.5507  35.3103
    35.3104  35.3104  37.2913  37.2913  37.2915  37.6251  40.0430  40.0430
    44.4598  44.4598  47.7941  48.0196  48.0197  48.0201  48.1470  48.1470
    48.1471  52.4863  52.4864  52.4864

          k = 0.0952-0.0952-0.1427 (  2606 PWs)   bands (ev):

     9.8231   9.8262  10.5262  10.5263  12.2692  12.2693  12.5789  12.5868
    12.8254  12.8352  12.9327  12.9334  12.9760  12.9760  13.0401  13.0401
    14.6516  14.6529  14.6797  14.6799  14.8773  14.8790  16.8098  16.8098
    20.8221  20.8221  23.2593  23.2633  33.4276  33.4277  34.7183  34.7184
    36.2186  36.2334  37.3204  37.3274  39.0687  39.0922  39.4194  39.4195
    44.6840  44.6840  44.8797  44.8917  46.0289  46.0328  48.5163  48.5164
    49.6632  49.6680  53.0931  53.0935

     the Fermi energy is    14.4953 ev

!    total energy              =    -343.63023195 Ry
     Harris-Foulkes estimate   =    -343.63023195 Ry
     estimated scf accuracy    <          1.8E-11 Ry

     The total energy is the sum of the following terms:

     one-electron contribution =      -6.36429167 Ry
     hartree contribution      =      60.34339500 Ry
     xc contribution           =    -120.51458440 Ry
     ewald contribution        =    -277.04632143 Ry
     Dispersion Correction     =      -0.04785393 Ry
     smearing contrib. (-TS)   =      -0.00057552 Ry

     total magnetization       =     2.84 Bohr mag/cell
     absolute magnetization    =     3.25 Bohr mag/cell

     convergence has been achieved in  11 iterations

     Forces acting on atoms (Ry/au):

     atom    1 type  1   force =    -0.00108610   -0.00108610    0.00108627
     atom    2 type  1   force =     0.00108593    0.00108593    0.00108593
     atom    3 type  1   force =    -0.00108610    0.00108627   -0.00108610
     atom    4 type  1   force =     0.00108627   -0.00108610   -0.00108610

     Total force =     0.003762     Total SCF correction =     0.000003


     entering subroutine stress ...

          total   stress  (Ry/bohr**3)                   (kbar)     P=    0.45
   0.00000304   0.00000004   0.00000004          0.45      0.01      0.01
   0.00000004   0.00000304   0.00000004          0.01      0.45      0.01
   0.00000004   0.00000004   0.00000304          0.01      0.01      0.45


     number of scf cycles    =   3
     number of bfgs steps    =   2

     enthalpy old            =    -343.6302299401 Ry
     enthalpy new            =    -343.6302319519 Ry

     CASE: enthalpy_new < enthalpy_old

     new trust radius        =       0.0048106234 bohr
     new conv_thr            =            1.0E-10 Ry

     new unit-cell volume =    289.97936 a.u.^3 (    42.97051 Ang^3 )

CELL_PARAMETERS (alat=  1.88972590)
   3.502597325   0.000008136   0.000008136
   0.000008136   3.502597325   0.000008136
   0.000008136   0.000008136   3.502597325

ATOMIC_POSITIONS (alat)
Ni1      1.755415156   1.755415156   0.003671899
Ni1      0.003662101   0.003662101   0.003662101
Ni1      1.755415156   0.003671899   1.755415156
Ni1      0.003671899   1.755415156   1.755415156



     Writing output data file Ni-ferromag.save
     NEW-OLD atomic charge density approx. for the potential

     Check: negative/imaginary core charge=   -0.000005    0.000000
     extrapolated charge   39.98823, renormalised to   40.00000

     total cpu time spent up to now is     1752.8 secs

     Self-consistent Calculation

     iteration #  1     ecut=    65.00 Ry     beta=0.20
     Davidson diagonalization with overlap
     ethr =  1.00E-06,  avg # of iterations =  3.5

     total cpu time spent up to now is     1816.4 secs

     total energy              =    -343.63024964 Ry
     Harris-Foulkes estimate   =    -343.64265275 Ry
     estimated scf accuracy    <       0.00005042 Ry

     total magnetization       =     2.83 Bohr mag/cell
     absolute magnetization    =     3.25 Bohr mag/cell

     iteration #  2     ecut=    65.00 Ry     beta=0.20
     Davidson diagonalization with overlap
     ethr =  1.26E-07,  avg # of iterations =  1.4

     total cpu time spent up to now is     1856.2 secs

     total energy              =    -343.63027821 Ry
     Harris-Foulkes estimate   =    -343.63028168 Ry
     estimated scf accuracy    <       0.00002123 Ry

     total magnetization       =     2.84 Bohr mag/cell
     absolute magnetization    =     3.25 Bohr mag/cell

     iteration #  3     ecut=    65.00 Ry     beta=0.20
     Davidson diagonalization with overlap
     ethr =  5.31E-08,  avg # of iterations =  1.0

     total cpu time spent up to now is     1895.5 secs

     total energy              =    -343.63027422 Ry
     Harris-Foulkes estimate   =    -343.63027881 Ry
     estimated scf accuracy    <       0.00000860 Ry

     total magnetization       =     2.84 Bohr mag/cell
     absolute magnetization    =     3.25 Bohr mag/cell

     iteration #  4     ecut=    65.00 Ry     beta=0.20
     Davidson diagonalization with overlap
     ethr =  2.15E-08,  avg # of iterations =  1.7

     total cpu time spent up to now is     1936.0 secs

     total energy              =    -343.63027561 Ry
     Harris-Foulkes estimate   =    -343.63028042 Ry
     estimated scf accuracy    <       0.00001228 Ry

     total magnetization       =     2.83 Bohr mag/cell
     absolute magnetization    =     3.25 Bohr mag/cell

     iteration #  5     ecut=    65.00 Ry     beta=0.20
     Davidson diagonalization with overlap
     ethr =  2.15E-08,  avg # of iterations =  1.0

     total cpu time spent up to now is     1975.3 secs

     total energy              =    -343.63027737 Ry
     Harris-Foulkes estimate   =    -343.63027742 Ry
     estimated scf accuracy    <       0.00000012 Ry

     total magnetization       =     2.84 Bohr mag/cell
     absolute magnetization    =     3.25 Bohr mag/cell

     iteration #  6     ecut=    65.00 Ry     beta=0.20
     Davidson diagonalization with overlap
     ethr =  2.98E-10,  avg # of iterations =  1.8

     total cpu time spent up to now is     2015.8 secs

     total energy              =    -343.63027743 Ry
     Harris-Foulkes estimate   =    -343.63027741 Ry
     estimated scf accuracy    <       0.00000004 Ry

     total magnetization       =     2.84 Bohr mag/cell
     absolute magnetization    =     3.25 Bohr mag/cell

     iteration #  7     ecut=    65.00 Ry     beta=0.20
     Davidson diagonalization with overlap
     ethr =  1.05E-10,  avg # of iterations =  1.0

     total cpu time spent up to now is     2055.0 secs

     total energy              =    -343.63027732 Ry
     Harris-Foulkes estimate   =    -343.63027744 Ry
     estimated scf accuracy    <       0.00000015 Ry

     total magnetization       =     2.84 Bohr mag/cell
     absolute magnetization    =     3.25 Bohr mag/cell

     iteration #  8     ecut=    65.00 Ry     beta=0.20
     Davidson diagonalization with overlap
     ethr =  1.05E-10,  avg # of iterations =  2.0

     total cpu time spent up to now is     2103.2 secs

     total energy              =    -343.63027740 Ry
     Harris-Foulkes estimate   =    -343.63027751 Ry
     estimated scf accuracy    <       0.00000041 Ry

     total magnetization       =     2.84 Bohr mag/cell
     absolute magnetization    =     3.25 Bohr mag/cell

     iteration #  9     ecut=    65.00 Ry     beta=0.20
     Davidson diagonalization with overlap
     ethr =  1.05E-10,  avg # of iterations =  1.1

     total cpu time spent up to now is     2142.7 secs

     total energy              =    -343.63027742 Ry
     Harris-Foulkes estimate   =    -343.63027742 Ry
     estimated scf accuracy    <       0.00000009 Ry

     total magnetization       =     2.84 Bohr mag/cell
     absolute magnetization    =     3.25 Bohr mag/cell

     iteration # 10     ecut=    65.00 Ry     beta=0.20
     Davidson diagonalization with overlap
     ethr =  1.05E-10,  avg # of iterations =  1.0

     total cpu time spent up to now is     2182.0 secs

     total energy              =    -343.63027739 Ry
     Harris-Foulkes estimate   =    -343.63027742 Ry
     estimated scf accuracy    <       0.00000008 Ry

     total magnetization       =     2.84 Bohr mag/cell
     absolute magnetization    =     3.25 Bohr mag/cell

     iteration # 11     ecut=    65.00 Ry     beta=0.20
     Davidson diagonalization with overlap
     ethr =  1.05E-10,  avg # of iterations =  1.0

     Magnetic moment per site:
     atom:    1    charge:    3.0037    magn:    0.3347    constr:    0.0000
     atom:    2    charge:    3.0018    magn:    0.3345    constr:    0.0000
     atom:    3    charge:    3.0037    magn:    0.3347    constr:    0.0000
     atom:    4    charge:    3.0037    magn:    0.3347    constr:    0.0000

     total cpu time spent up to now is     2221.3 secs

     End of self-consistent calculation

 ------ SPIN UP ------------


          k = 0.0000 0.0000 0.0000 (  2553 PWs)   bands (ev):

     5.4360   9.7201   9.7202   9.7202  10.1736  10.1736  10.1736  11.9537
    11.9538  11.9538  13.1333  13.1333  13.8515  13.8515  13.8515  13.9416
    13.9416  13.9416  13.9416  13.9416  13.9416  17.0803  17.0803  17.0803
    23.8220  23.8221  23.8221  29.5802  29.5802  29.5802  29.5804  29.5805
    29.5805  34.6594  34.6594  34.6594  38.0073  38.0075  38.0075  38.5077
    42.4871  42.4874  42.4874  46.0869  46.0872  46.0872  48.1897  55.1893
    55.1895  55.1895  57.6186  59.0398

          k =-0.0000-0.0000 0.0476 (  2605 PWs)   bands (ev):

     5.8023   9.7423   9.9044   9.9045  10.2842  10.3001  10.3001  11.8249
    12.0562  12.0562  13.0153  13.1800  13.2871  13.2871  13.6980  13.6980
    13.7655  13.7655  13.8020  13.9419  13.9419  15.4793  18.0395  18.0395
    23.9178  23.9179  26.0715  27.8282  27.8282  28.4569  28.4569  30.1407
    30.1409  34.7755  36.8326  36.8326  37.8724  38.1393  39.9650  39.9651
    40.2654  40.2656  40.9311  47.5069  48.1434  48.1436  49.1683  51.5752
    56.2859  56.2861  56.6915  56.6915

          k =-0.0000-0.0000 0.0952 (  2605 PWs)   bands (ev):

     6.8519   9.5132  10.3416  10.3416  10.5920  10.6835  10.6835  11.4806
    12.2306  12.2306  12.3530  12.3530  12.7272  13.3087  13.3145  13.3192
    13.3192  13.3266  13.3266  13.6677  13.9424  13.9424  20.0028  20.0028
    24.2349  24.2349  25.0541  25.0541  26.6888  26.6889  30.3717  31.7205
    31.7207  35.1386  36.7401  37.0440  37.0442  38.3624  38.6916  40.8775
    40.8775  44.1299  44.1300  44.1639  50.9430  51.0640  51.0642  51.0674
    51.0674  55.0535  55.9551  55.9551

          k = 0.0000 0.0000-0.1428 (  2594 PWs)   bands (ev):

     8.3509   8.3522  10.6179  10.6179  11.0263  11.0282  11.3296  11.3296
    11.3314  11.3314  12.5487  12.5513  12.8047  12.8047  12.8061  12.8061
    13.0705  13.0705  13.4863  13.4873  13.9427  13.9427  22.3875  22.3875
    22.3907  22.3907  24.6075  24.6075  25.7439  25.7439  34.0980  34.0983
    34.1003  34.1006  34.9191  34.9239  35.7853  35.7865  40.2826  40.2903
    45.6764  45.6764  45.6831  45.6831  47.6366  47.6367  52.3079  52.3080
    54.1895  54.1896  54.1957  54.1958

          k =-0.0000 0.0476 0.0476 (  2610 PWs)   bands (ev):

     6.1600   9.9408   9.9408  10.0677  10.4016  10.4016  10.4155  11.7649
    12.1013  12.1183  12.9409  12.9906  12.9992  12.9993  13.1752  13.5693
    13.6939  13.6939  13.7642  13.7642  13.8257  16.4120  16.4120  18.8096
    23.9116  25.1109  26.2586  26.2586  28.3061  28.3061  28.9494  28.9494
    30.6688  36.0494  36.1319  37.0410  37.0410  37.3468  40.1326  40.1327
    41.2855  42.6204  43.5468  45.2474  46.3802  49.8075  50.4717  53.1136
    53.6857  55.3675  55.3675  56.3214

          k =-0.0000 0.0476 0.0952 (  2629 PWs)   bands (ev):

     7.1818   9.7494  10.4231  10.4716  10.6836  10.7368  10.7560  11.4837
    11.9919  12.1317  12.2471  12.3647  12.3901  12.8235  13.2452  13.3238
    13.3307  13.3544  13.5068  13.7609  13.7670  14.4448  18.0269  20.5931
    22.0915  24.6207  25.5156  26.5447  27.4142  29.6199  29.9147  29.9682
    31.0289  33.7370  34.4806  37.6933  38.6467  40.4043  40.5830  40.7648
    41.1333  44.0571  45.0515  47.0757  47.8014  48.6048  49.9103  51.3522
    52.9574  53.2781  54.8361  56.2177

          k = 0.0000 0.0476-0.1428 (  2630 PWs)   bands (ev):

     8.6325   8.6337  10.7705  10.7706  11.0781  11.0799  11.1973  11.1988
    11.3441  11.3459  12.1754  12.1773  12.8055  12.8069  13.0354  13.0361
    13.0555  13.0556  13.6704  13.6704  13.7584  13.7587  19.8951  19.8968
    22.8870  22.8900  25.4229  25.4252  28.3218  28.3225  31.5095  31.5105
    32.0333  32.0340  35.8398  35.8454  38.8422  38.8426  42.2282  42.2330
    43.1293  43.1311  45.9527  45.9590  50.0979  50.1036  50.3703  50.3729
    52.6290  52.6311  53.2197  53.2215

          k =-0.0000 0.0952 0.0952 (  2614 PWs)   bands (ev):

     8.1086  10.3372  10.3372  10.7032  10.9519  10.9519  10.9655  11.4138
    11.6611  11.6611  11.8158  12.1343  12.4956  12.7373  13.0291  13.1844
    13.1844  13.3246  13.3246  13.4947  13.7101  15.6913  15.6913  19.3103
    22.1201  25.1713  26.7888  26.7889  27.9085  27.9086  30.9977  31.6541
    31.6542  31.7496  33.6180  36.8523  41.5421  41.8952  41.8953  43.0916
    43.4270  43.7884  43.7884  47.2082  47.3469  48.4926  48.4926  51.6922
    52.1948  52.2082  53.2186  55.3684

          k = 0.0000 0.0952-0.1428 (  2608 PWs)   bands (ev):

     9.3753   9.3763  10.8077  10.8088  11.2054  11.2071  11.2137  11.2138
    11.3628  11.3645  11.8696  11.8709  12.8428  12.8429  12.8430  12.8445
    12.9096  12.9099  13.3591  13.3600  14.3719  14.3721  17.2224  17.2237
    24.2437  24.2459  26.2384  26.2402  28.6644  28.6654  29.5507  29.5509
    32.9628  32.9633  36.8026  36.8080  40.3793  40.3804  43.0643  43.0654
    43.2328  43.2333  46.7538  46.7589  47.9410  47.9441  50.4433  50.4462
    51.7787  51.7833  53.5800  53.5812

          k = 0.0000-0.1428-0.1428 (  2624 PWs)   bands (ev):

    10.2282  10.2291  10.2291  10.2299  11.3240  11.3256  11.3256  11.3272
    11.6344  11.6349  11.6349  11.6353  12.6965  12.6967  12.6967  12.6969
    13.0097  13.0110  13.0110  13.0123  15.4421  15.4427  15.4428  15.4433
    26.2181  26.2197  26.2197  26.2212  27.5901  27.5912  27.5913  27.5924
    37.9069  37.9083  37.9085  37.9099  38.5124  38.5141  38.5142  38.5159
    47.1943  47.1943  47.1944  47.1944  49.2044  49.2072  49.2074  49.2102
    51.8384  51.8386  51.8388  51.8390

          k = 0.0476 0.0476 0.0476 (  2629 PWs)   bands (ev):

     6.5058  10.1018  10.1018  10.1018  10.5162  10.5162  10.5162  11.7300
    12.1379  12.1379  12.6951  12.6951  12.6951  13.0884  13.0884  13.3357
    13.3357  13.3357  13.8799  13.8799  13.8799  17.0394  17.0394  17.0394
    25.3370  25.3371  25.3371  26.6041  26.6041  26.6041  31.1842  31.1843
    31.1843  33.4954  36.1806  36.1807  36.1807  39.2657  41.1538  41.1538
    42.8277  42.8277  42.8277  46.6085  47.6644  47.6644  51.6636  51.6636
    55.1234  55.2463  55.2463  55.2463

          k = 0.0476 0.0476 0.0952 (  2616 PWs)   bands (ev):

     7.4875   9.9082  10.4851  10.4851  10.8020  10.8302  10.8302  11.5204
    11.9823  11.9823  12.1778  12.2172  12.2774  12.9333  13.0040  13.0897
    13.0897  13.3281  13.7826  13.7826  13.8149  14.8067  18.3821  18.3821
    22.7177  22.7177  26.6313  27.2552  27.2553  30.3713  30.3713  30.7578
    30.9603  32.6643  36.6598  37.7895  37.8657  38.8053  38.8053  42.3764
    43.5200  44.4863  47.0379  47.0379  47.9003  49.0999  50.2174  50.2174
    50.7134  53.0339  53.0954  55.6785

          k = 0.0476 0.0476-0.1428 (  2596 PWs)   bands (ev):

     8.8596   8.8607  10.8727  10.8727  10.9305  10.9305  11.1732  11.1749
    11.5881  11.5881  12.0795  12.0815  12.5505  12.5511  12.9219  12.9219
    13.4970  13.4984  13.6042  13.6045  13.7265  13.7265  19.5310  19.5310
    21.1566  21.1566  28.2192  28.2192  28.4582  28.4589  28.9403  28.9403
    34.9518  34.9537  35.4264  35.4302  38.1081  38.1121  42.2196  42.2196
    44.7724  44.7746  45.3856  45.3856  49.4954  49.4984  50.9160  50.9171
    52.2040  52.2040  53.6983  53.6984

          k = 0.0476 0.0952 0.0952 (  2613 PWs)   bands (ev):

     8.3265  10.2260  10.2260  10.5122  11.1177  11.1638  11.1638  11.5655
    11.7782  11.7782  11.9115  12.1364  12.2624  12.7410  12.7410  12.7574
    13.0604  13.6158  13.6851  13.7003  13.7004  15.8220  15.8220  18.6338
    20.8143  23.9149  23.9149  27.9559  28.0652  31.1468  31.1468  32.1343
    32.1343  34.0311  35.2552  36.9232  39.3395  39.3395  40.1686  43.0547
    43.7512  44.8001  46.4796  46.4796  49.2098  49.2098  50.4347  50.6128
    50.9424  51.6371  52.3190  52.9435

          k = 0.0476 0.0952-0.1428 (  2598 PWs)   bands (ev):

     9.4096   9.4102  10.4472  10.4474  11.3313  11.3313  11.4789  11.4803
    11.7848  11.7854  11.9053  11.9065  12.4116  12.4120  12.6225  12.6228
    13.3576  13.3581  13.5853  13.5859  14.2781  14.2783  17.1994  17.2004
    21.8298  21.8306  25.6757  25.6763  29.4479  29.4484  33.0528  33.0530
    33.2667  33.2672  36.9168  36.9212  40.1519  40.1529  40.4611  40.4619
    45.2088  45.2092  45.6999  45.7021  47.7204  47.7216  50.5899  50.5917
    51.8075  51.8085  53.9190  53.9213

          k = 0.0476-0.1428-0.1428 (  2588 PWs)   bands (ev):

     9.9790   9.9793   9.9793   9.9796  11.7223  11.7227  11.7227  11.7232
    11.8089  11.8099  11.8099  11.8108  12.3828  12.3832  12.3832  12.3837
    13.3395  13.3404  13.3404  13.3412  15.3528  15.3535  15.3535  15.3542
    23.4637  23.4643  23.4643  23.4649  30.9859  30.9861  30.9862  30.9864
    38.1876  38.1888  38.1890  38.1903  38.3561  38.3576  38.3578  38.3592
    46.6716  46.6716  46.6717  46.6718  46.7735  46.7750  46.7752  46.7767
    54.8291  54.8303  54.8305  55.0951

          k = 0.0952 0.0952 0.0952 (  2608 PWs)   bands (ev):

     8.8703  10.0610  10.0610  10.0610  11.5225  11.5225  11.5225  12.0368
    12.0977  12.0977  12.0978  12.1033  12.1033  12.3866  12.3866  12.3866
    13.4635  13.4635  13.8287  13.8287  13.8287  16.2001  16.2002  16.2002
    21.4218  21.4218  21.4218  25.1624  32.5130  32.5130  32.5130  35.2588
    35.2588  35.2588  37.2884  37.2885  37.2885  37.8043  39.9680  39.9680
    44.4618  44.4618  47.7914  48.0826  48.0826  48.0826  48.1574  48.1574
    48.1574  52.4682  52.4682  52.4682

          k = 0.0952 0.0952-0.1428 (  2606 PWs)   bands (ev):

     9.4963   9.4965   9.9924   9.9924  11.6424  11.6424  11.9286  11.9296
    12.1459  12.1461  12.2664  12.2664  12.2804  12.2816  12.3810  12.3811
    13.7490  13.7491  13.7570  13.7570  14.1680  14.1681  16.4842  16.4843
    20.3928  20.3928  22.9795  22.9801  33.4284  33.4285  34.6422  34.6423
    36.3421  36.3440  37.2613  37.2623  39.0095  39.0126  39.4547  39.4547
    44.6690  44.6690  44.9187  44.9203  46.0339  46.0343  48.5680  48.5681
    49.6245  49.6252  52.9974  52.9974

          k = 0.0952-0.1428-0.1428 (  2608 PWs)   bands (ev):

     9.6720   9.6720   9.6720   9.6720  11.8883  11.8886  11.8886  11.8888
    12.0782  12.0784  12.0785  12.0787  12.8276  12.8282  12.8282  12.8288
    13.6766  13.6770  13.6770  13.6775  14.9756  14.9763  14.9764  14.9771
    21.1058  21.1063  21.1063  21.1068  35.1682  35.1685  35.1685  35.1688
    38.2331  38.2339  38.2340  38.2348  38.9553  38.9561  38.9562  38.9570
    44.1101  44.1108  44.1109  44.1116  45.1737  45.1739  45.1740  45.1742
    50.4390  50.4394  50.4394  50.4397

          k =-0.1428-0.1428-0.1428 (  2608 PWs)   bands (ev):

     9.5559   9.5559   9.5559   9.5559  11.9668  11.9668  11.9668  11.9668
    11.9668  11.9669  11.9669  11.9669  13.8046  13.8046  13.8046  13.8046
    13.8046  13.8046  13.8046  13.8046  14.3002  14.3003  14.3003  14.3003
    20.2251  20.2252  20.2252  20.2252  36.9625  36.9627  36.9627  36.9628
    39.5927  39.5927  39.5928  39.5929  39.5929  39.5929  39.5930  39.5930
    42.8191  42.8191  42.8191  42.8192  42.8192  42.8192  42.8193  42.8193
    48.7932  48.7932  48.7932  48.7933

          k =-0.0476 0.0000 0.0476 (  2610 PWs)   bands (ev):

     6.1600   9.9408   9.9408  10.0677  10.4016  10.4016  10.4155  11.7650
    12.1012  12.1183  12.9409  12.9906  12.9992  12.9993  13.1752  13.5693
    13.6939  13.6939  13.7642  13.7642  13.8257  16.4119  16.4120  18.8096
    23.9117  25.1110  26.2586  26.2587  28.3061  28.3061  28.9493  28.9493
    30.6686  36.0492  36.1320  37.0410  37.0410  37.3469  40.1327  40.1327
    41.2854  42.6206  43.5466  45.2473  46.3800  49.8074  50.4719  53.1137
    53.6859  55.3677  55.3677  56.3213

          k =-0.0476-0.0000 0.0952 (  2629 PWs)   bands (ev):

     7.1818   9.7494  10.4231  10.4716  10.6836  10.7368  10.7560  11.4837
    11.9919  12.1317  12.2472  12.3647  12.3901  12.8235  13.2452  13.3238
    13.3307  13.3544  13.5068  13.7609  13.7670  14.4448  18.0268  20.5931
    22.0916  24.6207  25.5155  26.5447  27.4143  29.6198  29.9147  29.9680
    31.0289  33.7371  34.4807  37.6933  38.6465  40.4041  40.5829  40.7649
    41.1333  44.0572  45.0513  47.0760  47.8013  48.6046  49.9104  51.3521
    52.9576  53.2782  54.8359  56.2177

          k =-0.0952 0.0000 0.0952 (  2614 PWs)   bands (ev):

     8.1086  10.3372  10.3372  10.7032  10.9519  10.9519  10.9655  11.4138
    11.6611  11.6611  11.8158  12.1344  12.4956  12.7373  13.0291  13.1844
    13.1844  13.3246  13.3246  13.4947  13.7101  15.6912  15.6913  19.3104
    22.1202  25.1714  26.7888  26.7888  27.9085  27.9085  30.9978  31.6542
    31.6542  31.7497  33.6179  36.8522  41.5420  41.8953  41.8953  43.0914
    43.4269  43.7885  43.7886  47.2080  47.3467  48.4928  48.4928  51.6926
    52.1947  52.2082  53.2184  55.3685

          k = 0.0476-0.0476 0.0476 (  2629 PWs)   bands (ev):

     6.5058  10.1018  10.1018  10.1018  10.5162  10.5162  10.5162  11.7300
    12.1379  12.1380  12.6951  12.6951  12.6951  13.0884  13.0884  13.3357
    13.3357  13.3357  13.8799  13.8799  13.8799  17.0394  17.0394  17.0394
    25.3370  25.3372  25.3372  26.6041  26.6042  26.6042  31.1840  31.1841
    31.1843  33.4957  36.1805  36.1805  36.1807  39.2656  41.1535  41.1537
    42.8278  42.8280  42.8280  46.6085  47.6642  47.6645  51.6634  51.6636
    55.1234  55.2463  55.2463  55.2465

          k = 0.0476-0.0476 0.0952 (  2616 PWs)   bands (ev):

     7.4875   9.9082  10.4851  10.4851  10.8020  10.8302  10.8302  11.5204
    11.9823  11.9823  12.1778  12.2172  12.2774  12.9333  13.0040  13.0897
    13.0897  13.3281  13.7826  13.7826  13.8149  14.8067  18.3821  18.3821
    22.7177  22.7178  26.6314  27.2553  27.2554  30.3711  30.3713  30.7581
    30.9604  32.6642  36.6596  37.7893  37.8654  38.8051  38.8053  42.3763
    43.5203  44.4862  47.0380  47.0382  47.9002  49.0997  50.2174  50.2176
    50.7133  53.0341  53.0954  55.6783

          k =-0.0952 0.0476 0.0476 (  2616 PWs)   bands (ev):

     7.4876   9.9082  10.4851  10.4851  10.8020  10.8302  10.8302  11.5204
    11.9823  11.9823  12.1777  12.2172  12.2775  12.9333  13.0040  13.0897
    13.0897  13.3281  13.7826  13.7826  13.8149  14.8067  18.3821  18.3821
    22.7178  22.7178  26.6312  27.2553  27.2554  30.3711  30.3711  30.7581
    30.9604  32.6644  36.6598  37.7895  37.8656  38.8051  38.8051  42.3762
    43.5201  44.4859  47.0382  47.0382  47.9000  49.0998  50.2175  50.2175
    50.7133  53.0342  53.0956  55.6785

          k = 0.0476-0.0476-0.1428 (  2596 PWs)   bands (ev):

     8.8596   8.8607  10.8727  10.8727  10.9305  10.9305  11.1732  11.1749
    11.5881  11.5881  12.0796  12.0815  12.5505  12.5511  12.9219  12.9219
    13.4971  13.4984  13.6042  13.6045  13.7265  13.7265  19.5310  19.5310
    21.1564  21.1566  28.2192  28.2193  28.4584  28.4590  28.9403  28.9404
    34.9516  34.9535  35.4263  35.4301  38.1080  38.1120  42.2195  42.2198
    44.7727  44.7748  45.3855  45.3857  49.4955  49.4985  50.9159  50.9170
    52.2039  52.2042  53.6983  53.6985

          k = 0.0952-0.0476 0.0952 (  2613 PWs)   bands (ev):

     8.3265  10.2260  10.2260  10.5122  11.1177  11.1638  11.1638  11.5655
    11.7782  11.7782  11.9115  12.1363  12.2624  12.7410  12.7410  12.7574
    13.0604  13.6158  13.6851  13.7003  13.7003  15.8220  15.8220  18.6337
    20.8141  23.9150  23.9150  27.9562  28.0654  31.1468  31.1468  32.1343
    32.1343  34.0311  35.2549  36.9232  39.3393  39.3393  40.1685  43.0547
    43.7511  44.8001  46.4797  46.4797  49.2100  49.2101  50.4349  50.6130
    50.9422  51.6373  52.3191  52.9437

          k =-0.0952 0.0476 0.0952 (  2613 PWs)   bands (ev):

     8.3265  10.2260  10.2260  10.5122  11.1177  11.1638  11.1638  11.5655
    11.7782  11.7782  11.9115  12.1364  12.2624  12.7410  12.7410  12.7574
    13.0604  13.6158  13.6851  13.7003  13.7004  15.8219  15.8220  18.6338
    20.8143  23.9148  23.9150  27.9562  28.0654  31.1467  31.1469  32.1343
    32.1344  34.0309  35.2551  36.9230  39.3394  39.3396  40.1684  43.0545
    43.7510  44.8000  46.4798  46.4799  49.2100  49.2101  50.4348  50.6128
    50.9424  51.6370  52.3194  52.9437

          k = 0.0952-0.0476-0.1428 (  2598 PWs)   bands (ev):

     9.4096   9.4102  10.4473  10.4475  11.3313  11.3313  11.4789  11.4803
    11.7848  11.7854  11.9053  11.9065  12.4115  12.4120  12.6225  12.6228
    13.3576  13.3581  13.5853  13.5859  14.2781  14.2783  17.1994  17.2004
    21.8297  21.8305  25.6758  25.6764  29.4479  29.4485  33.0526  33.0529
    33.2667  33.2672  36.9168  36.9212  40.1519  40.1529  40.4609  40.4617
    45.2087  45.2091  45.6999  45.7020  47.7206  47.7217  50.5900  50.5918
    51.8077  51.8087  53.9190  53.9214

          k = 0.0952-0.0952 0.0952 (  2608 PWs)   bands (ev):

     8.8703  10.0610  10.0610  10.0610  11.5225  11.5225  11.5225  12.0368
    12.0977  12.0977  12.0978  12.1032  12.1033  12.3866  12.3866  12.3866
    13.4635  13.4635  13.8287  13.8287  13.8287  16.2001  16.2001  16.2002
    21.4216  21.4218  21.4218  25.1626  32.5131  32.5132  32.5132  35.2586
    35.2587  35.2589  37.2883  37.2883  37.2885  37.8041  39.9677  39.9679
    44.4616  44.4617  47.7913  48.0827  48.0827  48.0828  48.1574  48.1574
    48.1576  52.4684  52.4686  52.4686

          k = 0.0952-0.0952-0.1428 (  2606 PWs)   bands (ev):

     9.4964   9.4965   9.9924   9.9924  11.6424  11.6424  11.9286  11.9297
    12.1459  12.1460  12.2664  12.2664  12.2805  12.2816  12.3810  12.3811
    13.7490  13.7491  13.7570  13.7570  14.1680  14.1681  16.4842  16.4843
    20.3927  20.3928  22.9796  22.9802  33.4285  33.4286  34.6423  34.6424
    36.3420  36.3439  37.2611  37.2621  39.0094  39.0125  39.4545  39.4549
    44.6689  44.6691  44.9187  44.9203  46.0338  46.0342  48.5682  48.5683
    49.6245  49.6252  52.9976  52.9976

 ------ SPIN DOWN ----------


          k = 0.0000 0.0000 0.0000 (  2553 PWs)   bands (ev):

     5.3814  10.1820  10.1821  10.1821  10.8918  10.8918  10.8918  12.8341
    12.8341  12.8341  13.9133  13.9133  14.6655  14.6656  14.6656  14.9510
    14.9510  14.9510  14.9510  14.9510  14.9510  17.0016  17.0016  17.0016
    24.1277  24.1277  24.1277  29.5664  29.5664  29.5665  29.5667  29.5667
    29.5667  34.8238  34.8238  34.8238  38.1508  38.1510  38.1510  38.3023
    42.4578  42.4581  42.4581  46.1594  46.1597  46.1597  48.0303  55.3784
    55.3786  55.3786  58.1386  59.5569

          k =-0.0000-0.0000 0.0476 (  2605 PWs)   bands (ev):

     5.7477  10.1578  10.3764  10.3764  11.0112  11.0157  11.0157  12.6920
    12.9406  12.9406  13.7857  13.9621  14.1071  14.1071  14.4984  14.4985
    14.6136  14.7583  14.7583  14.9513  14.9513  15.5494  18.1464  18.1464
    24.2084  24.2084  26.2734  27.8968  27.8968  28.4841  28.4842  30.1433
    30.1435  34.9273  36.9136  36.9136  37.7338  38.2805  40.0855  40.0857
    40.3072  40.3075  40.8612  47.5275  48.1173  48.1175  49.2398  51.5664
    56.4973  56.4974  56.6181  56.6181

          k =-0.0000-0.0000 0.0952 (  2605 PWs)   bands (ev):

     6.8016   9.7214  10.8380  10.8381  11.3444  11.3937  11.3937  12.3134
    12.9599  12.9599  13.2506  13.2506  13.4647  13.6848  14.0862  14.0863
    14.0968  14.2830  14.2830  14.4728  14.9519  14.9519  20.1880  20.1880
    24.4811  24.4811  25.1949  25.1949  26.7870  26.7870  30.4673  31.7575
    31.7577  35.2526  36.7055  37.1155  37.1157  38.2721  38.8377  40.8830
    40.8830  44.2293  44.2294  44.3821  50.8987  50.9692  50.9693  50.9940
    50.9940  54.9494  56.1965  56.1966

          k = 0.0000 0.0000-0.1428 (  2594 PWs)   bands (ev):

     8.3444   8.3457  11.1299  11.1299  11.8167  11.8187  12.0387  12.0387
    12.0406  12.0406  13.1964  13.1993  13.7263  13.7264  13.7278  13.7278
    13.8164  13.8165  14.2827  14.2838  14.9522  14.9522  22.5691  22.5691
    22.5725  22.5725  24.8043  24.8043  25.9012  25.9012  34.1631  34.1634
    34.1654  34.1656  34.8993  34.9043  35.8368  35.8381  40.4746  40.4824
    45.6319  45.6319  45.6388  45.6388  47.7106  47.7107  52.4974  52.4974
    54.0793  54.0794  54.0855  54.0856

          k =-0.0000 0.0476 0.0476 (  2610 PWs)   bands (ev):

     6.1063  10.3688  10.3688  10.5585  11.1151  11.1256  11.1256  12.6183
    12.9910  12.9954  13.7058  13.7471  13.7472  13.7592  13.9623  14.3599
    14.4860  14.4861  14.7571  14.7571  14.8278  16.7265  16.7265  18.9754
    24.1703  25.2406  26.4474  26.4474  28.3891  28.3892  28.9904  28.9904
    30.6798  36.1237  36.1535  37.1117  37.1117  37.3643  40.2505  40.2506
    41.2048  42.7078  43.5159  45.1911  46.4409  49.9663  50.3972  53.2861
    53.6519  55.3296  55.3296  56.2618

          k =-0.0000 0.0476 0.0952 (  2629 PWs)   bands (ev):

     7.1363   9.9720  10.8853  11.0035  11.3987  11.4314  11.4729  12.3057
    12.6832  12.8524  13.0463  13.0864  13.2668  13.5879  14.0101  14.0957
    14.1657  14.2521  14.2813  14.7542  14.7634  15.1539  18.3656  20.7972
    22.2900  24.8487  25.6673  26.6796  27.5394  29.7284  29.9765  30.0387
    31.1262  33.8151  34.5231  37.7353  38.6847  40.3559  40.5307  40.8847
    41.1330  44.1393  45.2559  47.1422  47.7240  48.5873  49.8944  51.2775
    52.9131  53.1876  55.0563  56.4709

          k = 0.0000 0.0476-0.1428 (  2630 PWs)   bands (ev):

     8.6381   8.6393  11.2736  11.2737  11.8611  11.8631  11.8741  11.8756
    12.0560  12.0578  12.9161  12.9183  13.7298  13.7313  13.8049  13.8051
    13.8056  13.8060  14.5089  14.5089  14.7525  14.7528  20.1766  20.1783
    23.0802  23.0832  25.5944  25.5968  28.4387  28.4396  31.6237  31.6245
    32.0913  32.0918  35.8651  35.8707  38.8436  38.8440  42.3808  42.3858
    43.1223  43.1243  45.9047  45.9112  50.1635  50.1691  50.3027  50.3054
    52.5455  52.5477  53.3880  53.3897

          k =-0.0000 0.0952 0.0952 (  2614 PWs)   bands (ev):

     8.0865  10.6104  10.6104  11.3674  11.4496  11.6875  11.6875  12.2077
    12.3542  12.3542  12.5280  12.9255  13.4109  13.4842  13.7826  13.9216
    13.9216  14.2855  14.2855  14.4755  14.5524  16.2965  16.2965  19.6179
    22.3394  25.3698  26.9558  26.9558  28.0097  28.0098  31.1287  31.7429
    31.7430  31.8172  33.6706  36.8881  41.4787  41.8772  41.8773  43.1262
    43.3098  43.8308  43.8308  47.3296  47.3763  48.5376  48.5376  51.7518
    52.0852  52.1496  53.4223  55.2714

          k = 0.0000 0.0952-0.1428 (  2608 PWs)   bands (ev):

     9.4367   9.4377  11.2273  11.2284  11.8536  11.8537  11.9682  11.9701
    12.0833  12.0851  12.6063  12.6078  13.5771  13.5772  13.6509  13.6511
    13.7766  13.7781  14.3276  14.3285  15.1779  15.1782  17.6866  17.6879
    24.4490  24.4511  26.3901  26.3921  28.8267  28.8277  29.6407  29.6411
    33.0345  33.0352  36.8303  36.8358  40.3783  40.3793  43.0103  43.0113
    43.2512  43.2516  46.6921  46.6973  48.0233  48.0266  50.3907  50.3936
    51.8997  51.9043  53.4948  53.4959

          k = 0.0000-0.1428-0.1428 (  2624 PWs)   bands (ev):

    10.4476  10.4485  10.4485  10.4494  12.0618  12.0635  12.0635  12.0652
    12.3035  12.3040  12.3040  12.3045  13.4341  13.4343  13.4343  13.4345
    13.9587  13.9601  13.9601  13.9615  16.1241  16.1245  16.1246  16.1251
    26.4134  26.4148  26.4148  26.4162  27.7136  27.7148  27.7149  27.7161
    37.9811  37.9825  37.9826  37.9840  38.4786  38.4802  38.4803  38.4819
    47.0745  47.0745  47.0746  47.0747  49.1936  49.1965  49.1967  49.1996
    51.9395  51.9398  51.9400  51.9403

          k = 0.0476 0.0476 0.0476 (  2629 PWs)   bands (ev):

     6.4550  10.5568  10.5568  10.5568  11.2168  11.2168  11.2168  12.5634
    13.0161  13.0161  13.4057  13.4057  13.4057  13.8746  13.8746  14.1667
    14.1668  14.1668  14.8283  14.8283  14.8283  17.3804  17.3805  17.3805
    25.4686  25.4686  25.4687  26.7774  26.7774  26.7774  31.2061  31.2062
    31.2062  33.5620  36.2757  36.2757  36.2757  39.1104  41.2064  41.2064
    42.9118  42.9119  42.9119  46.5212  47.6217  47.6217  51.8303  51.8303
    55.1996  55.1996  55.1996  55.4612

          k = 0.0476 0.0476 0.0952 (  2616 PWs)   bands (ev):

     7.4525  10.1708  11.0166  11.0166  11.4585  11.4585  11.5144  12.3160
    12.6846  12.6846  12.8501  13.0476  13.1378  13.7795  13.8138  13.8765
    13.8765  14.1503  14.7161  14.7459  14.7459  15.4370  18.7091  18.7091
    22.9280  22.9280  26.7755  27.4043  27.4043  30.4462  30.4462  30.8720
    31.0478  32.7108  36.7344  37.6955  37.9429  38.8356  38.8357  42.3839
    43.6003  44.5038  47.0821  47.0821  47.9424  49.0457  50.2064  50.2064
    50.7205  52.9635  53.0556  55.7936

          k = 0.0476 0.0476-0.1428 (  2596 PWs)   bands (ev):

     8.8942   8.8953  11.4444  11.4444  11.5120  11.5120  11.9239  11.9258
    12.3020  12.3020  12.8290  12.8312  13.4011  13.4017  13.6855  13.6855
    14.3016  14.3031  14.4654  14.4656  14.6982  14.6982  19.7884  19.7884
    21.4605  21.4605  28.3341  28.3342  28.6003  28.6008  29.0550  29.0550
    35.0212  35.0231  35.3997  35.4036  38.1854  38.1894  42.2010  42.2010
    44.8593  44.8617  45.3747  45.3747  49.4161  49.4191  50.8704  50.8714
    52.2375  52.2375  53.8783  53.8784

          k = 0.0476 0.0952 0.0952 (  2613 PWs)   bands (ev):

     8.3385  10.6188  10.6188  11.1306  11.6246  11.7656  11.7656  12.2921
    12.4982  12.4982  12.6233  12.9370  13.0865  13.5404  13.5404  13.5425
    13.9037  14.4647  14.6135  14.6135  14.6303  16.3753  16.3753  18.9086
    21.1582  24.1320  24.1320  28.1179  28.1930  31.2106  31.2107  32.2269
    32.2269  34.0858  35.2808  36.9484  39.3543  39.3544  40.0924  43.1683
    43.7431  44.7459  46.4737  46.4737  49.2647  49.2647  50.3665  50.5965
    50.9189  51.7098  52.3849  52.8706

          k = 0.0476 0.0952-0.1428 (  2598 PWs)   bands (ev):

     9.5590   9.5599  10.9821  10.9825  11.8854  11.8856  12.1248  12.1264
    12.4784  12.4791  12.6654  12.6668  13.2157  13.2160  13.3969  13.3972
    14.2226  14.2234  14.5211  14.5217  15.0710  15.0713  17.6105  17.6115
    22.1301  22.1308  25.8758  25.8763  29.5484  29.5491  33.1096  33.1097
    33.3356  33.3363  36.9299  36.9343  40.1362  40.1371  40.4837  40.4845
    45.1961  45.1964  45.6917  45.6940  47.7013  47.7027  50.6282  50.6300
    51.7471  51.7481  53.9978  54.0012

          k = 0.0476-0.1428-0.1428 (  2588 PWs)   bands (ev):

    10.3357  10.3362  10.3363  10.3368  12.2922  12.2930  12.2930  12.2937
    12.5120  12.5129  12.5129  12.5139  13.1599  13.1603  13.1603  13.1607
    14.2514  14.2523  14.2524  14.2533  15.9986  15.9991  15.9991  15.9997
    23.7216  23.7221  23.7221  23.7226  31.0685  31.0689  31.0689  31.0693
    38.2599  38.2611  38.2612  38.2625  38.3071  38.3086  38.3087  38.3101
    46.6035  46.6035  46.6036  46.6037  46.7991  46.8007  46.8009  46.8025
    54.8934  54.8947  54.8949  55.1065

          k = 0.0952 0.0952 0.0952 (  2608 PWs)   bands (ev):

     9.0035  10.5707  10.5707  10.5707  12.0813  12.0813  12.0813  12.5594
    12.7772  12.7772  12.7772  12.9041  12.9041  13.1776  13.1776  13.1776
    14.3444  14.3444  14.7562  14.7563  14.7563  16.6267  16.6267  16.6267
    21.7604  21.7604  21.7604  25.3878  32.5595  32.5595  32.5595  35.3202
    35.3203  35.3203  37.3012  37.3013  37.3013  37.6335  40.0541  40.0541
    44.4712  44.4712  47.8066  48.0312  48.0312  48.0312  48.1589  48.1589
    48.1589  52.4995  52.4996  52.4996

          k = 0.0952 0.0952-0.1428 (  2606 PWs)   bands (ev):

     9.8286   9.8290  10.5304  10.5304  12.2738  12.2739  12.5871  12.5881
    12.8345  12.8358  12.9379  12.9380  12.9808  12.9808  13.0450  13.0450
    14.6578  14.6580  14.6854  14.6854  14.8836  14.8839  16.8159  16.8159
    20.8299  20.8299  23.2690  23.2695  33.4363  33.4364  34.7283  34.7283
    36.2335  36.2355  37.3338  37.3347  39.0897  39.0929  39.4294  39.4294
    44.6956  44.6956  44.8961  44.8977  46.0422  46.0428  48.5280  48.5280
    49.6781  49.6787  53.1067  53.1067

          k = 0.0952-0.1428-0.1428 (  2608 PWs)   bands (ev):

    10.1426  10.1427  10.1427  10.1428  12.6211  12.6214  12.6214  12.6216
    12.8539  12.8541  12.8542  12.8544  13.2677  13.2684  13.2684  13.2691
    14.5946  14.5951  14.5951  14.5956  15.5073  15.5079  15.5080  15.5086
    21.4986  21.4991  21.4991  21.4995  35.1422  35.1426  35.1427  35.1430
    38.2024  38.2031  38.2032  38.2039  39.0245  39.0252  39.0254  39.0261
    44.1422  44.1429  44.1431  44.1438  45.1665  45.1667  45.1668  45.1670
    50.5296  50.5299  50.5300  50.5303

          k =-0.1428-0.1428-0.1428 (  2608 PWs)   bands (ev):

    10.0572  10.0573  10.0573  10.0573  12.7396  12.7396  12.7397  12.7397
    12.7397  12.7397  12.7397  12.7397  14.2010  14.2010  14.2011  14.2011
    14.7279  14.7279  14.7279  14.7279  14.7279  14.7279  14.7279  14.7279
    20.7074  20.7075  20.7075  20.7075  36.7786  36.7788  36.7788  36.7789
    39.6628  39.6628  39.6629  39.6629  39.6630  39.6630  39.6631  39.6631
    42.8496  42.8496  42.8496  42.8497  42.8497  42.8497  42.8498  42.8498
    48.9074  48.9074  48.9074  48.9075

          k =-0.0476 0.0000 0.0476 (  2610 PWs)   bands (ev):

     6.1063  10.3688  10.3688  10.5585  11.1151  11.1256  11.1256  12.6183
    12.9910  12.9955  13.7058  13.7471  13.7472  13.7592  13.9623  14.3598
    14.4860  14.4861  14.7571  14.7571  14.8278  16.7265  16.7265  18.9754
    24.1704  25.2407  26.4474  26.4474  28.3891  28.3891  28.9904  28.9904
    30.6796  36.1238  36.1534  37.1117  37.1118  37.3644  40.2505  40.2507
    41.2047  42.7081  43.5157  45.1910  46.4407  49.9662  50.3974  53.2862
    53.6519  55.3299  55.3299  56.2617

          k =-0.0476-0.0000 0.0952 (  2629 PWs)   bands (ev):

     7.1363   9.9720  10.8853  11.0035  11.3988  11.4314  11.4729  12.3057
    12.6832  12.8524  13.0462  13.0864  13.2668  13.5879  14.0101  14.0957
    14.1657  14.2521  14.2814  14.7542  14.7634  15.1539  18.3655  20.7972
    22.2901  24.8487  25.6673  26.6796  27.5394  29.7283  29.9765  30.0386
    31.1263  33.8152  34.5232  37.7354  38.6845  40.3558  40.5306  40.8848
    41.1330  44.1394  45.2558  47.1425  47.7238  48.5871  49.8946  51.2774
    52.9133  53.1877  55.0562  56.4709

          k =-0.0952 0.0000 0.0952 (  2614 PWs)   bands (ev):

     8.0865  10.6104  10.6104  11.3674  11.4497  11.6875  11.6875  12.2077
    12.3542  12.3542  12.5280  12.9255  13.4109  13.4842  13.7826  13.9216
    13.9217  14.2855  14.2855  14.4754  14.5524  16.2965  16.2965  19.6180
    22.3395  25.3698  26.9557  26.9558  28.0097  28.0097  31.1288  31.7430
    31.7431  31.8173  33.6704  36.8880  41.4785  41.8773  41.8773  43.1261
    43.3096  43.8309  43.8310  47.3294  47.3761  48.5378  48.5378  51.7522
    52.0851  52.1495  53.4222  55.2714

          k = 0.0476-0.0476 0.0476 (  2629 PWs)   bands (ev):

     6.4551  10.5568  10.5568  10.5568  11.2168  11.2168  11.2168  12.5634
    13.0160  13.0161  13.4057  13.4057  13.4057  13.8746  13.8746  14.1667
    14.1667  14.1668  14.8282  14.8282  14.8283  17.3804  17.3804  17.3804
    25.4686  25.4688  25.4688  26.7774  26.7775  26.7775  31.2059  31.2060
    31.2062  33.5623  36.2755  36.2756  36.2757  39.1103  41.2061  41.2063
    42.9120  42.9122  42.9122  46.5212  47.6215  47.6217  51.8301  51.8303
    55.1996  55.1996  55.1998  55.4612

          k = 0.0476-0.0476 0.0952 (  2616 PWs)   bands (ev):

     7.4525  10.1708  11.0166  11.0166  11.4585  11.4585  11.5144  12.3160
    12.6846  12.6846  12.8501  13.0477  13.1378  13.7795  13.8138  13.8765
    13.8765  14.1503  14.7161  14.7458  14.7458  15.4370  18.7090  18.7091
    22.9280  22.9281  26.7756  27.4044  27.4044  30.4461  30.4462  30.8723
    31.0479  32.7106  36.7343  37.6953  37.9426  38.8354  38.8357  42.3839
    43.6007  44.5037  47.0822  47.0824  47.9424  49.0455  50.2064  50.2065
    50.7205  52.9637  53.0556  55.7934

          k =-0.0952 0.0476 0.0476 (  2616 PWs)   bands (ev):

     7.4525  10.1708  11.0166  11.0166  11.4585  11.4585  11.5144  12.3160
    12.6846  12.6846  12.8501  13.0476  13.1378  13.7795  13.8138  13.8765
    13.8765  14.1503  14.7161  14.7459  14.7459  15.4370  18.7090  18.7090
    22.9281  22.9281  26.7754  27.4044  27.4044  30.4460  30.4460  30.8722
    31.0479  32.7109  36.7344  37.6954  37.9428  38.8355  38.8355  42.3838
    43.6005  44.5034  47.0824  47.0825  47.9422  49.0456  50.2065  50.2065
    50.7204  52.9638  53.0558  55.7935

          k = 0.0476-0.0476-0.1428 (  2596 PWs)   bands (ev):

     8.8942   8.8953  11.4444  11.4444  11.5120  11.5120  11.9240  11.9258
    12.3020  12.3020  12.8291  12.8312  13.4011  13.4016  13.6855  13.6855
    14.3016  14.3031  14.4654  14.4656  14.6982  14.6982  19.7884  19.7884
    21.4604  21.4605  28.3342  28.3343  28.6004  28.6010  29.0550  29.0551
    35.0210  35.0228  35.3996  35.4036  38.1853  38.1893  42.2008  42.2011
    44.8595  44.8619  45.3746  45.3748  49.4162  49.4191  50.8703  50.8713
    52.2374  52.2377  53.8783  53.8785

          k = 0.0952-0.0476 0.0952 (  2613 PWs)   bands (ev):

     8.3385  10.6188  10.6188  11.1306  11.6246  11.7656  11.7656  12.2921
    12.4982  12.4982  12.6233  12.9370  13.0866  13.5403  13.5403  13.5425
    13.9037  14.4647  14.6135  14.6135  14.6303  16.3753  16.3753  18.9085
    21.1580  24.1320  24.1321  28.1181  28.1932  31.2106  31.2106  32.2269
    32.2269  34.0858  35.2805  36.9485  39.3541  39.3541  40.0923  43.1682
    43.7430  44.7459  46.4738  46.4738  49.2649  49.2649  50.3666  50.5967
    50.9187  51.7099  52.3850  52.8708

          k =-0.0952 0.0476 0.0952 (  2613 PWs)   bands (ev):

     8.3386  10.6188  10.6188  11.1306  11.6246  11.7656  11.7656  12.2921
    12.4982  12.4982  12.6233  12.9371  13.0865  13.5404  13.5404  13.5425
    13.9037  14.4647  14.6135  14.6135  14.6303  16.3752  16.3753  18.9086
    21.1582  24.1319  24.1321  28.1181  28.1931  31.2106  31.2107  32.2269
    32.2270  34.0856  35.2807  36.9483  39.3542  39.3544  40.0922  43.1681
    43.7429  44.7458  46.4739  46.4739  49.2649  49.2650  50.3665  50.5965
    50.9188  51.7096  52.3852  52.8709

          k = 0.0952-0.0476-0.1428 (  2598 PWs)   bands (ev):

     9.5590   9.5599  10.9821  10.9825  11.8854  11.8856  12.1249  12.1264
    12.4784  12.4791  12.6654  12.6669  13.2156  13.2160  13.3969  13.3972
    14.2226  14.2234  14.5211  14.5217  15.0710  15.0713  17.6105  17.6115
    22.1300  22.1307  25.8760  25.8764  29.5485  29.5491  33.1094  33.1096
    33.3357  33.3363  36.9299  36.9343  40.1362  40.1371  40.4835  40.4844
    45.1961  45.1964  45.6917  45.6940  47.7015  47.7028  50.6284  50.6302
    51.7473  51.7482  53.9978  54.0012

          k = 0.0952-0.0952 0.0952 (  2608 PWs)   bands (ev):

     9.0036  10.5707  10.5707  10.5707  12.0813  12.0813  12.0813  12.5595
    12.7772  12.7772  12.7772  12.9041  12.9042  13.1776  13.1776  13.1776
    14.3444  14.3444  14.7562  14.7562  14.7562  16.6267  16.6267  16.6267
    21.7603  21.7604  21.7604  25.3880  32.5596  32.5596  32.5597  35.3201
    35.3201  35.3204  37.3011  37.3011  37.3013  37.6333  40.0538  40.0540
    44.4710  44.4711  47.8065  48.0312  48.0313  48.0314  48.1589  48.1589
    48.1591  52.4998  52.5000  52.5000

          k = 0.0952-0.0952-0.1428 (  2606 PWs)   bands (ev):

     9.8286   9.8290  10.5304  10.5304  12.2739  12.2739  12.5871  12.5882
    12.8345  12.8358  12.9379  12.9380  12.9808  12.9808  13.0450  13.0450
    14.6578  14.6580  14.6854  14.6854  14.8836  14.8839  16.8158  16.8159
    20.8297  20.8299  23.2691  23.2696  33.4364  33.4365  34.7283  34.7284
    36.2334  36.2354  37.3336  37.3345  39.0897  39.0928  39.4292  39.4295
    44.6955  44.6957  44.8961  44.8977  46.0421  46.0426  48.5281  48.5283
    49.6781  49.6787  53.1068  53.1069

     the Fermi energy is    14.5009 ev

!    total energy              =    -343.63027740 Ry
     Harris-Foulkes estimate   =    -343.63027740 Ry
     estimated scf accuracy    <          8.8E-11 Ry

     The total energy is the sum of the following terms:

     one-electron contribution =      -6.32102536 Ry
     hartree contribution      =      60.32935579 Ry
     xc contribution           =    -120.51524997 Ry
     ewald contribution        =    -277.07490930 Ry
     Dispersion Correction     =      -0.04787305 Ry
     smearing contrib. (-TS)   =      -0.00057551 Ry

     total magnetization       =     2.84 Bohr mag/cell
     absolute magnetization    =     3.25 Bohr mag/cell

     convergence has been achieved in  11 iterations

     Forces acting on atoms (Ry/au):

     atom    1 type  1   force =    -0.00013810   -0.00013810    0.00013793
     atom    2 type  1   force =     0.00013826    0.00013826    0.00013826
     atom    3 type  1   force =    -0.00013810    0.00013793   -0.00013810
     atom    4 type  1   force =     0.00013793   -0.00013810   -0.00013810

     Total force =     0.000478     Total SCF correction =     0.000000


     entering subroutine stress ...

          total   stress  (Ry/bohr**3)                   (kbar)     P=    0.96
   0.00000654  -0.00000004  -0.00000004          0.96     -0.01     -0.01
  -0.00000004   0.00000654  -0.00000004         -0.01      0.96     -0.01
  -0.00000004  -0.00000004   0.00000654         -0.01     -0.01      0.96


     number of scf cycles    =   4
     number of bfgs steps    =   3

     enthalpy old            =    -343.6302319519 Ry
     enthalpy new            =    -343.6302774041 Ry

     CASE: enthalpy_new < enthalpy_old

     new trust radius        =       0.0006856488 bohr
     new conv_thr            =            1.0E-10 Ry

     new unit-cell volume =    290.11021 a.u.^3 (    42.98990 Ang^3 )

CELL_PARAMETERS (alat=  1.88972590)
   3.503124102   0.000004634   0.000004634
   0.000004634   3.503124102   0.000004634
   0.000004634   0.000004634   3.503124102

ATOMIC_POSITIONS (alat)
Ni1      1.755467969   1.755467969   0.003878300
Ni1      0.003872156   0.003872156   0.003872156
Ni1      1.755467969   0.003878300   1.755467969
Ni1      0.003878300   1.755467969   1.755467969



     Writing output data file Ni-ferromag.save
     NEW-OLD atomic charge density approx. for the potential

     Check: negative/imaginary core charge=   -0.000005    0.000000
     extrapolated charge   40.01804, renormalised to   40.00000

     total cpu time spent up to now is     2256.6 secs

     Self-consistent Calculation

     iteration #  1     ecut=    65.00 Ry     beta=0.20
     Davidson diagonalization with overlap
     ethr =  1.00E-06,  avg # of iterations =  2.4

     total cpu time spent up to now is     2317.3 secs

     total energy              =    -343.63020669 Ry
     Harris-Foulkes estimate   =    -343.61131963 Ry
     estimated scf accuracy    <       0.00010405 Ry

     total magnetization       =     2.84 Bohr mag/cell
     absolute magnetization    =     3.26 Bohr mag/cell

     iteration #  2     ecut=    65.00 Ry     beta=0.20
     Davidson diagonalization with overlap
     ethr =  2.60E-07,  avg # of iterations =  1.6

     total cpu time spent up to now is     2357.5 secs

     total energy              =    -343.63027337 Ry
     Harris-Foulkes estimate   =    -343.63028139 Ry
     estimated scf accuracy    <       0.00004164 Ry

     total magnetization       =     2.83 Bohr mag/cell
     absolute magnetization    =     3.25 Bohr mag/cell

     iteration #  3     ecut=    65.00 Ry     beta=0.20
     Davidson diagonalization with overlap
     ethr =  1.04E-07,  avg # of iterations =  1.0

     total cpu time spent up to now is     2396.8 secs

     total energy              =    -343.63026587 Ry
     Harris-Foulkes estimate   =    -343.63027473 Ry
     estimated scf accuracy    <       0.00001435 Ry

     total magnetization       =     2.83 Bohr mag/cell
     absolute magnetization    =     3.25 Bohr mag/cell

     iteration #  4     ecut=    65.00 Ry     beta=0.20
     Davidson diagonalization with overlap
     ethr =  3.59E-08,  avg # of iterations =  1.1

     total cpu time spent up to now is     2436.2 secs

     total energy              =    -343.63027320 Ry
     Harris-Foulkes estimate   =    -343.63027268 Ry
     estimated scf accuracy    <       0.00000610 Ry

     total magnetization       =     2.84 Bohr mag/cell
     absolute magnetization    =     3.25 Bohr mag/cell

     iteration #  5     ecut=    65.00 Ry     beta=0.20
     Davidson diagonalization with overlap
     ethr =  1.52E-08,  avg # of iterations =  1.0

     total cpu time spent up to now is     2475.5 secs

     total energy              =    -343.63027260 Ry
     Harris-Foulkes estimate   =    -343.63027325 Ry
     estimated scf accuracy    <       0.00000836 Ry

     total magnetization       =     2.84 Bohr mag/cell
     absolute magnetization    =     3.25 Bohr mag/cell

     iteration #  6     ecut=    65.00 Ry     beta=0.20
     Davidson diagonalization with overlap
     ethr =  1.52E-08,  avg # of iterations =  1.0

     total cpu time spent up to now is     2514.8 secs

     total energy              =    -343.63027065 Ry
     Harris-Foulkes estimate   =    -343.63027264 Ry
     estimated scf accuracy    <       0.00000591 Ry

     total magnetization       =     2.84 Bohr mag/cell
     absolute magnetization    =     3.25 Bohr mag/cell

     iteration #  7     ecut=    65.00 Ry     beta=0.20
     Davidson diagonalization with overlap
     ethr =  1.48E-08,  avg # of iterations =  1.0

     total cpu time spent up to now is     2554.0 secs

     total energy              =    -343.63027124 Ry
     Harris-Foulkes estimate   =    -343.63027126 Ry
     estimated scf accuracy    <       0.00000032 Ry

     total magnetization       =     2.84 Bohr mag/cell
     absolute magnetization    =     3.25 Bohr mag/cell

     iteration #  8     ecut=    65.00 Ry     beta=0.20
     Davidson diagonalization with overlap
     ethr =  7.90E-10,  avg # of iterations =  1.0

     total cpu time spent up to now is     2593.3 secs

     total energy              =    -343.63027122 Ry
     Harris-Foulkes estimate   =    -343.63027124 Ry
     estimated scf accuracy    <       0.00000026 Ry

     total magnetization       =     2.84 Bohr mag/cell
     absolute magnetization    =     3.25 Bohr mag/cell

     iteration #  9     ecut=    65.00 Ry     beta=0.20
     Davidson diagonalization with overlap
     ethr =  6.39E-10,  avg # of iterations =  1.0

     total cpu time spent up to now is     2632.6 secs

     total energy              =    -343.63027120 Ry
     Harris-Foulkes estimate   =    -343.63027122 Ry
     estimated scf accuracy    <       0.00000016 Ry

     total magnetization       =     2.84 Bohr mag/cell
     absolute magnetization    =     3.25 Bohr mag/cell

     iteration # 10     ecut=    65.00 Ry     beta=0.20
     Davidson diagonalization with overlap
     ethr =  3.95E-10,  avg # of iterations =  1.0

     total cpu time spent up to now is     2671.9 secs

     total energy              =    -343.63027117 Ry
     Harris-Foulkes estimate   =    -343.63027120 Ry
     estimated scf accuracy    <       0.00000007 Ry

     total magnetization       =     2.84 Bohr mag/cell
     absolute magnetization    =     3.25 Bohr mag/cell

     iteration # 11     ecut=    65.00 Ry     beta=0.20
     Davidson diagonalization with overlap
     ethr =  1.87E-10,  avg # of iterations =  1.0

     Magnetic moment per site:
     atom:    1    charge:    3.0049    magn:    0.3349    constr:    0.0000
     atom:    2    charge:    3.0031    magn:    0.3347    constr:    0.0000
     atom:    3    charge:    3.0049    magn:    0.3349    constr:    0.0000
     atom:    4    charge:    3.0049    magn:    0.3349    constr:    0.0000

     total cpu time spent up to now is     2711.2 secs

     End of self-consistent calculation

 ------ SPIN UP ------------


          k = 0.0000 0.0000 0.0000 (  2553 PWs)   bands (ev):

     5.4305   9.7141   9.7142   9.7142  10.1673  10.1673  10.1673  11.9462
    11.9462  11.9462  13.1249  13.1249  13.8427  13.8427  13.8427  13.9326
    13.9326  13.9326  13.9326  13.9326  13.9326  17.0713  17.0713  17.0713
    23.8092  23.8093  23.8093  29.5673  29.5673  29.5673  29.5674  29.5674
    29.5674  34.6447  34.6447  34.6447  37.9898  37.9900  37.9900  38.4951
    42.4710  42.4712  42.4712  46.0683  46.0685  46.0685  48.1733  55.1668
    55.1669  55.1669  57.6088  59.0307

          k =-0.0000-0.0000 0.0476 (  2605 PWs)   bands (ev):

     5.7966   9.7363   9.8983   9.8984  10.2778  10.2936  10.2936  11.8175
    12.0485  12.0486  13.0070  13.1716  13.2787  13.2787  13.6893  13.6893
    13.7567  13.7567  13.7932  13.9329  13.9329  15.4704  18.0299  18.0299
    23.9051  23.9052  26.0585  27.8155  27.8155  28.4438  28.4438  30.1275
    30.1276  34.7608  36.8175  36.8175  37.8593  38.1218  39.9473  39.9473
    40.2490  40.2491  40.9159  47.4885  48.1257  48.1258  49.1481  51.5568
    56.2624  56.2625  56.6726  56.6726

          k =-0.0000-0.0000 0.0952 (  2605 PWs)   bands (ev):

     6.8459   9.5070  10.3353  10.3353  10.5854  10.6768  10.6768  11.4734
    12.2229  12.2229  12.3452  12.3452  12.7192  13.3002  13.3062  13.3108
    13.3108  13.3180  13.3180  13.6590  13.9334  13.9334  19.9923  19.9923
    24.2225  24.2225  25.0420  25.0420  26.6756  26.6756  30.3582  31.7067
    31.7068  35.1240  36.7263  37.0283  37.0285  38.3484  38.6738  40.8617
    40.8617  44.1113  44.1114  44.1435  50.9245  51.0468  51.0468  51.0496
    51.0496  55.0345  55.9376  55.9376

          k = 0.0000 0.0000-0.1427 (  2594 PWs)   bands (ev):

     8.3452   8.3453  10.6114  10.6114  11.0203  11.0204  11.3233  11.3233
    11.3235  11.3235  12.5420  12.5422  12.7972  12.7972  12.7973  12.7973
    13.0623  13.0623  13.4782  13.4783  13.9337  13.9337  22.3777  22.3777
    22.3779  22.3779  24.5957  24.5958  25.7301  25.7301  34.0844  34.0845
    34.0845  34.0847  34.9078  34.9081  35.7716  35.7717  40.2672  40.2677
    45.6627  45.6627  45.6632  45.6632  47.6172  47.6173  52.2887  52.2887
    54.1747  54.1747  54.1751  54.1751

          k =-0.0000 0.0476 0.0476 (  2610 PWs)   bands (ev):

     6.1542   9.9346   9.9346  10.0615  10.3952  10.3952  10.4090  11.7575
    12.0936  12.1106  12.9327  12.9824  12.9910  12.9910  13.1669  13.5606
    13.6852  13.6852  13.7554  13.7554  13.8168  16.4025  16.4025  18.7997
    23.8994  25.0982  26.2458  26.2458  28.2932  28.2932  28.9360  28.9360
    30.6553  36.0340  36.1178  37.0259  37.0259  37.3316  40.1149  40.1149
    41.2704  42.6025  43.5303  45.2308  46.3616  49.7862  50.4541  53.0917
    53.6680  55.3488  55.3488  56.3026

          k =-0.0000 0.0476 0.0952 (  2629 PWs)   bands (ev):

     7.1758   9.7431  10.4166  10.4652  10.6769  10.7301  10.7493  11.4765
    11.9844  12.1241  12.2394  12.3568  12.3823  12.8154  13.2368  13.3154
    13.3222  13.3459  13.4982  13.7521  13.7581  14.4357  18.0167  20.5824
    22.0802  24.6077  25.5033  26.5325  27.4003  29.6065  29.9018  29.9545
    31.0145  33.7228  34.4660  37.6782  38.6310  40.3891  40.5678  40.7469
    41.1174  44.0388  45.0310  47.0569  47.7845  48.5867  49.8921  51.3342
    52.9390  53.2602  54.8159  56.2005

          k = 0.0000 0.0476-0.1427 (  2630 PWs)   bands (ev):

     8.6267   8.6268  10.7639  10.7639  11.0720  11.0722  11.1910  11.1911
    11.3378  11.3380  12.1686  12.1687  12.7980  12.7981  13.0275  13.0275
    13.0473  13.0473  13.6617  13.6617  13.7497  13.7497  19.8851  19.8852
    22.8769  22.8771  25.4112  25.4114  28.3086  28.3086  31.4961  31.4961
    32.0197  32.0197  35.8277  35.8281  38.8272  38.8273  42.2115  42.2119
    43.1135  43.1137  45.9388  45.9392  50.0807  50.0811  50.3538  50.3540
    52.6118  52.6120  53.2016  53.2018

          k =-0.0000 0.0952 0.0952 (  2614 PWs)   bands (ev):

     8.1023  10.3306  10.3306  10.6965  10.9450  10.9450  10.9588  11.4066
    11.6538  11.6538  11.8084  12.1267  12.4877  12.7293  13.0209  13.1760
    13.1761  13.3160  13.3160  13.4860  13.7014  15.6816  15.6816  19.2996
    22.1088  25.1584  26.7761  26.7762  27.8954  27.8955  30.9839  31.6399
    31.6399  31.7356  33.6034  36.8372  41.5267  41.8793  41.8794  43.0743
    43.4117  43.7707  43.7708  47.1883  47.3286  48.4739  48.4739  51.6726
    52.1764  52.1904  53.1988  55.3498

          k = 0.0000 0.0952-0.1427 (  2608 PWs)   bands (ev):

     9.3692   9.3693  10.8013  10.8014  11.1992  11.1993  11.2068  11.2068
    11.3565  11.3566  11.8628  11.8629  12.8348  12.8348  12.8355  12.8356
    12.9016  12.9016  13.3510  13.3510  14.3628  14.3629  17.2129  17.2130
    24.2328  24.2329  26.2263  26.2264  28.6516  28.6517  29.5372  29.5373
    32.9485  32.9486  36.7900  36.7903  40.3639  40.3640  43.0489  43.0490
    43.2159  43.2160  46.7393  46.7396  47.9231  47.9233  50.4266  50.4268
    51.7603  51.7606  53.5622  53.5623

          k = 0.0000-0.1427-0.1427 (  2624 PWs)   bands (ev):

    10.2223  10.2223  10.2224  10.2224  11.3184  11.3185  11.3185  11.3186
    11.6276  11.6276  11.6277  11.6277  12.6887  12.6887  12.6887  12.6887
    13.0026  13.0027  13.0027  13.0028  15.4331  15.4331  15.4331  15.4331
    26.2070  26.2071  26.2071  26.2072  27.5779  27.5780  27.5781  27.5781
    37.8921  37.8922  37.8922  37.8923  38.4991  38.4992  38.4993  38.4994
    47.1780  47.1780  47.1780  47.1781  49.1889  49.1890  49.1891  49.1893
    51.8173  51.8173  51.8174  51.8175

          k = 0.0476 0.0476 0.0476 (  2629 PWs)   bands (ev):

     6.5000  10.0955  10.0955  10.0955  10.5097  10.5097  10.5097  11.7226
    12.1302  12.1302  12.6871  12.6871  12.6871  13.0801  13.0801  13.3272
    13.3272  13.3272  13.8710  13.8710  13.8710  17.0296  17.0296  17.0296
    25.3250  25.3250  25.3250  26.5909  26.5909  26.5909  31.1705  31.1706
    31.1706  33.4813  36.1653  36.1653  36.1653  39.2522  41.1369  41.1369
    42.8098  42.8099  42.8099  46.5918  47.6471  47.6471  51.6412  51.6412
    55.1070  55.2272  55.2272  55.2272

          k = 0.0476 0.0476 0.0952 (  2616 PWs)   bands (ev):

     7.4814   9.9017  10.4786  10.4786  10.7953  10.8234  10.8235  11.5132
    11.9748  11.9748  12.1701  12.2095  12.2696  12.9251  12.9957  13.0814
    13.0814  13.3196  13.7737  13.7737  13.8060  14.7976  18.3718  18.3718
    22.7060  22.7060  26.6186  27.2422  27.2422  30.3574  30.3574  30.7441
    30.9466  32.6501  36.6444  37.7758  37.8496  38.7896  38.7896  42.3597
    43.5020  44.4688  47.0194  47.0194  47.8813  49.0823  50.1991  50.1991
    50.6945  53.0159  53.0766  55.6555

          k = 0.0476 0.0476-0.1427 (  2596 PWs)   bands (ev):

     8.8537   8.8538  10.8658  10.8658  10.9238  10.9238  11.1670  11.1671
    11.5808  11.5808  12.0728  12.0730  12.5428  12.5429  12.9137  12.9137
    13.4891  13.4892  13.5956  13.5957  13.7177  13.7177  19.5206  19.5206
    21.1449  21.1449  28.2065  28.2066  28.4453  28.4454  28.9262  28.9262
    34.9375  34.9377  35.4145  35.4148  38.0937  38.0940  42.2034  42.2035
    44.7549  44.7551  45.3684  45.3684  49.4793  49.4796  50.8982  50.8983
    52.1837  52.1838  53.6799  53.6799

          k = 0.0476 0.0952 0.0952 (  2613 PWs)   bands (ev):

     8.3202  10.2195  10.2195  10.5056  11.1109  11.1569  11.1569  11.5583
    11.7708  11.7708  11.9040  12.1287  12.2546  12.7330  12.7330  12.7493
    13.0521  13.6071  13.6764  13.6916  13.6916  15.8124  15.8124  18.6237
    20.8026  23.9027  23.9027  27.9429  28.0520  31.1335  31.1335  32.1196
    32.1196  34.0163  35.2407  36.9081  39.3238  39.3238  40.1538  43.0363
    43.7344  44.7835  46.4619  46.4620  49.1908  49.1908  50.4167  50.5942
    50.9235  51.6166  52.2999  52.9251

          k = 0.0476 0.0952-0.1427 (  2598 PWs)   bands (ev):

     9.4034   9.4034  10.4407  10.4407  11.3243  11.3243  11.4724  11.4725
    11.7777  11.7778  11.8984  11.8985  12.4039  12.4040  12.6147  12.6147
    13.3493  13.3493  13.5769  13.5769  14.2691  14.2692  17.1899  17.1900
    21.8183  21.8184  25.6633  25.6634  29.4347  29.4348  33.0388  33.0388
    33.2523  33.2524  36.9038  36.9042  40.1367  40.1368  40.4452  40.4452
    45.1917  45.1918  45.6835  45.6837  47.7030  47.7032  50.5713  50.5715
    51.7895  51.7896  53.9017  53.9020

          k = 0.0476-0.1427-0.1427 (  2588 PWs)   bands (ev):

     9.9728   9.9728   9.9728   9.9728  11.7154  11.7154  11.7154  11.7154
    11.8025  11.8025  11.8025  11.8026  12.3754  12.3754  12.3754  12.3754
    13.3318  13.3319  13.3319  13.3319  15.3440  15.3440  15.3440  15.3441
    23.4520  23.4521  23.4521  23.4522  30.9723  30.9724  30.9725  30.9725
    38.1726  38.1726  38.1727  38.1728  38.3429  38.3430  38.3431  38.3432
    46.6547  46.6547  46.6548  46.6548  46.7567  46.7568  46.7569  46.7570
    54.8089  54.8089  54.8090  54.8092

          k = 0.0952 0.0952 0.0952 (  2608 PWs)   bands (ev):

     8.8640  10.0545  10.0545  10.0545  11.5153  11.5153  11.5153  12.0293
    12.0902  12.0902  12.0902  12.0956  12.0956  12.3788  12.3788  12.3788
    13.4549  13.4549  13.8198  13.8198  13.8198  16.1907  16.1907  16.1907
    21.4099  21.4099  21.4099  25.1498  32.4992  32.4993  32.4993  35.2435
    35.2436  35.2436  37.2733  37.2733  37.2733  37.7915  39.9510  39.9510
    44.4444  44.4444  47.7729  48.0651  48.0651  48.0651  48.1391  48.1391
    48.1391  52.4480  52.4480  52.4480

          k = 0.0952 0.0952-0.1427 (  2606 PWs)   bands (ev):

     9.4901   9.4901   9.9860   9.9860  11.6351  11.6351  11.9216  11.9217
    12.1383  12.1383  12.2587  12.2587  12.2733  12.2734  12.3734  12.3734
    13.7403  13.7403  13.7481  13.7481  14.1592  14.1592  16.4749  16.4750
    20.3809  20.3809  22.9676  22.9677  33.4150  33.4150  34.6268  34.6268
    36.3299  36.3301  37.2458  37.2459  38.9942  38.9944  39.4394  39.4394
    44.6514  44.6514  44.9024  44.9026  46.0162  46.0163  48.5502  48.5502
    49.6054  49.6055  52.9776  52.9776

          k = 0.0952-0.1427-0.1427 (  2608 PWs)   bands (ev):

     9.6657   9.6657   9.6657   9.6657  11.8811  11.8811  11.8811  11.8811
    12.0708  12.0708  12.0708  12.0709  12.8203  12.8204  12.8204  12.8204
    13.6682  13.6683  13.6683  13.6683  14.9674  14.9674  14.9675  14.9675
    21.0943  21.0944  21.0944  21.0944  35.1546  35.1547  35.1547  35.1548
    38.2190  38.2190  38.2191  38.2191  38.9396  38.9396  38.9397  38.9397
    44.0933  44.0933  44.0934  44.0934  45.1566  45.1566  45.1566  45.1567
    50.4196  50.4197  50.4197  50.4197

          k =-0.1427-0.1427-0.1427 (  2608 PWs)   bands (ev):

     9.5497   9.5497   9.5497   9.5497  11.9593  11.9593  11.9593  11.9593
    11.9593  11.9593  11.9593  11.9593  13.7957  13.7957  13.7957  13.7957
    13.7957  13.7958  13.7958  13.7958  14.2924  14.2924  14.2924  14.2924
    20.2132  20.2132  20.2132  20.2132  36.9502  36.9504  36.9504  36.9504
    39.5760  39.5760  39.5760  39.5761  39.5761  39.5761  39.5762  39.5762
    42.8021  42.8021  42.8021  42.8021  42.8021  42.8022  42.8022  42.8022
    48.7735  48.7735  48.7735  48.7736

          k =-0.0476 0.0000 0.0476 (  2610 PWs)   bands (ev):

     6.1542   9.9346   9.9346  10.0615  10.3952  10.3952  10.4090  11.7575
    12.0936  12.1106  12.9327  12.9824  12.9910  12.9910  13.1668  13.5606
    13.6852  13.6852  13.7554  13.7554  13.8168  16.4025  16.4025  18.7997
    23.8994  25.0983  26.2458  26.2458  28.2932  28.2932  28.9360  28.9360
    30.6552  36.0339  36.1179  37.0259  37.0259  37.3317  40.1149  40.1150
    41.2703  42.6027  43.5302  45.2307  46.3615  49.7862  50.4542  53.0918
    53.6681  55.3489  55.3489  56.3026

          k =-0.0476-0.0000 0.0952 (  2629 PWs)   bands (ev):

     7.1758   9.7431  10.4166  10.4652  10.6769  10.7302  10.7493  11.4765
    11.9843  12.1241  12.2394  12.3568  12.3823  12.8154  13.2368  13.3154
    13.3222  13.3459  13.4982  13.7521  13.7581  14.4357  18.0167  20.5824
    22.0803  24.6077  25.5033  26.5325  27.4003  29.6064  29.9018  29.9544
    31.0145  33.7228  34.4661  37.6782  38.6309  40.3890  40.5678  40.7469
    41.1175  44.0388  45.0309  47.0571  47.7844  48.5866  49.8922  51.3342
    52.9391  53.2603  54.8158  56.2005

          k =-0.0952 0.0000 0.0952 (  2614 PWs)   bands (ev):

     8.1023  10.3306  10.3306  10.6965  10.9450  10.9450  10.9588  11.4066
    11.6537  11.6538  11.8084  12.1267  12.4877  12.7293  13.0209  13.1761
    13.1761  13.3160  13.3160  13.4860  13.7014  15.6816  15.6816  19.2997
    22.1089  25.1584  26.7761  26.7761  27.8954  27.8954  30.9840  31.6400
    31.6400  31.7357  33.6032  36.8371  41.5266  41.8794  41.8794  43.0742
    43.4117  43.7708  43.7709  47.1881  47.3284  48.4740  48.4740  51.6728
    52.1764  52.1904  53.1988  55.3499

          k = 0.0476-0.0476 0.0476 (  2629 PWs)   bands (ev):

     6.5000  10.0955  10.0955  10.0955  10.5097  10.5097  10.5097  11.7226
    12.1302  12.1302  12.6871  12.6871  12.6871  13.0801  13.0801  13.3272
    13.3272  13.3272  13.8710  13.8710  13.8710  17.0296  17.0296  17.0296
    25.3249  25.3250  25.3251  26.5909  26.5909  26.5909  31.1704  31.1705
    31.1706  33.4815  36.1652  36.1652  36.1653  39.2521  41.1367  41.1369
    42.8099  42.8100  42.8101  46.5918  47.6470  47.6471  51.6411  51.6412
    55.1070  55.2272  55.2272  55.2273

          k = 0.0476-0.0476 0.0952 (  2616 PWs)   bands (ev):

     7.4814   9.9017  10.4786  10.4786  10.7953  10.8234  10.8235  11.5132
    11.9748  11.9748  12.1701  12.2095  12.2696  12.9251  12.9957  13.0814
    13.0814  13.3196  13.7737  13.7737  13.8060  14.7976  18.3718  18.3718
    22.7060  22.7061  26.6186  27.2422  27.2423  30.3574  30.3574  30.7443
    30.9467  32.6500  36.6443  37.7757  37.8494  38.7895  38.7896  42.3597
    43.5021  44.4688  47.0194  47.0195  47.8813  49.0822  50.1991  50.1992
    50.6945  53.0159  53.0766  55.6554

          k =-0.0952 0.0476 0.0476 (  2616 PWs)   bands (ev):

     7.4814   9.9017  10.4786  10.4786  10.7953  10.8235  10.8235  11.5132
    11.9747  11.9748  12.1701  12.2095  12.2697  12.9251  12.9957  13.0814
    13.0814  13.3196  13.7737  13.7737  13.8060  14.7975  18.3718  18.3718
    22.7061  22.7061  26.6185  27.2422  27.2422  30.3573  30.3573  30.7443
    30.9467  32.6501  36.6444  37.7758  37.8495  38.7895  38.7895  42.3596
    43.5020  44.4686  47.0196  47.0196  47.8811  49.0823  50.1992  50.1992
    50.6945  53.0160  53.0767  55.6555

          k = 0.0476-0.0476-0.1427 (  2596 PWs)   bands (ev):

     8.8537   8.8538  10.8658  10.8658  10.9238  10.9238  11.1670  11.1671
    11.5808  11.5808  12.0728  12.0730  12.5428  12.5429  12.9137  12.9138
    13.4891  13.4892  13.5956  13.5957  13.7177  13.7177  19.5206  19.5206
    21.1448  21.1449  28.2065  28.2066  28.4454  28.4455  28.9262  28.9262
    34.9374  34.9375  35.4145  35.4148  38.0937  38.0939  42.2034  42.2035
    44.7550  44.7552  45.3683  45.3684  49.4794  49.4796  50.8982  50.8983
    52.1837  52.1839  53.6798  53.6800

          k = 0.0952-0.0476 0.0952 (  2613 PWs)   bands (ev):

     8.3202  10.2195  10.2195  10.5056  11.1109  11.1569  11.1569  11.5583
    11.7708  11.7708  11.9040  12.1287  12.2546  12.7329  12.7329  12.7493
    13.0521  13.6071  13.6764  13.6916  13.6916  15.8124  15.8124  18.6237
    20.8025  23.9028  23.9028  27.9430  28.0521  31.1334  31.1335  32.1196
    32.1196  34.0163  35.2405  36.9081  39.3236  39.3236  40.1537  43.0362
    43.7343  44.7835  46.4620  46.4620  49.1910  49.1910  50.4167  50.5943
    50.9234  51.6166  52.2999  52.9252

          k =-0.0952 0.0476 0.0952 (  2613 PWs)   bands (ev):

     8.3202  10.2195  10.2195  10.5056  11.1109  11.1569  11.1569  11.5583
    11.7708  11.7708  11.9040  12.1287  12.2546  12.7329  12.7330  12.7493
    13.0521  13.6071  13.6764  13.6916  13.6916  15.8124  15.8124  18.6237
    20.8026  23.9027  23.9028  27.9430  28.0521  31.1334  31.1335  32.1196
    32.1197  34.0162  35.2407  36.9080  39.3237  39.3238  40.1537  43.0362
    43.7343  44.7834  46.4621  46.4621  49.1909  49.1910  50.4167  50.5942
    50.9235  51.6165  52.3001  52.9252

          k = 0.0952-0.0476-0.1427 (  2598 PWs)   bands (ev):

     9.4034   9.4035  10.4407  10.4407  11.3243  11.3243  11.4724  11.4725
    11.7777  11.7777  11.8984  11.8985  12.4039  12.4040  12.6147  12.6147
    13.3493  13.3493  13.5769  13.5769  14.2691  14.2692  17.1899  17.1900
    21.8183  21.8184  25.6634  25.6634  29.4348  29.4348  33.0386  33.0388
    33.2523  33.2524  36.9038  36.9041  40.1367  40.1368  40.4450  40.4452
    45.1917  45.1918  45.6835  45.6837  47.7031  47.7032  50.5714  50.5716
    51.7896  51.7897  53.9018  53.9020

          k = 0.0952-0.0952 0.0952 (  2608 PWs)   bands (ev):

     8.8640  10.0545  10.0545  10.0545  11.5153  11.5154  11.5154  12.0293
    12.0902  12.0902  12.0902  12.0956  12.0956  12.3788  12.3788  12.3788
    13.4549  13.4549  13.8198  13.8198  13.8198  16.1907  16.1907  16.1907
    21.4098  21.4099  21.4099  25.1499  32.4993  32.4994  32.4994  35.2435
    35.2435  35.2436  37.2732  37.2733  37.2734  37.7914  39.9508  39.9509
    44.4443  44.4444  47.7729  48.0651  48.0651  48.0652  48.1391  48.1391
    48.1392  52.4481  52.4482  52.4482

          k = 0.0952-0.0952-0.1427 (  2606 PWs)   bands (ev):

     9.4901   9.4901   9.9859   9.9860  11.6351  11.6351  11.9216  11.9217
    12.1383  12.1383  12.2587  12.2587  12.2734  12.2734  12.3733  12.3734
    13.7403  13.7403  13.7481  13.7481  14.1592  14.1592  16.4749  16.4750
    20.3808  20.3809  22.9677  22.9677  33.4150  33.4151  34.6268  34.6269
    36.3299  36.3301  37.2457  37.2458  38.9941  38.9944  39.4393  39.4394
    44.6513  44.6515  44.9025  44.9026  46.0162  46.0162  48.5503  48.5504
    49.6054  49.6055  52.9777  52.9777

 ------ SPIN DOWN ----------


          k = 0.0000 0.0000 0.0000 (  2553 PWs)   bands (ev):

     5.3758  10.1763  10.1763  10.1763  10.8857  10.8857  10.8857  12.8267
    12.8268  12.8268  13.9052  13.9052  14.6569  14.6570  14.6570  14.9423
    14.9423  14.9423  14.9423  14.9423  14.9423  16.9925  16.9925  16.9925
    24.1149  24.1150  24.1150  29.5535  29.5535  29.5536  29.5536  29.5537
    29.5537  34.8090  34.8090  34.8090  38.1333  38.1335  38.1335  38.2896
    42.4417  42.4419  42.4419  46.1408  46.1410  46.1410  48.0138  55.3558
    55.3559  55.3559  58.1289  59.5479

          k =-0.0000-0.0000 0.0476 (  2605 PWs)   bands (ev):

     5.7420  10.1519  10.3705  10.3705  11.0050  11.0095  11.0095  12.6848
    12.9332  12.9332  13.7777  13.9540  14.0989  14.0989  14.4900  14.4900
    14.6050  14.7496  14.7496  14.9426  14.9426  15.5406  18.1367  18.1367
    24.1957  24.1958  26.2604  27.8841  27.8841  28.4710  28.4711  30.1301
    30.1302  34.9125  36.8985  36.8985  37.7206  38.2629  40.0678  40.0679
    40.2909  40.2910  40.8460  47.5090  48.0996  48.0997  49.2198  51.5476
    56.4737  56.4737  56.5992  56.5992

          k =-0.0000-0.0000 0.0952 (  2605 PWs)   bands (ev):

     6.7956   9.7152  10.8319  10.8320  11.3381  11.3872  11.3872  12.3064
    12.9524  12.9524  13.2429  13.2430  13.4569  13.6768  14.0780  14.0781
    14.0885  14.2747  14.2747  14.4643  14.9432  14.9432  20.1775  20.1775
    24.4687  24.4687  25.1828  25.1828  26.7737  26.7738  30.4539  31.7436
    31.7438  35.2381  36.6917  37.0998  37.0999  38.2581  38.8198  40.8672
    40.8672  44.2107  44.2108  44.3617  50.8800  50.9519  50.9519  50.9761
    50.9761  54.9302  56.1785  56.1785

          k = 0.0000 0.0000-0.1427 (  2594 PWs)   bands (ev):

     8.3387   8.3388  11.1237  11.1237  11.8109  11.8111  12.0327  12.0327
    12.0329  12.0329  13.1901  13.1903  13.7191  13.7191  13.7192  13.7192
    13.8084  13.8084  14.2749  14.2749  14.9435  14.9435  22.5594  22.5594
    22.5596  22.5596  24.7925  24.7925  25.8874  25.8874  34.1495  34.1496
    34.1496  34.1497  34.8880  34.8884  35.8231  35.8232  40.4592  40.4597
    45.6183  45.6183  45.6188  45.6188  47.6912  47.6913  52.4778  52.4778
    54.0644  54.0645  54.0648  54.0649

          k =-0.0000 0.0476 0.0476 (  2610 PWs)   bands (ev):

     6.1005  10.3628  10.3628  10.5525  11.1089  11.1193  11.1193  12.6111
    12.9836  12.9880  13.6979  13.7392  13.7392  13.7511  13.9541  14.3515
    14.4776  14.4776  14.7485  14.7485  14.8191  16.7170  16.7170  18.9653
    24.1581  25.2279  26.4345  26.4345  28.3761  28.3762  28.9770  28.9770
    30.6663  36.1096  36.1381  37.0966  37.0966  37.3491  40.2327  40.2328
    41.1896  42.6899  43.4994  45.1744  46.4223  49.9449  50.3796  53.2643
    53.6336  55.3108  55.3108  56.2429

          k =-0.0000 0.0476 0.0952 (  2629 PWs)   bands (ev):

     7.1302   9.9657  10.8791  10.9973  11.3923  11.4250  11.4664  12.2987
    12.6759  12.8450  13.0387  13.0789  13.2591  13.5800  14.0020  14.0875
    14.1575  14.2437  14.2730  14.7456  14.7547  15.1450  18.3554  20.7864
    22.2788  24.8357  25.6550  26.6674  27.5255  29.7150  29.9635  30.0250
    31.1118  33.8009  34.5085  37.7202  38.6690  40.3407  40.5154  40.8667
    41.1171  44.1210  45.2354  47.1234  47.7069  48.5691  49.8762  51.2595
    52.8946  53.1696  55.0357  56.4531

          k = 0.0000 0.0476-0.1427 (  2630 PWs)   bands (ev):

     8.6322   8.6323  11.2673  11.2673  11.8554  11.8555  11.8679  11.8680
    12.0499  12.0501  12.9097  12.9098  13.7226  13.7227  13.7972  13.7972
    13.7975  13.7976  14.5004  14.5004  14.7440  14.7440  20.1666  20.1667
    23.0701  23.0703  25.5828  25.5830  28.4255  28.4257  31.6101  31.6102
    32.0776  32.0776  35.8529  35.8534  38.8286  38.8287  42.3642  42.3645
    43.1066  43.1068  45.8909  45.8913  50.1461  50.1465  50.2862  50.2864
    52.5283  52.5284  53.3695  53.3697

          k =-0.0000 0.0952 0.0952 (  2614 PWs)   bands (ev):

     8.0801  10.6039  10.6039  11.3609  11.4431  11.6809  11.6809  12.2007
    12.3471  12.3471  12.5208  12.9181  13.4032  13.4764  13.7746  13.9136
    13.9136  14.2772  14.2772  14.4670  14.5439  16.2870  16.2870  19.6073
    22.3281  25.3568  26.9430  26.9431  27.9966  27.9966  31.1149  31.7287
    31.7287  31.8032  33.6559  36.8730  41.4632  41.8613  41.8613  43.1090
    43.2944  43.8131  43.8132  47.3095  47.3578  48.5188  48.5188  51.7321
    52.0673  52.1312  53.4022  55.2526

          k = 0.0000 0.0952-0.1427 (  2608 PWs)   bands (ev):

     9.4306   9.4307  11.2211  11.2212  11.8469  11.8470  11.9623  11.9624
    12.0772  12.0774  12.5998  12.5999  13.5693  13.5693  13.6431  13.6431
    13.7693  13.7694  14.3197  14.3197  15.1691  15.1691  17.6771  17.6772
    24.4380  24.4381  26.3780  26.3782  28.8139  28.8140  29.6273  29.6274
    33.0203  33.0204  36.8177  36.8180  40.3628  40.3629  42.9948  42.9949
    43.2342  43.2343  46.6776  46.6779  48.0054  48.0056  50.3739  50.3741
    51.8812  51.8815  53.4769  53.4770

          k = 0.0000-0.1427-0.1427 (  2624 PWs)   bands (ev):

    10.4417  10.4418  10.4418  10.4418  12.0565  12.0566  12.0566  12.0568
    12.2970  12.2970  12.2970  12.2971  13.4265  13.4265  13.4266  13.4266
    13.9519  13.9520  13.9520  13.9521  16.1151  16.1151  16.1151  16.1151
    26.4021  26.4022  26.4022  26.4023  27.7015  27.7016  27.7016  27.7017
    37.9663  37.9663  37.9664  37.9665  38.4652  38.4653  38.4654  38.4655
    47.0581  47.0582  47.0582  47.0582  49.1781  49.1783  49.1784  49.1786
    51.9185  51.9185  51.9186  51.9186

          k = 0.0476 0.0476 0.0476 (  2629 PWs)   bands (ev):

     6.4492  10.5507  10.5507  10.5507  11.2105  11.2105  11.2105  12.5562
    13.0086  13.0086  13.3979  13.3979  13.3979  13.8666  13.8666  14.1585
    14.1585  14.1585  14.8196  14.8196  14.8196  17.3707  17.3707  17.3707
    25.4565  25.4565  25.4565  26.7642  26.7642  26.7642  31.1924  31.1925
    31.1925  33.5479  36.2603  36.2604  36.2604  39.0968  41.1895  41.1895
    42.8939  42.8940  42.8940  46.5044  47.6043  47.6043  51.8080  51.8080
    55.1805  55.1805  55.1805  55.4444

          k = 0.0476 0.0476 0.0952 (  2616 PWs)   bands (ev):

     7.4463  10.1644  11.0103  11.0103  11.4520  11.4520  11.5078  12.3090
    12.6773  12.6773  12.8426  13.0401  13.1302  13.7715  13.8058  13.8684
    13.8685  14.1421  14.7075  14.7372  14.7372  15.4280  18.6988  18.6988
    22.9163  22.9163  26.7628  27.3912  27.3912  30.4323  30.4323  30.8583
    31.0341  32.6965  36.7189  37.6817  37.9268  38.8199  38.8200  42.3673
    43.5823  44.4862  47.0635  47.0636  47.9233  49.0281  50.1880  50.1880
    50.7015  52.9453  53.0367  55.7705

          k = 0.0476 0.0476-0.1427 (  2596 PWs)   bands (ev):

     8.8883   8.8883  11.4379  11.4380  11.5053  11.5053  11.9181  11.9182
    12.2950  12.2950  12.8227  12.8228  13.3936  13.3937  13.6776  13.6776
    14.2940  14.2941  14.4570  14.4570  14.6896  14.6896  19.7780  19.7780
    21.4488  21.4488  28.3215  28.3215  28.5872  28.5874  29.0408  29.0409
    35.0069  35.0070  35.3878  35.3881  38.1710  38.1713  42.1847  42.1848
    44.8418  44.8420  45.3574  45.3575  49.3999  49.4002  50.8526  50.8527
    52.2172  52.2173  53.8595  53.8595

          k = 0.0476 0.0952 0.0952 (  2613 PWs)   bands (ev):

     8.3322  10.6123  10.6123  11.1241  11.6180  11.7589  11.7589  12.2851
    12.4910  12.4910  12.6160  12.9296  13.0790  13.5325  13.5326  13.5347
    13.8957  14.4562  14.6050  14.6050  14.6218  16.3658  16.3658  18.8985
    21.1464  24.1198  24.1198  28.1048  28.1797  31.1973  31.1973  32.2122
    32.2122  34.0709  35.2663  36.9334  39.3386  39.3386  40.0775  43.1499
    43.7262  44.7293  46.4560  46.4560  49.2456  49.2456  50.3484  50.5779
    50.8999  51.6892  52.3655  52.8521

          k = 0.0476 0.0952-0.1427 (  2598 PWs)   bands (ev):

     9.5529   9.5530  10.9758  10.9758  11.8787  11.8787  12.1186  12.1187
    12.4716  12.4716  12.6589  12.6590  13.2082  13.2082  13.3893  13.3894
    14.2147  14.2148  14.5129  14.5130  15.0623  15.0623  17.6010  17.6011
    22.1185  22.1186  25.8633  25.8634  29.5353  29.5354  33.0955  33.0956
    33.3213  33.3214  36.9169  36.9172  40.1210  40.1211  40.4677  40.4678
    45.1790  45.1791  45.6753  45.6755  47.6839  47.6841  50.6096  50.6098
    51.7290  51.7291  53.9776  53.9790

          k = 0.0476-0.1427-0.1427 (  2588 PWs)   bands (ev):

    10.3297  10.3297  10.3298  10.3298  12.2859  12.2859  12.2859  12.2860
    12.5057  12.5058  12.5058  12.5058  13.1527  13.1527  13.1527  13.1528
    14.2440  14.2441  14.2441  14.2441  15.9897  15.9898  15.9898  15.9898
    23.7098  23.7099  23.7099  23.7099  31.0550  31.0551  31.0552  31.0552
    38.2449  38.2449  38.2450  38.2451  38.2937  38.2939  38.2939  38.2940
    46.5866  46.5866  46.5866  46.5867  46.7825  46.7825  46.7826  46.7828
    54.8733  54.8733  54.8735  55.0858

          k = 0.0952 0.0952 0.0952 (  2608 PWs)   bands (ev):

     8.9972  10.5643  10.5643  10.5643  12.0744  12.0744  12.0744  12.5522
    12.7699  12.7699  12.7699  12.8967  12.8967  13.1700  13.1700  13.1700
    14.3360  14.3361  14.7476  14.7476  14.7476  16.6173  16.6173  16.6173
    21.7485  21.7485  21.7485  25.3752  32.5457  32.5458  32.5458  35.3050
    35.3051  35.3051  37.2860  37.2861  37.2861  37.6206  40.0371  40.0371
    44.4538  44.4538  47.7882  48.0136  48.0136  48.0136  48.1406  48.1406
    48.1406  52.4793  52.4793  52.4793

          k = 0.0952 0.0952-0.1427 (  2606 PWs)   bands (ev):

     9.8225   9.8225  10.5241  10.5241  12.2669  12.2669  12.5804  12.5805
    12.8277  12.8278  12.9306  12.9306  12.9733  12.9733  13.0375  13.0375
    14.6493  14.6493  14.6768  14.6768  14.8750  14.8751  16.8065  16.8066
    20.8180  20.8180  23.2570  23.2571  33.4228  33.4229  34.7128  34.7129
    36.2213  36.2215  37.3182  37.3183  39.0744  39.0747  39.4140  39.4140
    44.6780  44.6780  44.8797  44.8799  46.0246  46.0247  48.5101  48.5101
    49.6589  49.6590  53.0866  53.0866

          k = 0.0952-0.1427-0.1427 (  2608 PWs)   bands (ev):

    10.1365  10.1365  10.1365  10.1365  12.6141  12.6142  12.6142  12.6142
    12.8468  12.8468  12.8468  12.8468  13.2607  13.2608  13.2608  13.2608
    14.5865  14.5866  14.5866  14.5866  15.4990  15.4990  15.4990  15.4991
    21.4871  21.4871  21.4871  21.4872  35.1287  35.1288  35.1289  35.1289
    38.1880  38.1881  38.1881  38.1882  39.0087  39.0088  39.0088  39.0089
    44.1254  44.1254  44.1255  44.1256  45.1493  45.1493  45.1494  45.1494
    50.5101  50.5101  50.5101  50.5102

          k =-0.1427-0.1427-0.1427 (  2608 PWs)   bands (ev):

    10.0512  10.0512  10.0512  10.0512  12.7324  12.7324  12.7324  12.7324
    12.7324  12.7324  12.7324  12.7324  14.1931  14.1931  14.1932  14.1932
    14.7193  14.7193  14.7193  14.7193  14.7193  14.7193  14.7193  14.7193
    20.6955  20.6956  20.6956  20.6956  36.7661  36.7664  36.7664  36.7664
    39.6461  39.6461  39.6461  39.6462  39.6462  39.6462  39.6463  39.6463
    42.8325  42.8325  42.8325  42.8326  42.8326  42.8326  42.8327  42.8327
    48.8876  48.8876  48.8876  48.8877

          k =-0.0476 0.0000 0.0476 (  2610 PWs)   bands (ev):

     6.1005  10.3628  10.3628  10.5525  11.1089  11.1193  11.1193  12.6111
    12.9836  12.9880  13.6979  13.7392  13.7392  13.7511  13.9541  14.3515
    14.4776  14.4776  14.7485  14.7485  14.8191  16.7170  16.7170  18.9653
    24.1582  25.2280  26.4345  26.4346  28.3761  28.3762  28.9770  28.9770
    30.6662  36.1097  36.1380  37.0966  37.0966  37.3492  40.2327  40.2328
    41.1895  42.6901  43.4993  45.1743  46.4222  49.9448  50.3797  53.2644
    53.6336  55.3109  55.3109  56.2428

          k =-0.0476-0.0000 0.0952 (  2629 PWs)   bands (ev):

     7.1302   9.9657  10.8791  10.9974  11.3923  11.4250  11.4664  12.2987
    12.6759  12.8450  13.0387  13.0789  13.2591  13.5800  14.0020  14.0875
    14.1575  14.2437  14.2730  14.7456  14.7547  15.1450  18.3553  20.7864
    22.2788  24.8357  25.6550  26.6674  27.5255  29.7149  29.9635  30.0249
    31.1119  33.8010  34.5086  37.7203  38.6689  40.3406  40.5154  40.8667
    41.1171  44.1210  45.2354  47.1235  47.7069  48.5690  49.8763  51.2594
    52.8947  53.1697  55.0356  56.4531

          k =-0.0952 0.0000 0.0952 (  2614 PWs)   bands (ev):

     8.0801  10.6038  10.6038  11.3609  11.4431  11.6809  11.6809  12.2007
    12.3471  12.3471  12.5208  12.9181  13.4032  13.4764  13.7746  13.9136
    13.9136  14.2772  14.2772  14.4670  14.5439  16.2870  16.2870  19.6074
    22.3281  25.3568  26.9430  26.9430  27.9966  27.9966  31.1150  31.7288
    31.7288  31.8032  33.6557  36.8729  41.4631  41.8613  41.8614  43.1089
    43.2943  43.8132  43.8133  47.3094  47.3577  48.5189  48.5189  51.7323
    52.0673  52.1311  53.4021  55.2527

          k = 0.0476-0.0476 0.0476 (  2629 PWs)   bands (ev):

     6.4492  10.5507  10.5507  10.5507  11.2105  11.2105  11.2105  12.5562
    13.0086  13.0086  13.3979  13.3979  13.3979  13.8666  13.8666  14.1585
    14.1585  14.1585  14.8196  14.8196  14.8196  17.3707  17.3707  17.3707
    25.4565  25.4566  25.4566  26.7642  26.7642  26.7642  31.1923  31.1923
    31.1925  33.5481  36.2602  36.2603  36.2604  39.0968  41.1894  41.1895
    42.8940  42.8941  42.8942  46.5044  47.6042  47.6043  51.8079  51.8080
    55.1805  55.1805  55.1806  55.4443

          k = 0.0476-0.0476 0.0952 (  2616 PWs)   bands (ev):

     7.4464  10.1644  11.0103  11.0103  11.4520  11.4520  11.5079  12.3090
    12.6773  12.6773  12.8426  13.0402  13.1302  13.7715  13.8058  13.8684
    13.8685  14.1421  14.7075  14.7372  14.7372  15.4280  18.6988  18.6988
    22.9162  22.9163  26.7629  27.3913  27.3913  30.4322  30.4323  30.8585
    31.0341  32.6964  36.7189  37.6816  37.9266  38.8198  38.8199  42.3673
    43.5825  44.4862  47.0636  47.0637  47.9233  49.0280  50.1880  50.1881
    50.7015  52.9454  53.0367  55.7704

          k =-0.0952 0.0476 0.0476 (  2616 PWs)   bands (ev):

     7.4464  10.1644  11.0103  11.0103  11.4520  11.4520  11.5078  12.3090
    12.6773  12.6773  12.8426  13.0401  13.1302  13.7715  13.8058  13.8684
    13.8685  14.1421  14.7075  14.7372  14.7372  15.4280  18.6988  18.6988
    22.9163  22.9163  26.7627  27.3913  27.3913  30.4322  30.4322  30.8585
    31.0342  32.6966  36.7190  37.6817  37.9267  38.8198  38.8199  42.3672
    43.5824  44.4860  47.0637  47.0638  47.9232  49.0280  50.1881  50.1881
    50.7015  52.9455  53.0368  55.7705

          k = 0.0476-0.0476-0.1427 (  2596 PWs)   bands (ev):

     8.8883   8.8884  11.4379  11.4380  11.5053  11.5053  11.9181  11.9182
    12.2950  12.2950  12.8227  12.8228  13.3936  13.3937  13.6776  13.6776
    14.2940  14.2941  14.4570  14.4570  14.6896  14.6896  19.7779  19.7780
    21.4488  21.4488  28.3215  28.3215  28.5874  28.5874  29.0408  29.0409
    35.0068  35.0069  35.3878  35.3881  38.1710  38.1712  42.1847  42.1849
    44.8419  44.8421  45.3574  45.3575  49.4000  49.4002  50.8525  50.8526
    52.2172  52.2174  53.8594  53.8595

          k = 0.0952-0.0476 0.0952 (  2613 PWs)   bands (ev):

     8.3322  10.6124  10.6124  11.1241  11.6180  11.7589  11.7589  12.2851
    12.4910  12.4910  12.6160  12.9296  13.0790  13.5325  13.5325  13.5347
    13.8957  14.4562  14.6050  14.6050  14.6217  16.3658  16.3658  18.8984
    21.1464  24.1198  24.1198  28.1049  28.1798  31.1972  31.1973  32.2122
    32.2122  34.0709  35.2661  36.9334  39.3384  39.3384  40.0774  43.1499
    43.7261  44.7293  46.4560  46.4561  49.2457  49.2457  50.3485  50.5780
    50.8998  51.6892  52.3655  52.8522

          k =-0.0952 0.0476 0.0952 (  2613 PWs)   bands (ev):

     8.3322  10.6123  10.6123  11.1241  11.6180  11.7589  11.7589  12.2851
    12.4910  12.4910  12.6160  12.9296  13.0790  13.5325  13.5325  13.5347
    13.8957  14.4562  14.6050  14.6050  14.6217  16.3658  16.3658  18.8985
    21.1465  24.1197  24.1198  28.1049  28.1798  31.1972  31.1973  32.2122
    32.2122  34.0708  35.2662  36.9333  39.3385  39.3386  40.0774  43.1498
    43.7261  44.7293  46.4561  46.4561  49.2457  49.2458  50.3484  50.5779
    50.8999  51.6891  52.3657  52.8522

          k = 0.0952-0.0476-0.1427 (  2598 PWs)   bands (ev):

     9.5529   9.5530  10.9758  10.9758  11.8787  11.8787  12.1186  12.1187
    12.4716  12.4716  12.6589  12.6590  13.2082  13.2082  13.3893  13.3894
    14.2147  14.2148  14.5129  14.5130  15.0623  15.0623  17.6010  17.6011
    22.1185  22.1186  25.8634  25.8635  29.5353  29.5354  33.0954  33.0955
    33.3213  33.3214  36.9169  36.9172  40.1209  40.1211  40.4676  40.4678
    45.1789  45.1790  45.6753  45.6755  47.6840  47.6841  50.6097  50.6099
    51.7291  51.7292  53.9775  53.9790

          k = 0.0952-0.0952 0.0952 (  2608 PWs)   bands (ev):

     8.9972  10.5643  10.5643  10.5644  12.0744  12.0744  12.0744  12.5522
    12.7699  12.7699  12.7699  12.8967  12.8968  13.1700  13.1700  13.1700
    14.3360  14.3361  14.7476  14.7476  14.7476  16.6173  16.6173  16.6173
    21.7484  21.7485  21.7485  25.3753  32.5458  32.5458  32.5459  35.3049
    35.3050  35.3051  37.2860  37.2860  37.2861  37.6205  40.0369  40.0370
    44.4537  44.4537  47.7881  48.0136  48.0136  48.0137  48.1406  48.1406
    48.1407  52.4794  52.4795  52.4795

          k = 0.0952-0.0952-0.1427 (  2606 PWs)   bands (ev):

     9.8225   9.8225  10.5241  10.5241  12.2669  12.2669  12.5804  12.5805
    12.8277  12.8278  12.9305  12.9305  12.9733  12.9733  13.0375  13.0375
    14.6493  14.6493  14.6768  14.6768  14.8751  14.8751  16.8065  16.8066
    20.8179  20.8180  23.2571  23.2572  33.4229  33.4230  34.7129  34.7129
    36.2213  36.2215  37.3181  37.3182  39.0744  39.0746  39.4139  39.4141
    44.6779  44.6780  44.8798  44.8799  46.0246  46.0246  48.5102  48.5102
    49.6589  49.6590  53.0867  53.0868

     the Fermi energy is    14.4923 ev

!    total energy              =    -343.63027118 Ry
     Harris-Foulkes estimate   =    -343.63027118 Ry
     estimated scf accuracy    <          3.6E-12 Ry

     The total energy is the sum of the following terms:

     one-electron contribution =      -6.38328201 Ry
     hartree contribution      =      60.34887858 Ry
     xc contribution           =    -120.51418155 Ry
     ewald contribution        =    -277.03326992 Ry
     Dispersion Correction     =      -0.04784320 Ry
     smearing contrib. (-TS)   =      -0.00057309 Ry

     total magnetization       =     2.84 Bohr mag/cell
     absolute magnetization    =     3.25 Bohr mag/cell

     convergence has been achieved in  11 iterations

     Forces acting on atoms (Ry/au):

     atom    1 type  1   force =    -0.00000464   -0.00000464    0.00000444
     atom    2 type  1   force =     0.00000485    0.00000485    0.00000485
     atom    3 type  1   force =    -0.00000464    0.00000444   -0.00000464
     atom    4 type  1   force =     0.00000444   -0.00000464   -0.00000464

     Total force =     0.000016     Total SCF correction =     0.000005
     SCF correction compared to forces is large: reduce conv_thr to get better values


     entering subroutine stress ...

          total   stress  (Ry/bohr**3)                   (kbar)     P=    0.13
   0.00000086  -0.00000002  -0.00000002          0.13     -0.00     -0.00
  -0.00000002   0.00000086  -0.00000002         -0.00      0.13     -0.00
  -0.00000002  -0.00000002   0.00000086         -0.00     -0.00      0.13


     bfgs converged in   5 scf cycles and   4 bfgs steps
     (criteria: energy <  1.0E-04, force <  1.0E-03, cell <  5.0E-01)

     End of BFGS Geometry Optimization

     Final enthalpy =    -343.6302711806 Ry
Begin final coordinates
     new unit-cell volume =    290.11021 a.u.^3 (    42.98990 Ang^3 )

CELL_PARAMETERS (alat=  1.88972590)
   3.503124102   0.000004634   0.000004634
   0.000004634   3.503124102   0.000004634
   0.000004634   0.000004634   3.503124102

ATOMIC_POSITIONS (alat)
Ni1      1.755467969   1.755467969   0.003878300
Ni1      0.003872156   0.003872156   0.003872156
Ni1      1.755467969   0.003878300   1.755467969
Ni1      0.003878300   1.755467969   1.755467969
End final coordinates



     A final scf calculation at the relaxed structure.
     The G-vectors are recalculated for the final unit cell
     Results may differ from those at the preceding step.

     G-vector sticks info
     --------------------
     sticks:   dense  smooth     PW     G-vecs:    dense   smooth      PW
     Sum        1389     889    277                39127    20377    3407

     Generating pointlists ...

     Title: 
     Ni-ferro-mag                                                               


     bravais-lattice index     =            0
     lattice parameter (alat)  =       1.8897  a.u.
     unit-cell volume          =     290.1102 (a.u.)^3
     number of atoms/cell      =            4
     number of atomic types    =            1
     number of electrons       =        40.00
     number of Kohn-Sham states=           52
     kinetic-energy cutoff     =      65.0000  Ry
     charge density cutoff     =     400.0000  Ry
     convergence threshold     =      1.0E-10
     mixing beta               =       0.2000
     number of iterations used =            8  plain     mixing
     Exchange-correlation      =  SLA  PW   PBE  PBE ( 1  4  3  4 0 0)

     celldm(1)=   1.889726  celldm(2)=   0.000000  celldm(3)=   0.000000
     celldm(4)=   0.000000  celldm(5)=   0.000000  celldm(6)=   0.000000

     crystal axes: (cart. coord. in units of alat)
               a(1) = (   3.503124   0.000005   0.000005 )  
               a(2) = (   0.000005   3.503124   0.000005 )  
               a(3) = (   0.000005   0.000005   3.503124 )  

     reciprocal axes: (cart. coord. in units 2 pi/alat)
               b(1) = (  0.285459 -0.000000 -0.000000 )  
               b(2) = ( -0.000000  0.285459 -0.000000 )  
               b(3) = ( -0.000000 -0.000000  0.285459 )  


     PseudoPot. # 1 for Ni read from file:
     /home/eliot/pseudo/Ni.pbe-nd-rrkjus.UPF
     MD5 check sum: 8081f0a005c9a5470caab1a58e82ecb2
     Pseudo is Ultrasoft + core correction, Zval = 10.0
     Generated by new atomic code, or converted to UPF format
     Using radial grid of 1203 points,  6 beta functions with: 
                l(1) =   0
                l(2) =   0
                l(3) =   1
                l(4) =   1
                l(5) =   2
                l(6) =   2
     Q(r) pseudized with 0 coefficients 


     atomic species   valence    mass     pseudopotential
        Ni1           10.00    58.69340     Ni( 1.00)

     Starting magnetic structure 
     atomic species   magnetization
        Ni1          0.500

      6 Sym. Ops. (no inversion) found



   Cartesian axes

     site n.     atom                  positions (alat units)
         1           Ni1 tau(   1) = (   1.7554680   1.7554680   0.0038783  )
         2           Ni1 tau(   2) = (   0.0038722   0.0038722   0.0038722  )
         3           Ni1 tau(   3) = (   1.7554680   0.0038783   1.7554680  )
         4           Ni1 tau(   4) = (   0.0038783   1.7554680   1.7554680  )

     number of k points=    32  Methfessel-Paxton smearing, width (Ry)=  0.0500
                       cart. coord. in units 2pi/alat
        k(    1) = (   0.0000000   0.0000000   0.0000000), wk =   0.0046296
        k(    2) = (  -0.0000001  -0.0000001   0.0475766), wk =   0.0277778
        k(    3) = (  -0.0000001  -0.0000001   0.0951532), wk =   0.0277778
        k(    4) = (   0.0000002   0.0000002  -0.1427297), wk =   0.0138889
        k(    5) = (  -0.0000001   0.0475765   0.0475765), wk =   0.0277778
        k(    6) = (  -0.0000002   0.0475765   0.0951531), wk =   0.0555556
        k(    7) = (   0.0000001   0.0475768  -0.1427298), wk =   0.0555556
        k(    8) = (  -0.0000003   0.0951530   0.0951530), wk =   0.0277778
        k(    9) = (   0.0000001   0.0951534  -0.1427299), wk =   0.0555556
        k(   10) = (   0.0000004  -0.1427296  -0.1427296), wk =   0.0138889
        k(   11) = (   0.0475765   0.0475765   0.0475765), wk =   0.0092593
        k(   12) = (   0.0475764   0.0475764   0.0951530), wk =   0.0277778
        k(   13) = (   0.0475767   0.0475767  -0.1427299), wk =   0.0277778
        k(   14) = (   0.0475763   0.0951530   0.0951530), wk =   0.0277778
        k(   15) = (   0.0475766   0.0951533  -0.1427299), wk =   0.0555556
        k(   16) = (   0.0475770  -0.1427296  -0.1427296), wk =   0.0277778
        k(   17) = (   0.0951529   0.0951529   0.0951529), wk =   0.0092593
        k(   18) = (   0.0951532   0.0951532  -0.1427300), wk =   0.0277778
        k(   19) = (   0.0951535  -0.1427297  -0.1427297), wk =   0.0277778
        k(   20) = (  -0.1427294  -0.1427294  -0.1427294), wk =   0.0046296
        k(   21) = (  -0.0475766   0.0000000   0.0475766), wk =   0.0277778
        k(   22) = (  -0.0475767  -0.0000001   0.0951532), wk =   0.0555556
        k(   23) = (  -0.0951533   0.0000000   0.0951533), wk =   0.0277778
        k(   24) = (   0.0475766  -0.0475767   0.0475766), wk =   0.0277778
        k(   25) = (   0.0475765  -0.0475768   0.0951532), wk =   0.0555556
        k(   26) = (  -0.0951533   0.0475766   0.0475766), wk =   0.0277778
        k(   27) = (   0.0475768  -0.0475765  -0.1427297), wk =   0.0277778
        k(   28) = (   0.0951531  -0.0475768   0.0951531), wk =   0.0277778
        k(   29) = (  -0.0951534   0.0475766   0.0951532), wk =   0.0555556
        k(   30) = (   0.0951534  -0.0475765  -0.1427298), wk =   0.0555556
        k(   31) = (   0.0951532  -0.0951534   0.0951532), wk =   0.0277778
        k(   32) = (   0.0951535  -0.0951531  -0.1427297), wk =   0.0277778

     Dense  grid:    39127 G-vectors     FFT dimensions: (  45,  45,  45)

     Smooth grid:    20377 G-vectors     FFT dimensions: (  36,  36,  36)

     Largest allocated arrays     est. size (Mb)     dimensions
        Kohn-Sham Wavefunctions         2.06 Mb     (    2601,   52)
        NL pseudopotentials             2.86 Mb     (    2601,   72)
        Each V/rho on FFT grid          2.78 Mb     (   91125,   2)
        Each G-vector array             0.30 Mb     (   39127)
        G-vector shells                 0.02 Mb     (    2639)
     Largest temporary arrays     est. size (Mb)     dimensions
        Auxiliary wavefunctions         8.26 Mb     (    2601,  208)
        Each subspace H/S matrix        0.66 Mb     (     208,  208)
        Each <psi_i|beta_j> matrix      0.06 Mb     (      72,   52)
        Arrays for rho mixing          11.12 Mb     (   91125,    8)

     Check: negative/imaginary core charge=   -0.000005    0.000000

     Initial potential from superposition of free atoms

     starting charge   39.99816, renormalised to   40.00000
     Starting wfc are   24 randomized atomic wfcs +   28 random wfc

     Writing output data file Ni-ferromag.save

     total cpu time spent up to now is     2756.1 secs

     Self-consistent Calculation

     iteration #  1     ecut=    65.00 Ry     beta=0.20
     Davidson diagonalization with overlap
     c_bands:  1 eigenvalues not converged
     c_bands:  1 eigenvalues not converged
     c_bands:  1 eigenvalues not converged
     c_bands:  2 eigenvalues not converged
     c_bands:  1 eigenvalues not converged
     c_bands:  1 eigenvalues not converged
     c_bands:  2 eigenvalues not converged
     ethr =  1.00E-06,  avg # of iterations = 13.4

     total cpu time spent up to now is     2933.4 secs

     total energy              =    -342.90493117 Ry
     Harris-Foulkes estimate   =    -343.17851821 Ry
     estimated scf accuracy    <       2.41846028 Ry

     total magnetization       =     6.87 Bohr mag/cell
     absolute magnetization    =     6.88 Bohr mag/cell

     iteration #  2     ecut=    65.00 Ry     beta=0.20
     Davidson diagonalization with overlap
     ethr =  6.05E-03,  avg # of iterations =  1.0

     total cpu time spent up to now is     2971.9 secs

     total energy              =    -343.20669228 Ry
     Harris-Foulkes estimate   =    -343.03986140 Ry
     estimated scf accuracy    <       0.78017428 Ry

     total magnetization       =     5.74 Bohr mag/cell
     absolute magnetization    =     5.83 Bohr mag/cell

     iteration #  3     ecut=    65.00 Ry     beta=0.20
     Davidson diagonalization with overlap
     ethr =  1.95E-03,  avg # of iterations =  1.3

     total cpu time spent up to now is     3010.6 secs

     total energy              =    -343.53955050 Ry
     Harris-Foulkes estimate   =    -343.28059604 Ry
     estimated scf accuracy    <       0.35891653 Ry

     total magnetization       =     4.50 Bohr mag/cell
     absolute magnetization    =     4.82 Bohr mag/cell

     iteration #  4     ecut=    65.00 Ry     beta=0.20
     Davidson diagonalization with overlap
     ethr =  8.97E-04,  avg # of iterations =  1.3

     total cpu time spent up to now is     3049.4 secs

     total energy              =    -343.62410410 Ry
     Harris-Foulkes estimate   =    -343.65328690 Ry
     estimated scf accuracy    <       0.11946036 Ry

     total magnetization       =     2.58 Bohr mag/cell
     absolute magnetization    =     3.20 Bohr mag/cell

     iteration #  5     ecut=    65.00 Ry     beta=0.20
     Davidson diagonalization with overlap
     ethr =  2.99E-04,  avg # of iterations =  1.0

     total cpu time spent up to now is     3087.8 secs

     total energy              =    -343.62398006 Ry
     Harris-Foulkes estimate   =    -343.63101329 Ry
     estimated scf accuracy    <       0.02375594 Ry

     total magnetization       =     2.62 Bohr mag/cell
     absolute magnetization    =     3.23 Bohr mag/cell

     iteration #  6     ecut=    65.00 Ry     beta=0.20
     Davidson diagonalization with overlap
     ethr =  5.94E-05,  avg # of iterations =  2.4

     total cpu time spent up to now is     3128.0 secs

     total energy              =    -343.62663546 Ry
     Harris-Foulkes estimate   =    -343.62745171 Ry
     estimated scf accuracy    <       0.00100814 Ry

     total magnetization       =     2.69 Bohr mag/cell
     absolute magnetization    =     3.28 Bohr mag/cell

     iteration #  7     ecut=    65.00 Ry     beta=0.20
     Davidson diagonalization with overlap
     ethr =  2.52E-06,  avg # of iterations =  3.7

     total cpu time spent up to now is     3171.7 secs

     total energy              =    -343.62984897 Ry
     Harris-Foulkes estimate   =    -343.62860920 Ry
     estimated scf accuracy    <       0.00185412 Ry

     total magnetization       =     3.01 Bohr mag/cell
     absolute magnetization    =     3.48 Bohr mag/cell

     iteration #  8     ecut=    65.00 Ry     beta=0.20
     Davidson diagonalization with overlap
     ethr =  2.52E-06,  avg # of iterations =  1.0

     total cpu time spent up to now is     3210.1 secs

     total energy              =    -343.63018247 Ry
     Harris-Foulkes estimate   =    -343.63015183 Ry
     estimated scf accuracy    <       0.00014216 Ry

     total magnetization       =     2.90 Bohr mag/cell
     absolute magnetization    =     3.35 Bohr mag/cell

     iteration #  9     ecut=    65.00 Ry     beta=0.20
     Davidson diagonalization with overlap
     ethr =  3.55E-07,  avg # of iterations =  1.0

     total cpu time spent up to now is     3248.5 secs

     total energy              =    -343.63020660 Ry
     Harris-Foulkes estimate   =    -343.63018429 Ry
     estimated scf accuracy    <       0.00009947 Ry

     total magnetization       =     2.89 Bohr mag/cell
     absolute magnetization    =     3.34 Bohr mag/cell

     iteration # 10     ecut=    65.00 Ry     beta=0.20
     Davidson diagonalization with overlap
     ethr =  2.49E-07,  avg # of iterations =  1.2

     total cpu time spent up to now is     3287.2 secs

     total energy              =    -343.63028338 Ry
     Harris-Foulkes estimate   =    -343.63028323 Ry
     estimated scf accuracy    <       0.00000165 Ry

     total magnetization       =     2.84 Bohr mag/cell
     absolute magnetization    =     3.26 Bohr mag/cell

     iteration # 11     ecut=    65.00 Ry     beta=0.20
     Davidson diagonalization with overlap
     ethr =  4.13E-09,  avg # of iterations =  1.4

     total cpu time spent up to now is     3326.2 secs

     total energy              =    -343.63028308 Ry
     Harris-Foulkes estimate   =    -343.63028357 Ry
     estimated scf accuracy    <       0.00000054 Ry

     total magnetization       =     2.84 Bohr mag/cell
     absolute magnetization    =     3.26 Bohr mag/cell

     iteration # 12     ecut=    65.00 Ry     beta=0.20
     Davidson diagonalization with overlap
     ethr =  1.35E-09,  avg # of iterations =  1.0

     total cpu time spent up to now is     3364.6 secs

     total energy              =    -343.63028311 Ry
     Harris-Foulkes estimate   =    -343.63028322 Ry
     estimated scf accuracy    <       0.00000083 Ry

     total magnetization       =     2.84 Bohr mag/cell
     absolute magnetization    =     3.26 Bohr mag/cell

     iteration # 13     ecut=    65.00 Ry     beta=0.20
     Davidson diagonalization with overlap
     ethr =  1.35E-09,  avg # of iterations =  2.0

     total cpu time spent up to now is     3405.3 secs

     total energy              =    -343.63028390 Ry
     Harris-Foulkes estimate   =    -343.63028409 Ry
     estimated scf accuracy    <          8.7E-09 Ry

     total magnetization       =     2.84 Bohr mag/cell
     absolute magnetization    =     3.25 Bohr mag/cell

     iteration # 14     ecut=    65.00 Ry     beta=0.20
     Davidson diagonalization with overlap
     ethr =  2.17E-11,  avg # of iterations =  2.0

     total cpu time spent up to now is     3451.9 secs

     total energy              =    -343.63028400 Ry
     Harris-Foulkes estimate   =    -343.63028399 Ry
     estimated scf accuracy    <       0.00000008 Ry

     total magnetization       =     2.83 Bohr mag/cell
     absolute magnetization    =     3.25 Bohr mag/cell

     iteration # 15     ecut=    65.00 Ry     beta=0.20
     Davidson diagonalization with overlap
     ethr =  2.17E-11,  avg # of iterations =  2.0

     total cpu time spent up to now is     3498.4 secs

     total energy              =    -343.63028410 Ry
     Harris-Foulkes estimate   =    -343.63028410 Ry
     estimated scf accuracy    <          4.7E-10 Ry

     total magnetization       =     2.84 Bohr mag/cell
     absolute magnetization    =     3.25 Bohr mag/cell

     iteration # 16     ecut=    65.00 Ry     beta=0.20
     Davidson diagonalization with overlap
     ethr =  1.18E-12,  avg # of iterations =  2.2

     total cpu time spent up to now is     3541.4 secs

     total energy              =    -343.63028410 Ry
     Harris-Foulkes estimate   =    -343.63028410 Ry
     estimated scf accuracy    <          2.2E-09 Ry

     total magnetization       =     2.84 Bohr mag/cell
     absolute magnetization    =     3.25 Bohr mag/cell

     iteration # 17     ecut=    65.00 Ry     beta=0.20
     Davidson diagonalization with overlap
     ethr =  1.18E-12,  avg # of iterations =  2.0

     Magnetic moment per site:
     atom:    1    charge:    3.0536    magn:    0.3402    constr:    0.0000
     atom:    2    charge:    3.0514    magn:    0.3400    constr:    0.0000
     atom:    3    charge:    3.0536    magn:    0.3402    constr:    0.0000
     atom:    4    charge:    3.0536    magn:    0.3402    constr:    0.0000

     total cpu time spent up to now is     3584.9 secs

     End of self-consistent calculation

 ------ SPIN UP ------------


          k = 0.0000 0.0000 0.0000 (  2553 PWs)   bands (ev):

     5.4305   9.7141   9.7142   9.7142  10.1673  10.1673  10.1673  11.9462
    11.9462  11.9462  13.1249  13.1249  13.8427  13.8427  13.8427  13.9326
    13.9326  13.9326  13.9326  13.9326  13.9326  17.0713  17.0713  17.0713
    23.8092  23.8093  23.8093  29.5673  29.5673  29.5673  29.5674  29.5674
    29.5674  34.6446  34.6446  34.6446  37.9898  37.9900  37.9900  38.4951
    42.4710  42.4712  42.4712  46.0683  46.0685  46.0685  48.1733  55.1668
    55.1669  55.1669  57.6089  59.0307

          k =-0.0000-0.0000 0.0476 (  2573 PWs)   bands (ev):

     5.7966   9.7363   9.8983   9.8984  10.2778  10.2936  10.2936  11.8175
    12.0485  12.0486  13.0070  13.1716  13.2787  13.2787  13.6893  13.6893
    13.7567  13.7567  13.7932  13.9329  13.9329  15.4704  18.0299  18.0299
    23.9051  23.9052  26.0585  27.8155  27.8155  28.4438  28.4438  30.1275
    30.1276  34.7607  36.8175  36.8175  37.8592  38.1218  39.9473  39.9473
    40.2490  40.2491  40.9159  47.4885  48.1257  48.1258  49.1481  51.5568
    56.2624  56.2625  56.6726  56.6726

          k =-0.0000-0.0000 0.0952 (  2601 PWs)   bands (ev):

     6.8459   9.5070  10.3353  10.3353  10.5854  10.6768  10.6768  11.4734
    12.2229  12.2229  12.3452  12.3452  12.7192  13.3002  13.3062  13.3108
    13.3108  13.3180  13.3180  13.6590  13.9334  13.9334  19.9923  19.9923
    24.2225  24.2225  25.0420  25.0420  26.6756  26.6756  30.3582  31.7067
    31.7068  35.1240  36.7263  37.0283  37.0284  38.3484  38.6738  40.8617
    40.8617  44.1114  44.1114  44.1435  50.9244  51.0467  51.0468  51.0495
    51.0495  55.0345  55.9376  55.9376

          k = 0.0000 0.0000-0.1427 (  2560 PWs)   bands (ev):

     8.3452   8.3453  10.6114  10.6114  11.0203  11.0204  11.3233  11.3233
    11.3235  11.3235  12.5420  12.5422  12.7972  12.7972  12.7973  12.7973
    13.0623  13.0623  13.4782  13.4783  13.9337  13.9337  22.3777  22.3777
    22.3779  22.3779  24.5957  24.5957  25.7301  25.7301  34.0844  34.0845
    34.0845  34.0847  34.9077  34.9081  35.7716  35.7717  40.2672  40.2677
    45.6627  45.6627  45.6632  45.6632  47.6172  47.6173  52.2887  52.2887
    54.1746  54.1747  54.1751  54.1751

          k =-0.0000 0.0476 0.0476 (  2578 PWs)   bands (ev):

     6.1542   9.9346   9.9346  10.0615  10.3951  10.3952  10.4090  11.7575
    12.0936  12.1106  12.9327  12.9824  12.9910  12.9910  13.1669  13.5606
    13.6852  13.6852  13.7554  13.7554  13.8168  16.4025  16.4025  18.7997
    23.8994  25.0982  26.2458  26.2458  28.2932  28.2932  28.9360  28.9360
    30.6553  36.0340  36.1178  37.0259  37.0259  37.3316  40.1149  40.1149
    41.2704  42.6025  43.5303  45.2308  46.3616  49.7863  50.4541  53.0917
    53.6680  55.3488  55.3488  56.3026

          k =-0.0000 0.0476 0.0952 (  2579 PWs)   bands (ev):

     7.1758   9.7431  10.4166  10.4652  10.6769  10.7301  10.7493  11.4765
    11.9843  12.1241  12.2394  12.3568  12.3823  12.8154  13.2368  13.3154
    13.3222  13.3459  13.4982  13.7521  13.7581  14.4357  18.0167  20.5824
    22.0802  24.6077  25.5033  26.5325  27.4003  29.6065  29.9018  29.9545
    31.0145  33.7228  34.4660  37.6782  38.6310  40.3891  40.5678  40.7469
    41.1174  44.0388  45.0310  47.0569  47.7845  48.5867  49.8921  51.3342
    52.9390  53.2602  54.8159  56.2006

          k = 0.0000 0.0476-0.1427 (  2560 PWs)   bands (ev):

     8.6267   8.6268  10.7639  10.7639  11.0720  11.0722  11.1910  11.1911
    11.3378  11.3380  12.1686  12.1687  12.7980  12.7981  13.0275  13.0275
    13.0473  13.0473  13.6617  13.6617  13.7497  13.7497  19.8851  19.8852
    22.8769  22.8771  25.4112  25.4114  28.3086  28.3086  31.4960  31.4961
    32.0196  32.0197  35.8277  35.8281  38.8272  38.8273  42.2115  42.2119
    43.1135  43.1137  45.9388  45.9392  50.0807  50.0811  50.3538  50.3540
    52.6118  52.6120  53.2017  53.2018

          k =-0.0000 0.0952 0.0952 (  2562 PWs)   bands (ev):

     8.1023  10.3306  10.3306  10.6965  10.9450  10.9450  10.9588  11.4066
    11.6538  11.6538  11.8084  12.1267  12.4877  12.7293  13.0209  13.1760
    13.1761  13.3160  13.3160  13.4860  13.7014  15.6816  15.6816  19.2996
    22.1088  25.1584  26.7761  26.7762  27.8954  27.8955  30.9839  31.6399
    31.6399  31.7356  33.6033  36.8372  41.5267  41.8793  41.8793  43.0743
    43.4117  43.7707  43.7708  47.1883  47.3285  48.4739  48.4739  51.6726
    52.1764  52.1904  53.1988  55.3498

          k = 0.0000 0.0952-0.1427 (  2576 PWs)   bands (ev):

     9.3692   9.3693  10.8013  10.8014  11.1992  11.1993  11.2068  11.2068
    11.3565  11.3566  11.8628  11.8629  12.8348  12.8348  12.8355  12.8356
    12.9016  12.9016  13.3510  13.3510  14.3628  14.3629  17.2129  17.2130
    24.2328  24.2329  26.2263  26.2264  28.6516  28.6517  29.5372  29.5373
    32.9485  32.9486  36.7900  36.7903  40.3639  40.3640  43.0489  43.0490
    43.2159  43.2160  46.7393  46.7396  47.9231  47.9233  50.4266  50.4268
    51.7603  51.7607  53.5622  53.5623

          k = 0.0000-0.1427-0.1427 (  2544 PWs)   bands (ev):

    10.2223  10.2223  10.2224  10.2224  11.3184  11.3185  11.3185  11.3186
    11.6276  11.6276  11.6277  11.6277  12.6887  12.6887  12.6887  12.6887
    13.0026  13.0027  13.0027  13.0028  15.4331  15.4331  15.4331  15.4331
    26.2070  26.2071  26.2071  26.2072  27.5779  27.5780  27.5781  27.5781
    37.8921  37.8922  37.8922  37.8923  38.4991  38.4992  38.4993  38.4994
    47.1780  47.1780  47.1780  47.1781  49.1889  49.1890  49.1891  49.1893
    51.8173  51.8173  51.8174  51.8175

          k = 0.0476 0.0476 0.0476 (  2593 PWs)   bands (ev):

     6.5000  10.0955  10.0955  10.0955  10.5097  10.5097  10.5097  11.7226
    12.1302  12.1302  12.6871  12.6871  12.6871  13.0801  13.0801  13.3272
    13.3272  13.3272  13.8710  13.8710  13.8710  17.0296  17.0296  17.0296
    25.3250  25.3250  25.3250  26.5909  26.5909  26.5909  31.1705  31.1706
    31.1706  33.4813  36.1653  36.1653  36.1653  39.2522  41.1369  41.1369
    42.8098  42.8099  42.8099  46.5918  47.6471  47.6471  51.6413  51.6413
    55.1070  55.2272  55.2272  55.2272

          k = 0.0476 0.0476 0.0952 (  2572 PWs)   bands (ev):

     7.4814   9.9017  10.4786  10.4786  10.7953  10.8234  10.8234  11.5132
    11.9748  11.9748  12.1701  12.2095  12.2696  12.9251  12.9957  13.0814
    13.0814  13.3196  13.7737  13.7737  13.8060  14.7975  18.3718  18.3718
    22.7060  22.7060  26.6186  27.2422  27.2422  30.3574  30.3574  30.7441
    30.9466  32.6501  36.6444  37.7758  37.8496  38.7896  38.7896  42.3597
    43.5020  44.4688  47.0194  47.0194  47.8813  49.0823  50.1991  50.1991
    50.6945  53.0158  53.0765  55.6554

          k = 0.0476 0.0476-0.1427 (  2556 PWs)   bands (ev):

     8.8537   8.8538  10.8658  10.8658  10.9238  10.9238  11.1670  11.1671
    11.5808  11.5808  12.0728  12.0730  12.5428  12.5429  12.9137  12.9137
    13.4891  13.4892  13.5956  13.5957  13.7177  13.7177  19.5206  19.5206
    21.1449  21.1449  28.2065  28.2066  28.4453  28.4454  28.9262  28.9262
    34.9375  34.9377  35.4145  35.4148  38.0937  38.0940  42.2034  42.2034
    44.7549  44.7551  45.3684  45.3684  49.4793  49.4796  50.8982  50.8983
    52.1837  52.1838  54.0152  54.0153

          k = 0.0476 0.0952 0.0952 (  2560 PWs)   bands (ev):

     8.3202  10.2195  10.2195  10.5056  11.1109  11.1569  11.1569  11.5583
    11.7708  11.7708  11.9040  12.1287  12.2546  12.7330  12.7330  12.7493
    13.0521  13.6071  13.6764  13.6916  13.6916  15.8124  15.8124  18.6237
    20.8026  23.9027  23.9027  27.9429  28.0520  31.1335  31.1335  32.1196
    32.1196  34.0163  35.2407  36.9081  39.3238  39.3238  40.1538  43.0363
    43.7344  44.7835  46.4619  46.4620  49.1908  49.1908  50.4166  50.5942
    50.9235  51.6165  52.2999  52.9251

          k = 0.0476 0.0952-0.1427 (  2564 PWs)   bands (ev):

     9.4034   9.4034  10.4407  10.4407  11.3243  11.3243  11.4724  11.4725
    11.7777  11.7777  11.8984  11.8985  12.4039  12.4040  12.6147  12.6147
    13.3493  13.3493  13.5769  13.5769  14.2691  14.2692  17.1899  17.1900
    21.8183  21.8184  25.6633  25.6634  29.4347  29.4348  33.0388  33.0388
    33.2523  33.2524  36.9038  36.9042  40.1367  40.1368  40.4452  40.4452
    45.1917  45.1918  45.6835  45.6837  47.7030  47.7032  50.5713  50.5715
    51.7895  51.7896  53.9018  53.9021

          k = 0.0476-0.1427-0.1427 (  2556 PWs)   bands (ev):

     9.9728   9.9728   9.9728   9.9728  11.7154  11.7154  11.7154  11.7154
    11.8024  11.8025  11.8025  11.8026  12.3754  12.3754  12.3754  12.3754
    13.3318  13.3319  13.3319  13.3319  15.3440  15.3440  15.3440  15.3441
    23.4520  23.4521  23.4521  23.4522  30.9723  30.9724  30.9725  30.9725
    38.1726  38.1726  38.1727  38.1728  38.3429  38.3430  38.3430  38.3432
    46.6547  46.6547  46.6548  46.6548  46.7567  46.7568  46.7569  46.7570
    54.8089  54.8090  54.8090  54.8091

          k = 0.0952 0.0952 0.0952 (  2542 PWs)   bands (ev):

     8.8640  10.0545  10.0545  10.0545  11.5153  11.5153  11.5153  12.0293
    12.0902  12.0902  12.0902  12.0956  12.0956  12.3788  12.3788  12.3788
    13.4549  13.4549  13.8198  13.8198  13.8198  16.1907  16.1907  16.1907
    21.4099  21.4099  21.4099  25.1498  32.4992  32.4993  32.4993  35.2435
    35.2436  35.2436  37.2733  37.2733  37.2733  37.7915  39.9510  39.9510
    44.4444  44.4444  47.7729  48.0650  48.0651  48.0651  48.1391  48.1391
    48.1391  52.4480  52.4480  52.4480

          k = 0.0952 0.0952-0.1427 (  2560 PWs)   bands (ev):

     9.4901   9.4901   9.9859   9.9860  11.6351  11.6351  11.9216  11.9217
    12.1383  12.1383  12.2587  12.2587  12.2733  12.2734  12.3734  12.3734
    13.7403  13.7403  13.7481  13.7481  14.1592  14.1592  16.4749  16.4750
    20.3809  20.3809  22.9676  22.9677  33.4150  33.4150  34.6268  34.6268
    36.3299  36.3301  37.2458  37.2459  38.9942  38.9944  39.4394  39.4394
    44.6514  44.6514  44.9024  44.9026  46.0162  46.0163  48.5502  48.5502
    49.6054  49.6055  52.9776  52.9776

          k = 0.0952-0.1427-0.1427 (  2532 PWs)   bands (ev):

     9.6657   9.6657   9.6657   9.6657  11.8811  11.8811  11.8811  11.8811
    12.0708  12.0708  12.0708  12.0709  12.8203  12.8203  12.8204  12.8204
    13.6682  13.6683  13.6683  13.6683  14.9674  14.9674  14.9675  14.9675
    21.0943  21.0944  21.0944  21.0944  35.1546  35.1547  35.1547  35.1547
    38.2190  38.2190  38.2191  38.2191  38.9396  38.9396  38.9397  38.9397
    44.0933  44.0933  44.0934  44.0934  45.1566  45.1566  45.1566  45.1567
    50.4196  50.4197  50.4197  50.4197

          k =-0.1427-0.1427-0.1427 (  2512 PWs)   bands (ev):

     9.5497   9.5497   9.5497   9.5497  11.9593  11.9593  11.9593  11.9593
    11.9593  11.9593  11.9593  11.9593  13.7957  13.7957  13.7957  13.7957
    13.7957  13.7958  13.7958  13.7958  14.2923  14.2924  14.2924  14.2924
    20.2132  20.2132  20.2132  20.2133  36.9502  36.9503  36.9503  36.9504
    39.5760  39.5760  39.5760  39.5761  39.5761  39.5761  39.5762  39.5762
    42.8021  42.8021  42.8021  42.8021  42.8021  42.8022  42.8022  42.8022
    48.7735  48.7735  48.7735  48.7736

          k =-0.0476 0.0000 0.0476 (  2578 PWs)   bands (ev):

     6.1542   9.9346   9.9346  10.0615  10.3952  10.3952  10.4090  11.7575
    12.0936  12.1106  12.9327  12.9824  12.9910  12.9910  13.1668  13.5606
    13.6852  13.6852  13.7554  13.7554  13.8168  16.4025  16.4025  18.7997
    23.8994  25.0983  26.2458  26.2458  28.2932  28.2932  28.9360  28.9360
    30.6551  36.0339  36.1179  37.0259  37.0259  37.3317  40.1149  40.1150
    41.2703  42.6027  43.5302  45.2307  46.3615  49.7862  50.4542  53.0918
    53.6681  55.3489  55.3489  56.3026

          k =-0.0476-0.0000 0.0952 (  2579 PWs)   bands (ev):

     7.1758   9.7430  10.4166  10.4652  10.6769  10.7301  10.7493  11.4765
    11.9843  12.1241  12.2394  12.3568  12.3823  12.8154  13.2368  13.3154
    13.3222  13.3459  13.4982  13.7521  13.7581  14.4357  18.0166  20.5824
    22.0803  24.6077  25.5033  26.5325  27.4003  29.6064  29.9017  29.9544
    31.0145  33.7228  34.4661  37.6782  38.6309  40.3890  40.5677  40.7469
    41.1175  44.0388  45.0309  47.0571  47.7844  48.5865  49.8922  51.3342
    52.9391  53.2603  54.8158  56.2006

          k =-0.0952 0.0000 0.0952 (  2562 PWs)   bands (ev):

     8.1023  10.3306  10.3306  10.6965  10.9450  10.9450  10.9588  11.4066
    11.6537  11.6538  11.8084  12.1267  12.4876  12.7293  13.0209  13.1761
    13.1761  13.3160  13.3160  13.4860  13.7014  15.6816  15.6816  19.2997
    22.1089  25.1584  26.7761  26.7761  27.8954  27.8954  30.9840  31.6399
    31.6400  31.7357  33.6032  36.8371  41.5266  41.8794  41.8794  43.0742
    43.4116  43.7708  43.7709  47.1881  47.3284  48.4740  48.4740  51.6728
    52.1764  52.1903  53.1988  55.3499

          k = 0.0476-0.0476 0.0476 (  2593 PWs)   bands (ev):

     6.5000  10.0955  10.0955  10.0955  10.5097  10.5097  10.5097  11.7226
    12.1302  12.1302  12.6871  12.6871  12.6871  13.0801  13.0801  13.3272
    13.3272  13.3272  13.8710  13.8710  13.8710  17.0296  17.0296  17.0296
    25.3249  25.3250  25.3250  26.5909  26.5909  26.5909  31.1704  31.1704
    31.1706  33.4815  36.1652  36.1652  36.1653  39.2521  41.1367  41.1369
    42.8099  42.8100  42.8101  46.5918  47.6470  47.6471  51.6411  51.6413
    55.1071  55.2272  55.2272  55.2273

          k = 0.0476-0.0476 0.0952 (  2572 PWs)   bands (ev):

     7.4814   9.9017  10.4786  10.4786  10.7953  10.8234  10.8234  11.5132
    11.9747  11.9748  12.1701  12.2095  12.2696  12.9251  12.9957  13.0814
    13.0814  13.3196  13.7737  13.7737  13.8060  14.7975  18.3718  18.3718
    22.7060  22.7061  26.6186  27.2422  27.2423  30.3574  30.3574  30.7443
    30.9467  32.6499  36.6443  37.7757  37.8494  38.7895  38.7896  42.3597
    43.5021  44.4687  47.0194  47.0195  47.8813  49.0822  50.1991  50.1992
    50.6945  53.0159  53.0765  55.6553

          k =-0.0952 0.0476 0.0476 (  2572 PWs)   bands (ev):

     7.4814   9.9017  10.4786  10.4786  10.7953  10.8234  10.8235  11.5132
    11.9747  11.9747  12.1701  12.2095  12.2697  12.9251  12.9957  13.0814
    13.0814  13.3196  13.7737  13.7737  13.8060  14.7975  18.3718  18.3718
    22.7061  22.7061  26.6185  27.2422  27.2422  30.3573  30.3573  30.7443
    30.9467  32.6501  36.6444  37.7757  37.8495  38.7895  38.7895  42.3596
    43.5021  44.4686  47.0196  47.0196  47.8811  49.0822  50.1992  50.1992
    50.6945  53.0160  53.0767  55.6555

          k = 0.0476-0.0476-0.1427 (  2556 PWs)   bands (ev):

     8.8537   8.8538  10.8658  10.8658  10.9238  10.9238  11.1670  11.1671
    11.5808  11.5808  12.0728  12.0730  12.5428  12.5429  12.9137  12.9138
    13.4891  13.4892  13.5956  13.5957  13.7177  13.7177  19.5206  19.5206
    21.1448  21.1449  28.2065  28.2066  28.4454  28.4454  28.9262  28.9262
    34.9374  34.9375  35.4145  35.4147  38.0937  38.0939  42.2033  42.2035
    44.7550  44.7552  45.3683  45.3684  49.4794  49.4796  50.8982  50.8983
    52.1837  52.1839  54.0152  54.0152

          k = 0.0952-0.0476 0.0952 (  2560 PWs)   bands (ev):

     8.3202  10.2195  10.2195  10.5056  11.1109  11.1569  11.1569  11.5583
    11.7708  11.7708  11.9040  12.1287  12.2546  12.7329  12.7329  12.7493
    13.0521  13.6071  13.6763  13.6916  13.6916  15.8124  15.8124  18.6237
    20.8025  23.9028  23.9028  27.9430  28.0521  31.1334  31.1335  32.1196
    32.1196  34.0163  35.2405  36.9081  39.3236  39.3236  40.1537  43.0362
    43.7343  44.7835  46.4620  46.4620  49.1910  49.1910  50.4167  50.5943
    50.9234  51.6166  52.2999  52.9252

          k =-0.0952 0.0476 0.0952 (  2560 PWs)   bands (ev):

     8.3202  10.2195  10.2195  10.5056  11.1109  11.1568  11.1569  11.5583
    11.7708  11.7708  11.9040  12.1287  12.2546  12.7329  12.7330  12.7493
    13.0521  13.6071  13.6764  13.6916  13.6916  15.8123  15.8124  18.6237
    20.8026  23.9027  23.9028  27.9430  28.0521  31.1334  31.1335  32.1196
    32.1196  34.0162  35.2407  36.9080  39.3237  39.3238  40.1537  43.0362
    43.7343  44.7834  46.4620  46.4621  49.1909  49.1910  50.4167  50.5942
    50.9235  51.6165  52.3001  52.9252

          k = 0.0952-0.0476-0.1427 (  2564 PWs)   bands (ev):

     9.4034   9.4034  10.4407  10.4407  11.3243  11.3243  11.4724  11.4725
    11.7777  11.7777  11.8984  11.8985  12.4039  12.4040  12.6147  12.6147
    13.3493  13.3493  13.5769  13.5769  14.2691  14.2692  17.1899  17.1900
    21.8183  21.8184  25.6634  25.6634  29.4347  29.4348  33.0386  33.0387
    33.2523  33.2524  36.9038  36.9041  40.1367  40.1368  40.4450  40.4452
    45.1917  45.1918  45.6835  45.6837  47.7031  47.7032  50.5714  50.5716
    51.7896  51.7897  53.9019  53.9021

          k = 0.0952-0.0952 0.0952 (  2542 PWs)   bands (ev):

     8.8640  10.0545  10.0545  10.0545  11.5153  11.5154  11.5154  12.0293
    12.0901  12.0902  12.0902  12.0956  12.0956  12.3788  12.3788  12.3788
    13.4549  13.4549  13.8198  13.8198  13.8198  16.1907  16.1907  16.1907
    21.4098  21.4099  21.4099  25.1499  32.4993  32.4993  32.4994  35.2435
    35.2435  35.2436  37.2732  37.2733  37.2734  37.7914  39.9508  39.9509
    44.4443  44.4444  47.7729  48.0651  48.0651  48.0652  48.1391  48.1391
    48.1392  52.4481  52.4482  52.4482

          k = 0.0952-0.0952-0.1427 (  2560 PWs)   bands (ev):

     9.4901   9.4901   9.9859   9.9860  11.6351  11.6351  11.9216  11.9217
    12.1383  12.1383  12.2587  12.2587  12.2733  12.2734  12.3733  12.3734
    13.7403  13.7403  13.7481  13.7481  14.1592  14.1592  16.4749  16.4750
    20.3808  20.3809  22.9677  22.9677  33.4150  33.4151  34.6268  34.6269
    36.3299  36.3300  37.2457  37.2458  38.9941  38.9944  39.4393  39.4394
    44.6513  44.6515  44.9025  44.9026  46.0162  46.0162  48.5503  48.5503
    49.6054  49.6055  52.9777  52.9777

 ------ SPIN DOWN ----------


          k = 0.0000 0.0000 0.0000 (  2553 PWs)   bands (ev):

     5.3758  10.1763  10.1763  10.1763  10.8857  10.8857  10.8857  12.8267
    12.8268  12.8268  13.9052  13.9052  14.6569  14.6570  14.6570  14.9423
    14.9423  14.9423  14.9423  14.9423  14.9423  16.9925  16.9925  16.9925
    24.1149  24.1150  24.1150  29.5535  29.5535  29.5536  29.5536  29.5537
    29.5537  34.8090  34.8090  34.8090  38.1333  38.1335  38.1335  38.2896
    42.4417  42.4419  42.4419  46.1408  46.1410  46.1410  48.0139  55.3558
    55.3559  55.3559  58.1289  59.5943

          k =-0.0000-0.0000 0.0476 (  2573 PWs)   bands (ev):

     5.7420  10.1519  10.3705  10.3705  11.0050  11.0095  11.0095  12.6848
    12.9332  12.9332  13.7777  13.9540  14.0989  14.0989  14.4900  14.4900
    14.6050  14.7496  14.7496  14.9426  14.9426  15.5406  18.1367  18.1367
    24.1957  24.1958  26.2604  27.8841  27.8841  28.4710  28.4711  30.1301
    30.1302  34.9125  36.8985  36.8985  37.7206  38.2629  40.0678  40.0679
    40.2909  40.2910  40.8460  47.5090  48.0996  48.0997  49.2198  51.5476
    56.4737  56.4738  56.5992  56.5992

          k =-0.0000-0.0000 0.0952 (  2601 PWs)   bands (ev):

     6.7956   9.7152  10.8319  10.8320  11.3381  11.3872  11.3872  12.3065
    12.9524  12.9524  13.2430  13.2430  13.4569  13.6768  14.0780  14.0781
    14.0885  14.2747  14.2747  14.4643  14.9432  14.9432  20.1775  20.1775
    24.4687  24.4687  25.1828  25.1828  26.7737  26.7738  30.4539  31.7436
    31.7438  35.2381  36.6917  37.0998  37.0999  38.2581  38.8198  40.8672
    40.8672  44.2107  44.2108  44.3617  50.8800  50.9519  50.9519  50.9761
    50.9761  54.9302  56.1785  56.1785

          k = 0.0000 0.0000-0.1427 (  2560 PWs)   bands (ev):

     8.3387   8.3388  11.1237  11.1237  11.8109  11.8111  12.0327  12.0327
    12.0329  12.0329  13.1901  13.1903  13.7191  13.7191  13.7192  13.7192
    13.8084  13.8084  14.2749  14.2749  14.9435  14.9435  22.5594  22.5594
    22.5596  22.5596  24.7925  24.7925  25.8874  25.8874  34.1495  34.1496
    34.1496  34.1497  34.8880  34.8884  35.8231  35.8232  40.4592  40.4597
    45.6183  45.6183  45.6188  45.6188  47.6912  47.6913  52.4778  52.4778
    54.0644  54.0645  54.0648  54.0649

          k =-0.0000 0.0476 0.0476 (  2578 PWs)   bands (ev):

     6.1005  10.3628  10.3628  10.5525  11.1089  11.1193  11.1193  12.6111
    12.9836  12.9880  13.6979  13.7392  13.7392  13.7511  13.9541  14.3515
    14.4776  14.4776  14.7485  14.7485  14.8191  16.7170  16.7170  18.9653
    24.1582  25.2279  26.4345  26.4345  28.3761  28.3762  28.9770  28.9770
    30.6663  36.1096  36.1381  37.0966  37.0966  37.3491  40.2327  40.2328
    41.1896  42.6899  43.4994  45.1744  46.4223  49.9449  50.3796  53.2643
    53.6336  55.3108  55.3108  56.2429

          k =-0.0000 0.0476 0.0952 (  2579 PWs)   bands (ev):

     7.1302   9.9657  10.8791  10.9973  11.3923  11.4250  11.4664  12.2987
    12.6759  12.8451  13.0387  13.0789  13.2591  13.5800  14.0020  14.0875
    14.1575  14.2437  14.2730  14.7456  14.7547  15.1450  18.3554  20.7864
    22.2788  24.8357  25.6550  26.6674  27.5255  29.7150  29.9635  30.0250
    31.1118  33.8009  34.5085  37.7202  38.6690  40.3407  40.5154  40.8667
    41.1171  44.1210  45.2354  47.1234  47.7069  48.5691  49.8762  51.2595
    52.8946  53.1696  55.0357  56.9897

          k = 0.0000 0.0476-0.1427 (  2560 PWs)   bands (ev):

     8.6322   8.6323  11.2673  11.2673  11.8554  11.8555  11.8679  11.8680
    12.0499  12.0501  12.9097  12.9098  13.7226  13.7227  13.7972  13.7972
    13.7975  13.7976  14.5004  14.5004  14.7440  14.7440  20.1666  20.1667
    23.0701  23.0703  25.5828  25.5830  28.4256  28.4257  31.6101  31.6102
    32.0776  32.0776  35.8530  35.8534  38.8286  38.8287  42.3642  42.3645
    43.1066  43.1068  45.8909  45.8913  50.1461  50.1465  50.2862  50.2864
    52.5283  52.5284  53.3695  53.3697

          k =-0.0000 0.0952 0.0952 (  2562 PWs)   bands (ev):

     8.0801  10.6039  10.6039  11.3609  11.4431  11.6809  11.6809  12.2007
    12.3471  12.3471  12.5208  12.9181  13.4032  13.4764  13.7746  13.9136
    13.9136  14.2772  14.2772  14.4670  14.5439  16.2870  16.2870  19.6073
    22.3281  25.3568  26.9430  26.9431  27.9966  27.9966  31.1149  31.7287
    31.7287  31.8032  33.6559  36.8730  41.4632  41.8613  41.8613  43.1090
    43.2944  43.8131  43.8132  47.3095  47.3578  48.5188  48.5188  51.7321
    52.0673  52.1312  53.4022  55.2525

          k = 0.0000 0.0952-0.1427 (  2576 PWs)   bands (ev):

     9.4306   9.4307  11.2211  11.2212  11.8469  11.8470  11.9623  11.9624
    12.0772  12.0774  12.5998  12.5999  13.5693  13.5693  13.6431  13.6431
    13.7693  13.7694  14.3197  14.3197  15.1691  15.1691  17.6771  17.6772
    24.4380  24.4381  26.3780  26.3782  28.8139  28.8140  29.6273  29.6274
    33.0203  33.0204  36.8177  36.8181  40.3628  40.3629  42.9948  42.9949
    43.2342  43.2343  46.6776  46.6779  48.0054  48.0056  50.3739  50.3741
    51.8812  51.8815  53.4769  53.4770

          k = 0.0000-0.1427-0.1427 (  2544 PWs)   bands (ev):

    10.4417  10.4418  10.4418  10.4418  12.0565  12.0566  12.0566  12.0568
    12.2970  12.2970  12.2970  12.2971  13.4265  13.4265  13.4266  13.4266
    13.9519  13.9520  13.9520  13.9521  16.1151  16.1151  16.1151  16.1151
    26.4021  26.4022  26.4022  26.4023  27.7015  27.7016  27.7016  27.7017
    37.9663  37.9663  37.9664  37.9665  38.4652  38.4654  38.4654  38.4655
    47.0581  47.0582  47.0582  47.0582  49.1781  49.1783  49.1784  49.1786
    51.9185  51.9185  51.9186  51.9186

          k = 0.0476 0.0476 0.0476 (  2593 PWs)   bands (ev):

     6.4492  10.5507  10.5507  10.5507  11.2105  11.2105  11.2105  12.5562
    13.0086  13.0086  13.3979  13.3979  13.3979  13.8666  13.8666  14.1585
    14.1585  14.1585  14.8196  14.8196  14.8196  17.3707  17.3707  17.3707
    25.4565  25.4565  25.4565  26.7642  26.7642  26.7642  31.1924  31.1925
    31.1925  33.5479  36.2603  36.2604  36.2604  39.0968  41.1895  41.1895
    42.8939  42.8940  42.8940  46.5045  47.6043  47.6043  51.8080  51.8080
    55.1805  55.1805  55.1805  56.0504

          k = 0.0476 0.0476 0.0952 (  2572 PWs)   bands (ev):

     7.4463  10.1644  11.0103  11.0103  11.4520  11.4520  11.5078  12.3090
    12.6773  12.6773  12.8426  13.0401  13.1302  13.7715  13.8058  13.8684
    13.8685  14.1421  14.7075  14.7372  14.7372  15.4280  18.6988  18.6988
    22.9163  22.9163  26.7628  27.3912  27.3913  30.4323  30.4323  30.8583
    31.0341  32.6965  36.7190  37.6817  37.9268  38.8199  38.8200  42.3673
    43.5823  44.4862  47.0636  47.0636  47.9234  49.0281  50.1880  50.1880
    50.7015  52.9453  53.0367  55.7704

          k = 0.0476 0.0476-0.1427 (  2556 PWs)   bands (ev):

     8.8883   8.8884  11.4379  11.4380  11.5053  11.5053  11.9181  11.9182
    12.2950  12.2950  12.8227  12.8228  13.3936  13.3937  13.6776  13.6776
    14.2940  14.2941  14.4570  14.4570  14.6896  14.6896  19.7780  19.7780
    21.4488  21.4488  28.3215  28.3215  28.5873  28.5874  29.0408  29.0409
    35.0069  35.0070  35.3878  35.3881  38.1710  38.1713  42.1848  42.1848
    44.8418  44.8420  45.3574  45.3575  49.3999  49.4002  50.8526  50.8527
    52.2172  52.2173  54.0606  54.0607

          k = 0.0476 0.0952 0.0952 (  2560 PWs)   bands (ev):

     8.3322  10.6123  10.6123  11.1241  11.6180  11.7589  11.7589  12.2851
    12.4910  12.4910  12.6160  12.9296  13.0790  13.5325  13.5326  13.5347
    13.8957  14.4562  14.6050  14.6050  14.6218  16.3658  16.3658  18.8985
    21.1465  24.1198  24.1198  28.1048  28.1797  31.1973  31.1973  32.2122
    32.2122  34.0709  35.2663  36.9334  39.3386  39.3386  40.0775  43.1499
    43.7262  44.7293  46.4560  46.4560  49.2456  49.2456  50.3484  50.5779
    50.8999  51.6892  52.3655  52.8521

          k = 0.0476 0.0952-0.1427 (  2564 PWs)   bands (ev):

     9.5529   9.5530  10.9758  10.9758  11.8787  11.8787  12.1186  12.1187
    12.4716  12.4716  12.6589  12.6590  13.2082  13.2082  13.3893  13.3894
    14.2147  14.2148  14.5129  14.5130  15.0623  15.0623  17.6010  17.6011
    22.1185  22.1186  25.8633  25.8635  29.5353  29.5354  33.0955  33.0956
    33.3213  33.3214  36.9169  36.9172  40.1210  40.1211  40.4677  40.4678
    45.1790  45.1791  45.6754  45.6755  47.6839  47.6841  50.6096  50.6098
    51.7290  51.7291  53.9983  53.9985

          k = 0.0476-0.1427-0.1427 (  2556 PWs)   bands (ev):

    10.3297  10.3297  10.3298  10.3298  12.2859  12.2859  12.2859  12.2860
    12.5057  12.5058  12.5058  12.5058  13.1527  13.1527  13.1527  13.1528
    14.2440  14.2441  14.2441  14.2441  15.9897  15.9898  15.9898  15.9898
    23.7098  23.7099  23.7099  23.7099  31.0550  31.0551  31.0552  31.0552
    38.2449  38.2449  38.2450  38.2451  38.2937  38.2939  38.2939  38.2940
    46.5866  46.5866  46.5866  46.5867  46.7825  46.7825  46.7826  46.7827
    54.8732  54.8733  54.8734  54.8735

          k = 0.0952 0.0952 0.0952 (  2542 PWs)   bands (ev):

     8.9972  10.5643  10.5643  10.5643  12.0744  12.0744  12.0744  12.5522
    12.7699  12.7699  12.7699  12.8967  12.8967  13.1700  13.1700  13.1700
    14.3361  14.3361  14.7476  14.7476  14.7476  16.6173  16.6173  16.6173
    21.7485  21.7485  21.7485  25.3752  32.5457  32.5458  32.5458  35.3050
    35.3050  35.3050  37.2860  37.2861  37.2861  37.6206  40.0371  40.0371
    44.4538  44.4538  47.7882  48.0136  48.0136  48.0136  48.1406  48.1406
    48.1406  52.4793  52.4793  52.4793

          k = 0.0952 0.0952-0.1427 (  2560 PWs)   bands (ev):

     9.8225   9.8225  10.5241  10.5241  12.2669  12.2669  12.5804  12.5805
    12.8277  12.8278  12.9306  12.9306  12.9733  12.9733  13.0375  13.0375
    14.6493  14.6493  14.6768  14.6768  14.8750  14.8751  16.8065  16.8066
    20.8180  20.8180  23.2570  23.2571  33.4228  33.4229  34.7128  34.7129
    36.2213  36.2215  37.3182  37.3183  39.0744  39.0747  39.4140  39.4140
    44.6780  44.6780  44.8797  44.8799  46.0246  46.0247  48.5101  48.5101
    49.6589  49.6590  53.0866  53.0867

          k = 0.0952-0.1427-0.1427 (  2532 PWs)   bands (ev):

    10.1365  10.1365  10.1365  10.1365  12.6141  12.6142  12.6142  12.6142
    12.8468  12.8468  12.8468  12.8468  13.2607  13.2608  13.2608  13.2608
    14.5865  14.5866  14.5866  14.5866  15.4990  15.4990  15.4990  15.4991
    21.4871  21.4871  21.4871  21.4872  35.1287  35.1288  35.1289  35.1289
    38.1880  38.1881  38.1881  38.1882  39.0087  39.0088  39.0088  39.0089
    44.1254  44.1254  44.1255  44.1256  45.1493  45.1493  45.1494  45.1495
    50.5101  50.5102  50.5102  50.5102

          k =-0.1427-0.1427-0.1427 (  2512 PWs)   bands (ev):

    10.0512  10.0512  10.0512  10.0512  12.7324  12.7324  12.7324  12.7324
    12.7324  12.7324  12.7324  12.7324  14.1931  14.1931  14.1932  14.1932
    14.7193  14.7193  14.7193  14.7193  14.7193  14.7193  14.7193  14.7193
    20.6955  20.6956  20.6956  20.6956  36.7661  36.7664  36.7664  36.7664
    39.6461  39.6461  39.6461  39.6462  39.6462  39.6462  39.6463  39.6463
    42.8326  42.8326  42.8326  42.8326  42.8326  42.8326  42.8327  42.8327
    48.8876  48.8876  48.8876  48.8877

          k =-0.0476 0.0000 0.0476 (  2578 PWs)   bands (ev):

     6.1005  10.3628  10.3628  10.5525  11.1089  11.1193  11.1193  12.6111
    12.9836  12.9880  13.6979  13.7392  13.7392  13.7511  13.9541  14.3515
    14.4776  14.4776  14.7485  14.7485  14.8191  16.7170  16.7170  18.9653
    24.1582  25.2280  26.4345  26.4346  28.3761  28.3762  28.9770  28.9770
    30.6662  36.1097  36.1381  37.0966  37.0966  37.3492  40.2327  40.2329
    41.1895  42.6901  43.4993  45.1743  46.4222  49.9448  50.3797  53.2644
    53.6337  55.3109  55.3109  56.2428

          k =-0.0476-0.0000 0.0952 (  2579 PWs)   bands (ev):

     7.1302   9.9657  10.8791  10.9974  11.3923  11.4250  11.4664  12.2987
    12.6759  12.8450  13.0387  13.0789  13.2591  13.5800  14.0020  14.0875
    14.1575  14.2437  14.2731  14.7456  14.7547  15.1450  18.3553  20.7865
    22.2788  24.8357  25.6550  26.6674  27.5255  29.7149  29.9635  30.0249
    31.1119  33.8010  34.5086  37.7203  38.6689  40.3406  40.5154  40.8667
    41.1171  44.1210  45.2354  47.1235  47.7069  48.5690  49.8763  51.2594
    52.8947  53.1697  55.0356  56.9898

          k =-0.0952 0.0000 0.0952 (  2562 PWs)   bands (ev):

     8.0801  10.6038  10.6038  11.3609  11.4431  11.6809  11.6809  12.2007
    12.3471  12.3471  12.5208  12.9181  13.4032  13.4764  13.7746  13.9136
    13.9136  14.2772  14.2772  14.4670  14.5439  16.2870  16.2870  19.6074
    22.3281  25.3568  26.9430  26.9430  27.9966  27.9966  31.1150  31.7288
    31.7288  31.8032  33.6557  36.8729  41.4631  41.8613  41.8614  43.1089
    43.2943  43.8132  43.8133  47.3094  47.3577  48.5189  48.5189  51.7323
    52.0673  52.1311  53.4021  55.2527

          k = 0.0476-0.0476 0.0476 (  2593 PWs)   bands (ev):

     6.4492  10.5507  10.5507  10.5507  11.2105  11.2105  11.2105  12.5562
    13.0086  13.0086  13.3979  13.3979  13.3979  13.8666  13.8666  14.1585
    14.1585  14.1585  14.8196  14.8196  14.8196  17.3707  17.3707  17.3707
    25.4565  25.4566  25.4566  26.7642  26.7642  26.7642  31.1923  31.1923
    31.1925  33.5481  36.2602  36.2603  36.2604  39.0968  41.1894  41.1895
    42.8940  42.8942  42.8942  46.5044  47.6042  47.6043  51.8079  51.8080
    55.1805  55.1805  55.1806  56.0502

          k = 0.0476-0.0476 0.0952 (  2572 PWs)   bands (ev):

     7.4464  10.1644  11.0103  11.0103  11.4520  11.4520  11.5079  12.3090
    12.6773  12.6773  12.8426  13.0402  13.1302  13.7715  13.8058  13.8684
    13.8685  14.1421  14.7075  14.7372  14.7372  15.4280  18.6988  18.6988
    22.9162  22.9163  26.7629  27.3913  27.3913  30.4322  30.4323  30.8585
    31.0342  32.6964  36.7189  37.6816  37.9266  38.8198  38.8200  42.3673
    43.5825  44.4862  47.0636  47.0637  47.9233  49.0280  50.1880  50.1881
    50.7015  52.9454  53.0367  55.7703

          k =-0.0952 0.0476 0.0476 (  2572 PWs)   bands (ev):

     7.4464  10.1644  11.0103  11.0103  11.4520  11.4520  11.5079  12.3090
    12.6773  12.6773  12.8426  13.0401  13.1302  13.7715  13.8058  13.8684
    13.8685  14.1421  14.7075  14.7372  14.7372  15.4280  18.6988  18.6988
    22.9163  22.9163  26.7627  27.3913  27.3913  30.4322  30.4322  30.8585
    31.0342  32.6966  36.7190  37.6817  37.9267  38.8198  38.8199  42.3672
    43.5824  44.4860  47.0638  47.0638  47.9232  49.0280  50.1881  50.1881
    50.7015  52.9455  53.0368  55.7704

          k = 0.0476-0.0476-0.1427 (  2556 PWs)   bands (ev):

     8.8883   8.8884  11.4379  11.4380  11.5053  11.5053  11.9181  11.9182
    12.2950  12.2950  12.8227  12.8228  13.3936  13.3937  13.6776  13.6776
    14.2940  14.2941  14.4570  14.4570  14.6896  14.6896  19.7780  19.7780
    21.4488  21.4488  28.3215  28.3215  28.5874  28.5874  29.0408  29.0409
    35.0068  35.0069  35.3878  35.3881  38.1710  38.1712  42.1847  42.1849
    44.8419  44.8421  45.3574  45.3575  49.4000  49.4002  50.8525  50.8526
    52.2172  52.2174  54.0606  54.0606

          k = 0.0952-0.0476 0.0952 (  2560 PWs)   bands (ev):

     8.3322  10.6124  10.6124  11.1241  11.6180  11.7589  11.7589  12.2851
    12.4910  12.4910  12.6160  12.9296  13.0790  13.5325  13.5325  13.5347
    13.8957  14.4562  14.6050  14.6050  14.6217  16.3658  16.3658  18.8984
    21.1464  24.1198  24.1198  28.1049  28.1798  31.1973  31.1973  32.2122
    32.2122  34.0709  35.2661  36.9334  39.3384  39.3384  40.0774  43.1499
    43.7261  44.7293  46.4560  46.4561  49.2457  49.2457  50.3485  50.5780
    50.8998  51.6892  52.3656  52.8522

          k =-0.0952 0.0476 0.0952 (  2560 PWs)   bands (ev):

     8.3322  10.6123  10.6123  11.1241  11.6180  11.7589  11.7589  12.2851
    12.4910  12.4910  12.6160  12.9296  13.0790  13.5325  13.5325  13.5347
    13.8957  14.4562  14.6050  14.6050  14.6218  16.3658  16.3658  18.8985
    21.1465  24.1197  24.1198  28.1049  28.1798  31.1972  31.1973  32.2122
    32.2122  34.0708  35.2663  36.9333  39.3385  39.3386  40.0774  43.1498
    43.7261  44.7293  46.4561  46.4561  49.2457  49.2458  50.3484  50.5779
    50.8999  51.6891  52.3657  52.8522

          k = 0.0952-0.0476-0.1427 (  2564 PWs)   bands (ev):

     9.5529   9.5530  10.9758  10.9758  11.8787  11.8787  12.1186  12.1188
    12.4716  12.4716  12.6589  12.6590  13.2082  13.2082  13.3893  13.3894
    14.2147  14.2148  14.5129  14.5130  15.0623  15.0623  17.6010  17.6011
    22.1185  22.1186  25.8635  25.8635  29.5353  29.5354  33.0954  33.0955
    33.3213  33.3214  36.9169  36.9172  40.1209  40.1211  40.4676  40.4678
    45.1789  45.1790  45.6753  45.6755  47.6840  47.6841  50.6097  50.6099
    51.7291  51.7292  53.9984  53.9986

          k = 0.0952-0.0952 0.0952 (  2542 PWs)   bands (ev):

     8.9972  10.5643  10.5643  10.5644  12.0744  12.0744  12.0744  12.5522
    12.7699  12.7699  12.7699  12.8967  12.8968  13.1700  13.1700  13.1700
    14.3360  14.3361  14.7476  14.7476  14.7476  16.6173  16.6173  16.6173
    21.7484  21.7485  21.7485  25.3754  32.5458  32.5458  32.5459  35.3049
    35.3050  35.3051  37.2860  37.2860  37.2861  37.6205  40.0369  40.0370
    44.4537  44.4537  47.7881  48.0136  48.0136  48.0137  48.1406  48.1406
    48.1407  52.4794  52.4795  52.4795

          k = 0.0952-0.0952-0.1427 (  2560 PWs)   bands (ev):

     9.8225   9.8225  10.5241  10.5241  12.2669  12.2669  12.5804  12.5805
    12.8277  12.8278  12.9305  12.9305  12.9733  12.9733  13.0375  13.0375
    14.6493  14.6493  14.6768  14.6768  14.8751  14.8751  16.8065  16.8066
    20.8179  20.8180  23.2571  23.2572  33.4229  33.4230  34.7129  34.7129
    36.2213  36.2215  37.3181  37.3182  39.0744  39.0746  39.4139  39.4141
    44.6779  44.6780  44.8798  44.8799  46.0246  46.0246  48.5102  48.5102
    49.6590  49.6590  53.0867  53.0868

     the Fermi energy is    14.4923 ev

!    total energy              =    -343.63028411 Ry
     Harris-Foulkes estimate   =    -343.63028411 Ry
     estimated scf accuracy    <          6.3E-12 Ry

     The total energy is the sum of the following terms:

     one-electron contribution =      -6.38328678 Ry
     hartree contribution      =      60.34887173 Ry
     xc contribution           =    -120.51418296 Ry
     ewald contribution        =    -277.03326992 Ry
     Dispersion Correction     =      -0.04784320 Ry
     smearing contrib. (-TS)   =      -0.00057298 Ry

     total magnetization       =     2.84 Bohr mag/cell
     absolute magnetization    =     3.25 Bohr mag/cell

     convergence has been achieved in  17 iterations

     Forces acting on atoms (Ry/au):

     atom    1 type  1   force =     0.00000033    0.00000033    0.00000021
     atom    2 type  1   force =    -0.00000087   -0.00000087   -0.00000087
     atom    3 type  1   force =     0.00000033    0.00000021    0.00000033
     atom    4 type  1   force =     0.00000021    0.00000033    0.00000033

     Total force =     0.000002     Total SCF correction =     0.000006
     SCF correction compared to forces is large: reduce conv_thr to get better values


     entering subroutine stress ...

          total   stress  (Ry/bohr**3)                   (kbar)     P=    0.13
   0.00000085  -0.00000005  -0.00000005          0.13     -0.01     -0.01
  -0.00000005   0.00000085  -0.00000005         -0.01      0.13     -0.01
  -0.00000005  -0.00000005   0.00000085         -0.01     -0.01      0.13


     Writing output data file Ni-ferromag.save

     init_run     :     33.61s CPU     34.59s WALL (       2 calls)
     electrons    :   3279.27s CPU   3382.92s WALL (       6 calls)
     update_pot   :     22.08s CPU     22.15s WALL (       4 calls)
     forces       :     55.95s CPU     56.29s WALL (       6 calls)
     stress       :    103.17s CPU    104.96s WALL (       6 calls)

     Called by init_run:
     wfcinit      :     27.19s CPU     28.06s WALL (       2 calls)
     potinit      :      1.79s CPU      1.83s WALL (       2 calls)

     Called by electrons:
     c_bands      :   2833.45s CPU   2919.14s WALL (      76 calls)
     sum_band     :    401.16s CPU    415.84s WALL (      76 calls)
     v_of_rho     :     23.14s CPU     24.04s WALL (      82 calls)
     newd         :     22.32s CPU     24.30s WALL (      82 calls)
     mix_rho      :      1.62s CPU      2.06s WALL (      76 calls)

     Called by c_bands:
     init_us_2    :     21.22s CPU     23.86s WALL (   10624 calls)
     cegterg      :   2758.57s CPU   2842.64s WALL (    4864 calls)

     Called by sum_band:
     sum_band:bec :      0.81s CPU      0.81s WALL (    4864 calls)
     addusdens    :     32.10s CPU     33.99s WALL (      76 calls)

     Called by *egterg:
     h_psi        :   1488.40s CPU   1540.38s WALL (   14004 calls)
     s_psi        :    213.16s CPU    213.28s WALL (   14004 calls)
     g_psi        :      9.35s CPU      9.30s WALL (    9012 calls)
     cdiaghg      :    136.70s CPU    136.79s WALL (   13620 calls)

     Called by h_psi:
     add_vuspsi   :    213.46s CPU    213.56s WALL (   14004 calls)

     General routines
     calbec       :    378.41s CPU    378.55s WALL (   20788 calls)
     fft          :      7.89s CPU      8.70s WALL (    2746 calls)
     ffts         :      0.43s CPU      0.46s WALL (     316 calls)
     fftw         :   1132.20s CPU   1194.16s WALL ( 1385184 calls)
     interpolate  :      1.45s CPU      1.78s WALL (     316 calls)

     Parallel routines
     fft_scatter  :     65.45s CPU     83.89s WALL ( 1388246 calls)

     PWSCF        :     0h58m CPU        1h 0m WALL


   This run was terminated on:   5:25:41  27May2016            

=------------------------------------------------------------------------------=
   JOB DONE.
=------------------------------------------------------------------------------=
