
     Program PWSCF v.5.3.0 (svn rev. 11974) starts on 27May2016 at  6:29:55 

     This program is part of the open-source Quantum ESPRESSO suite
     for quantum simulation of materials; please cite
         "P. Giannozzi et al., J. Phys.:Condens. Matter 21 395502 (2009);
          URL http://www.quantum-espresso.org", 
     in publications or presentations arising from this work. More details at
     http://www.quantum-espresso.org/quote

     Parallel version (MPI), running on     1 processors
     Waiting for input...
     Reading input from standard input
     Message from routine read_cards :
     DEPRECATED: no units specified in CELL_PARAMETERS card

     Current dimensions of program PWSCF are:
     Max number of different atomic species (ntypx) = 10
     Max number of k-points (npk) =  40000
     Max angular momentum in pseudopotentials (lmaxx) =  3
               file Ni.pbe-nd-rrkjus.UPF: wavefunction(s)  4S renormalized

     -------------------------------------
     Parameters for Dispersion Correction:
     -------------------------------------
       atom      VdW radius       C_6     

        Ni1        3.014        159.927

     Subspace diagonalization in iterative solution of the eigenvalue problem:
     a serial algorithm will be used


     G-vector sticks info
     --------------------
     sticks:   dense  smooth     PW     G-vecs:    dense   smooth      PW
     Sum        1413    1049    317                39847    25725    4169

     Generating pointlists ...
     new r_m :   0.4125 (alat units)  0.7795 (a.u.) for type    1

     Title: 
     Ni-ferro-mag                                                               


     bravais-lattice index     =            0
     lattice parameter (alat)  =       1.8897  a.u.
     unit-cell volume          =     295.0010 (a.u.)^3
     number of atoms/cell      =            4
     number of atomic types    =            1
     number of electrons       =        40.00
     number of Kohn-Sham states=           52
     kinetic-energy cutoff     =      75.0000  Ry
     charge density cutoff     =     400.0000  Ry
     convergence threshold     =      1.0E-08
     mixing beta               =       0.2000
     number of iterations used =            8  plain     mixing
     Exchange-correlation      =  SLA  PW   PBE  PBE ( 1  4  3  4 0 0)
     nstep                     =           50


     celldm(1)=   1.889726  celldm(2)=   0.000000  celldm(3)=   0.000000
     celldm(4)=   0.000000  celldm(5)=   0.000000  celldm(6)=   0.000000

     crystal axes: (cart. coord. in units of alat)
               a(1) = (   3.522700   0.000000   0.000000 )  
               a(2) = (   0.000000   3.522700   0.000000 )  
               a(3) = (   0.000000   0.000000   3.522700 )  

     reciprocal axes: (cart. coord. in units 2 pi/alat)
               b(1) = (  0.283873  0.000000  0.000000 )  
               b(2) = (  0.000000  0.283873  0.000000 )  
               b(3) = (  0.000000  0.000000  0.283873 )  


     PseudoPot. # 1 for Ni read from file:
     /home/eliot/pseudo/Ni.pbe-nd-rrkjus.UPF
     MD5 check sum: 8081f0a005c9a5470caab1a58e82ecb2
     Pseudo is Ultrasoft + core correction, Zval = 10.0
     Generated by new atomic code, or converted to UPF format
     Using radial grid of 1203 points,  6 beta functions with: 
                l(1) =   0
                l(2) =   0
                l(3) =   1
                l(4) =   1
                l(5) =   2
                l(6) =   2
     Q(r) pseudized with 0 coefficients 


     atomic species   valence    mass     pseudopotential
        Ni1           10.00    58.69340     Ni( 1.00)

     Starting magnetic structure 
     atomic species   magnetization
        Ni1          0.500

      6 Sym. Ops. (no inversion) found



   Cartesian axes

     site n.     atom                  positions (alat units)
         1           Ni1 tau(   1) = (   1.7691699   1.7691699   0.0000000  )
         2           Ni1 tau(   2) = (   0.0000000   0.0000000   0.0000000  )
         3           Ni1 tau(   3) = (   1.7691699   0.0000000   1.7691699  )
         4           Ni1 tau(   4) = (   0.0000000   1.7691699   1.7691699  )

     number of k points=    32  Methfessel-Paxton smearing, width (Ry)=  0.0500
                       cart. coord. in units 2pi/alat
        k(    1) = (   0.0000000   0.0000000   0.0000000), wk =   0.0046296
        k(    2) = (   0.0000000   0.0000000   0.0473122), wk =   0.0277778
        k(    3) = (   0.0000000   0.0000000   0.0946244), wk =   0.0277778
        k(    4) = (   0.0000000   0.0000000  -0.1419366), wk =   0.0138889
        k(    5) = (   0.0000000   0.0473122   0.0473122), wk =   0.0277778
        k(    6) = (   0.0000000   0.0473122   0.0946244), wk =   0.0555556
        k(    7) = (   0.0000000   0.0473122  -0.1419366), wk =   0.0555556
        k(    8) = (   0.0000000   0.0946244   0.0946244), wk =   0.0277778
        k(    9) = (   0.0000000   0.0946244  -0.1419366), wk =   0.0555556
        k(   10) = (   0.0000000  -0.1419366  -0.1419366), wk =   0.0138889
        k(   11) = (   0.0473122   0.0473122   0.0473122), wk =   0.0092593
        k(   12) = (   0.0473122   0.0473122   0.0946244), wk =   0.0277778
        k(   13) = (   0.0473122   0.0473122  -0.1419366), wk =   0.0277778
        k(   14) = (   0.0473122   0.0946244   0.0946244), wk =   0.0277778
        k(   15) = (   0.0473122   0.0946244  -0.1419366), wk =   0.0555556
        k(   16) = (   0.0473122  -0.1419366  -0.1419366), wk =   0.0277778
        k(   17) = (   0.0946244   0.0946244   0.0946244), wk =   0.0092593
        k(   18) = (   0.0946244   0.0946244  -0.1419366), wk =   0.0277778
        k(   19) = (   0.0946244  -0.1419366  -0.1419366), wk =   0.0277778
        k(   20) = (  -0.1419366  -0.1419366  -0.1419366), wk =   0.0046296
        k(   21) = (  -0.0473122   0.0000000   0.0473122), wk =   0.0277778
        k(   22) = (  -0.0473122   0.0000000   0.0946244), wk =   0.0555556
        k(   23) = (  -0.0946244   0.0000000   0.0946244), wk =   0.0277778
        k(   24) = (   0.0473122  -0.0473122   0.0473122), wk =   0.0277778
        k(   25) = (   0.0473122  -0.0473122   0.0946244), wk =   0.0555556
        k(   26) = (  -0.0946244   0.0473122   0.0473122), wk =   0.0277778
        k(   27) = (   0.0473122  -0.0473122  -0.1419366), wk =   0.0277778
        k(   28) = (   0.0946244  -0.0473122   0.0946244), wk =   0.0277778
        k(   29) = (  -0.0946244   0.0473122   0.0946244), wk =   0.0555556
        k(   30) = (   0.0946244  -0.0473122  -0.1419366), wk =   0.0555556
        k(   31) = (   0.0946244  -0.0946244   0.0946244), wk =   0.0277778
        k(   32) = (   0.0946244  -0.0946244  -0.1419366), wk =   0.0277778

     Dense  grid:    39847 G-vectors     FFT dimensions: (  45,  45,  45)

     Smooth grid:    25725 G-vectors     FFT dimensions: (  40,  40,  40)

     Largest allocated arrays     est. size (Mb)     dimensions
        Kohn-Sham Wavefunctions         2.58 Mb     (    3253,   52)
        NL pseudopotentials             3.57 Mb     (    3253,   72)
        Each V/rho on FFT grid          2.78 Mb     (   91125,   2)
        Each G-vector array             0.30 Mb     (   39847)
        G-vector shells                 0.30 Mb     (   39847)
     Largest temporary arrays     est. size (Mb)     dimensions
        Auxiliary wavefunctions        10.32 Mb     (    3253,  208)
        Each subspace H/S matrix        0.66 Mb     (     208,  208)
        Each <psi_i|beta_j> matrix      0.06 Mb     (      72,   52)
        Arrays for rho mixing          11.12 Mb     (   91125,    8)

     Check: negative/imaginary core charge=   -0.000005    0.000000

     Initial potential from superposition of free atoms

     starting charge   39.99816, renormalised to   40.00000
     Starting wfc are   24 randomized atomic wfcs +   28 random wfc

     total cpu time spent up to now is       22.9 secs

     Self-consistent Calculation

     iteration #  1     ecut=    75.00 Ry     beta=0.20
     Davidson diagonalization with overlap
     ethr =  1.00E-02,  avg # of iterations =  6.5

     total cpu time spent up to now is      142.4 secs

     total energy              =    -342.90143205 Ry
     Harris-Foulkes estimate   =    -343.18552065 Ry
     estimated scf accuracy    <       2.43748084 Ry

     total magnetization       =     6.91 Bohr mag/cell
     absolute magnetization    =     6.92 Bohr mag/cell

     iteration #  2     ecut=    75.00 Ry     beta=0.20
     Davidson diagonalization with overlap
     ethr =  6.09E-03,  avg # of iterations =  1.0

     total cpu time spent up to now is      191.2 secs

     total energy              =    -343.20641400 Ry
     Harris-Foulkes estimate   =    -343.04088666 Ry
     estimated scf accuracy    <       0.77206137 Ry

     total magnetization       =     5.77 Bohr mag/cell
     absolute magnetization    =     5.87 Bohr mag/cell

     iteration #  3     ecut=    75.00 Ry     beta=0.20
     Davidson diagonalization with overlap
     ethr =  1.93E-03,  avg # of iterations =  1.6

     total cpu time spent up to now is      240.9 secs

     total energy              =    -343.53594830 Ry
     Harris-Foulkes estimate   =    -343.27851163 Ry
     estimated scf accuracy    <       0.36092755 Ry

     total magnetization       =     4.53 Bohr mag/cell
     absolute magnetization    =     4.85 Bohr mag/cell

     iteration #  4     ecut=    75.00 Ry     beta=0.20
     Davidson diagonalization with overlap
     ethr =  9.02E-04,  avg # of iterations =  1.7

     total cpu time spent up to now is      290.6 secs

     total energy              =    -343.61772588 Ry
     Harris-Foulkes estimate   =    -343.65313703 Ry
     estimated scf accuracy    <       0.12761676 Ry

     total magnetization       =     2.54 Bohr mag/cell
     absolute magnetization    =     3.17 Bohr mag/cell

     iteration #  5     ecut=    75.00 Ry     beta=0.20
     Davidson diagonalization with overlap
     ethr =  3.19E-04,  avg # of iterations =  1.0

     total cpu time spent up to now is      339.2 secs

     total energy              =    -343.62303415 Ry
     Harris-Foulkes estimate   =    -343.62794502 Ry
     estimated scf accuracy    <       0.01596243 Ry

     total magnetization       =     2.62 Bohr mag/cell
     absolute magnetization    =     3.23 Bohr mag/cell

     iteration #  6     ecut=    75.00 Ry     beta=0.20
     Davidson diagonalization with overlap
     ethr =  3.99E-05,  avg # of iterations =  4.0

     total cpu time spent up to now is      393.4 secs

     total energy              =    -343.62632663 Ry
     Harris-Foulkes estimate   =    -343.62741956 Ry
     estimated scf accuracy    <       0.00222458 Ry

     total magnetization       =     2.72 Bohr mag/cell
     absolute magnetization    =     3.31 Bohr mag/cell

     iteration #  7     ecut=    75.00 Ry     beta=0.20
     Davidson diagonalization with overlap
     ethr =  5.56E-06,  avg # of iterations =  3.5

     total cpu time spent up to now is      446.3 secs

     total energy              =    -343.62922820 Ry
     Harris-Foulkes estimate   =    -343.62816577 Ry
     estimated scf accuracy    <       0.00168340 Ry

     total magnetization       =     3.03 Bohr mag/cell
     absolute magnetization    =     3.52 Bohr mag/cell

     iteration #  8     ecut=    75.00 Ry     beta=0.20
     Davidson diagonalization with overlap
     ethr =  4.21E-06,  avg # of iterations =  1.3

     total cpu time spent up to now is      495.6 secs

     total energy              =    -343.62960092 Ry
     Harris-Foulkes estimate   =    -343.62957234 Ry
     estimated scf accuracy    <       0.00007131 Ry

     total magnetization       =     2.91 Bohr mag/cell
     absolute magnetization    =     3.37 Bohr mag/cell

     iteration #  9     ecut=    75.00 Ry     beta=0.20
     Davidson diagonalization with overlap
     ethr =  1.78E-07,  avg # of iterations =  2.0

     total cpu time spent up to now is      545.7 secs

     total energy              =    -343.62961439 Ry
     Harris-Foulkes estimate   =    -343.62963489 Ry
     estimated scf accuracy    <       0.00004187 Ry

     total magnetization       =     2.87 Bohr mag/cell
     absolute magnetization    =     3.32 Bohr mag/cell

     iteration # 10     ecut=    75.00 Ry     beta=0.20
     Davidson diagonalization with overlap
     ethr =  1.05E-07,  avg # of iterations =  1.0

     total cpu time spent up to now is      594.3 secs

     total energy              =    -343.62963892 Ry
     Harris-Foulkes estimate   =    -343.62962910 Ry
     estimated scf accuracy    <       0.00001628 Ry

     total magnetization       =     2.89 Bohr mag/cell
     absolute magnetization    =     3.33 Bohr mag/cell

     iteration # 11     ecut=    75.00 Ry     beta=0.20
     Davidson diagonalization with overlap
     ethr =  4.07E-08,  avg # of iterations =  1.0

     total cpu time spent up to now is      643.0 secs

     total energy              =    -343.62964653 Ry
     Harris-Foulkes estimate   =    -343.62964548 Ry
     estimated scf accuracy    <       0.00000232 Ry

     total magnetization       =     2.88 Bohr mag/cell
     absolute magnetization    =     3.31 Bohr mag/cell

     iteration # 12     ecut=    75.00 Ry     beta=0.20
     Davidson diagonalization with overlap
     ethr =  5.80E-09,  avg # of iterations =  1.0

     total cpu time spent up to now is      691.7 secs

     total energy              =    -343.62964783 Ry
     Harris-Foulkes estimate   =    -343.62964786 Ry
     estimated scf accuracy    <       0.00000033 Ry

     total magnetization       =     2.87 Bohr mag/cell
     absolute magnetization    =     3.30 Bohr mag/cell

     iteration # 13     ecut=    75.00 Ry     beta=0.20
     Davidson diagonalization with overlap
     ethr =  8.29E-10,  avg # of iterations =  1.5

     total cpu time spent up to now is      741.2 secs

     total energy              =    -343.62964791 Ry
     Harris-Foulkes estimate   =    -343.62964796 Ry
     estimated scf accuracy    <       0.00000001 Ry

     total magnetization       =     2.87 Bohr mag/cell
     absolute magnetization    =     3.30 Bohr mag/cell

     iteration # 14     ecut=    75.00 Ry     beta=0.20
     Davidson diagonalization with overlap
     ethr =  2.69E-11,  avg # of iterations =  1.8

     total cpu time spent up to now is      791.3 secs

     total energy              =    -343.62964795 Ry
     Harris-Foulkes estimate   =    -343.62964793 Ry
     estimated scf accuracy    <       0.00000004 Ry

     total magnetization       =     2.87 Bohr mag/cell
     absolute magnetization    =     3.30 Bohr mag/cell

     iteration # 15     ecut=    75.00 Ry     beta=0.20
     Davidson diagonalization with overlap
     ethr =  2.69E-11,  avg # of iterations =  1.0

     Magnetic moment per site:
     atom:    1    charge:    3.0543    magn:    0.3439    constr:    0.0000
     atom:    2    charge:    3.0526    magn:    0.3438    constr:    0.0000
     atom:    3    charge:    3.0543    magn:    0.3439    constr:    0.0000
     atom:    4    charge:    3.0543    magn:    0.3439    constr:    0.0000

     total cpu time spent up to now is      839.9 secs

     End of self-consistent calculation

 ------ SPIN UP ------------


          k = 0.0000 0.0000 0.0000 (  3239 PWs)   bands (ev):

     5.2289   9.4935   9.4935   9.4935   9.9340   9.9346   9.9346  11.6677
    11.6677  11.6677  12.8172  12.8172  13.5171  13.5171  13.5171  13.6028
    13.6028  13.6028  13.6030  13.6030  13.6030  16.7429  16.7431  16.7431
    23.3387  23.3388  23.3388  29.0913  29.0913  29.0913  29.0915  29.0915
    29.0915  34.1013  34.1013  34.1017  37.3457  37.3458  37.3458  38.0320
    41.8750  41.8750  41.8750  45.3827  45.3827  45.3827  47.5697  54.3400
    54.3400  54.3400  57.2490  58.5571

          k = 0.0000 0.0000 0.0473 (  3227 PWs)   bands (ev):

     5.5906   9.5129   9.6739   9.6739  10.0421  10.0573  10.0577  11.5426
    11.7674  11.7674  12.7020  12.8622  12.9701  12.9702  13.3674  13.3674
    13.4324  13.4324  13.4689  13.6033  13.6033  15.1468  17.6791  17.6793
    23.4377  23.4377  25.5825  27.3492  27.3495  27.9635  27.9635  29.6429
    29.6429  34.2198  36.2632  36.2634  37.3769  37.4763  39.2924  39.2924
    39.6484  39.6484  40.3560  46.8116  47.4726  47.4726  48.4055  50.8785
    55.3991  55.3992  55.9778  55.9783

          k = 0.0000 0.0000 0.0946 (  3234 PWs)   bands (ev):

     6.6279   9.2771  10.1018  10.1018  10.3421  10.4305  10.4312  11.2082
    11.9398  11.9405  12.0565  12.0565  12.4231  12.9882  12.9901  12.9901
    13.0032  13.0149  13.0149  13.3383  13.6038  13.6039  19.6089  19.6091
    23.7661  23.7661  24.5996  24.5996  26.1890  26.1890  29.8633  31.1977
    31.1977  34.5897  36.2199  36.4512  36.4512  37.8320  38.0182  40.2797
    40.2801  43.3962  43.4273  43.4274  50.2417  50.3921  50.3921  50.4107
    50.4107  54.3346  55.2811  55.2812

          k = 0.0000 0.0000-0.1419 (  3218 PWs)   bands (ev):

     8.1033   8.1260  10.3721  10.3721  10.7498  10.7816  11.0465  11.0468
    11.0782  11.0784  12.2291  12.2736  12.4847  12.4847  12.5085  12.5085
    12.7596  12.7596  13.1532  13.1707  13.6041  13.6041  21.9355  21.9356
    21.9917  21.9919  24.1630  24.1630  25.2226  25.2226  33.5224  33.5224
    33.5625  33.5625  34.3675  34.4497  35.2394  35.2579  39.5035  39.6342
    44.9892  44.9895  45.1024  45.1027  46.9027  46.9028  51.5752  51.5752
    53.4703  53.4703  53.5754  53.5754

          k = 0.0000 0.0473 0.0473 (  3227 PWs)   bands (ev):

     5.9439   9.7074   9.7074   9.8334  10.1562  10.1568  10.1701  11.4845
    11.8113  11.8280  12.6325  12.6666  12.6890  12.7013  12.8587  13.2430
    13.3639  13.3639  13.4307  13.4310  13.4908  16.0553  16.0553  18.4343
    23.4480  24.6341  25.7734  25.7737  27.8188  27.8188  28.4464  28.4471
    30.1618  35.4701  35.5989  36.4719  36.4723  36.7719  39.4614  39.4620
    40.7143  41.9444  42.9234  44.6223  45.6795  49.0060  49.8069  52.2827
    53.0105  54.6580  54.6592  55.6128

          k = 0.0000 0.0473 0.0946 (  3245 PWs)   bands (ev):

     6.9542   9.5094  10.1800  10.2277  10.4312  10.4835  10.5015  11.2115
    11.7068  11.8429  11.9545  12.0678  12.0953  12.5171  12.9281  12.9941
    13.0173  13.0345  13.1832  13.4265  13.4344  14.1031  17.6423  20.1896
    21.6670  24.1308  25.0541  26.0845  26.8876  29.1157  29.4123  29.4654
    30.4852  33.2001  33.9302  37.1242  38.0544  39.8309  40.0103  40.0861
    40.5346  43.3645  44.2793  46.3626  47.1621  47.9206  49.2225  50.6746
    52.2582  52.6003  54.0631  55.5548

          k = 0.0000 0.0473-0.1419 (  3240 PWs)   bands (ev):

     8.3825   8.4038  10.5201  10.5215  10.7998  10.8305  10.9204  10.9463
    11.0612  11.0920  11.8703  11.9031  12.4852  12.5095  12.7168  12.7274
    12.7448  12.7462  13.3409  13.3411  13.4228  13.4276  19.4746  19.5033
    22.4301  22.4808  24.9248  24.9619  27.8057  27.8173  30.9768  30.9945
    31.5013  31.5141  35.2389  35.3342  38.2672  38.2750  41.4784  41.5580
    42.4879  42.5166  45.2668  45.3738  49.3002  49.3976  49.6796  49.7249
    51.9262  51.9611  52.4862  52.5160

          k = 0.0000 0.0946 0.0946 (  3227 PWs)   bands (ev):

     7.8714  10.0871  10.0873  10.4489  10.6915  10.6928  10.7103  11.1441
    11.3844  11.3846  11.5355  11.8462  12.1950  12.4332  12.7181  12.8678
    12.8684  13.0036  13.0040  13.1692  13.3796  15.3278  15.3278  18.9092
    21.6946  24.6819  26.3093  26.3094  27.4156  27.4161  30.4793  31.1093
    31.1156  31.2275  33.0656  36.2830  40.9617  41.2936  41.2938  42.4381
    42.8505  43.1210  43.1211  46.4563  46.6542  47.7835  47.7843  50.9477
    51.5031  51.5322  52.4681  54.6621

          k = 0.0000 0.0946-0.1419 (  3252 PWs)   bands (ev):

     9.1196   9.1371  10.5388  10.5588  10.9220  10.9413  10.9568  10.9640
    11.0809  11.1096  11.5789  11.6004  12.5193  12.5353  12.5368  12.5431
    12.6035  12.6067  13.0301  13.0448  14.0249  14.0287  16.8296  16.8521
    23.7738  23.8125  25.7332  25.7632  28.1574  28.1765  29.0385  29.0415
    32.4123  32.4195  36.1862  36.2788  39.7703  39.7895  42.4547  42.4730
    42.5825  42.5912  46.0737  46.1610  47.1853  47.2378  49.7377  49.7860
    50.9647  51.0451  52.8755  52.8971

          k = 0.0000-0.1419-0.1419 (  3216 PWs)   bands (ev):

     9.9596   9.9746   9.9747   9.9892  11.0298  11.0571  11.0571  11.0841
    11.3543  11.3622  11.3622  11.3698  12.3907  12.3932  12.3932  12.3962
    12.6759  12.6985  12.6985  12.7208  15.0691  15.0797  15.0797  15.0905
    25.7168  25.7440  25.7441  25.7708  27.0759  27.0934  27.0934  27.1119
    37.2709  37.2967  37.2967  37.3237  37.9211  37.9542  37.9543  37.9829
    46.5751  46.5751  46.5764  46.5768  48.4718  48.5205  48.5205  48.5688
    51.0304  51.0338  51.0338  51.0365

          k = 0.0473 0.0473 0.0473 (  3224 PWs)   bands (ev):

     6.2858   9.8646   9.8648   9.8648  10.2680  10.2687  10.2687  11.4509
    11.8470  11.8470  12.3929  12.3929  12.3930  12.7739  12.7739  13.0151
    13.0156  13.0156  13.5436  13.5436  13.5438  16.6710  16.6711  16.6711
    24.8801  24.8803  24.8803  26.1044  26.1044  26.1047  30.6689  30.6693
    30.6693  32.9596  35.6021  35.6021  35.6025  38.7561  40.5180  40.5180
    42.1510  42.1510  42.1510  45.9791  47.0115  47.0115  50.8221  50.8221
    54.4864  54.5252  54.5261  54.5262

          k = 0.0473 0.0473 0.0946 (  3245 PWs)   bands (ev):

     7.2570   9.6657  10.2382  10.2385  10.5467  10.5759  10.5761  11.2474
    11.6972  11.6974  11.8832  11.9300  11.9839  12.6225  12.6904  12.7759
    12.7780  13.0079  13.4487  13.4488  13.4809  14.4605  17.9948  17.9949
    22.2748  22.2749  26.1511  26.7611  26.7612  29.8502  29.8504  30.2388
    30.4433  32.1271  36.0784  37.2593  37.2725  38.2137  38.2138  41.7453
    42.8374  43.8280  46.3352  46.3353  47.1844  48.4368  49.5252  49.5253
    50.0022  52.3480  52.3813  54.8103

          k = 0.0473 0.0473-0.1419 (  3232 PWs)   bands (ev):

     8.6092   8.6281  10.6121  10.6134  10.6767  10.6770  10.8956  10.9243
    11.3139  11.3140  11.7773  11.8095  12.2444  12.2554  12.6126  12.6131
    13.1629  13.1855  13.2737  13.2786  13.3943  13.3944  19.1395  19.1396
    20.7158  20.7159  27.7370  27.7415  27.9497  27.9659  28.4072  28.4140
    34.3664  34.4001  34.8808  34.9458  37.4625  37.5305  41.6079  41.6080
    44.0542  44.0894  44.7339  44.7342  48.8115  48.8619  50.2181  50.2358
    51.4392  51.4394  52.9806  52.9912

          k = 0.0473 0.0946 0.0946 (  3231 PWs)   bands (ev):

     8.0890   9.9780   9.9784  10.2610  10.8587  10.9015  10.9019  11.2917
    11.4979  11.4982  11.6288  11.8479  11.9694  12.4355  12.4359  12.4526
    12.7477  13.2877  13.3524  13.3695  13.3714  15.4602  15.4603  18.2542
    20.3727  23.4549  23.4549  27.4482  27.5767  30.6436  30.6438  31.5789
    31.5793  33.4733  34.7089  36.3564  38.7459  38.7462  39.6113  42.3602
    43.1181  44.1743  45.8093  45.8094  48.4877  48.4881  49.7490  49.9105
    50.2275  50.8618  51.5906  52.2446

          k = 0.0473 0.0946-0.1419 (  3234 PWs)   bands (ev):

     9.1598   9.1717  10.1937  10.1972  11.0660  11.0671  11.1969  11.2201
    11.5011  11.5108  11.6136  11.6348  12.1110  12.1191  12.3187  12.3238
    13.0323  13.0412  13.2530  13.2623  13.9348  13.9382  16.8165  16.8350
    21.3768  21.3915  25.1922  25.2029  28.9391  28.9468  32.5178  32.5228
    32.7132  32.7200  36.3138  36.3902  39.5532  39.5705  39.8411  39.8540
    44.5550  44.5615  45.0252  45.0607  47.0321  47.0505  49.8439  49.8741
    51.1000  51.1182  53.1370  53.1656

          k = 0.0473-0.1419-0.1419 (  3228 PWs)   bands (ev):

     9.7273   9.7327   9.7327   9.7373  11.4375  11.4453  11.4453  11.4524
    11.5175  11.5329  11.5329  11.5487  12.0800  12.0877  12.0877  12.0956
    13.0050  13.0191  13.0191  13.0334  14.9845  14.9961  14.9961  15.0079
    22.9923  23.0039  23.0039  23.0153  30.4661  30.4683  30.4683  30.4710
    37.5515  37.5722  37.5722  37.5981  37.7771  37.8081  37.8082  37.8312
    46.0259  46.0260  46.0301  46.0338  46.0616  46.0928  46.0928  46.1126
    54.0019  54.0193  54.0195  54.0441

          k = 0.0946 0.0946 0.0946 (  3253 PWs)   bands (ev):

     8.6326   9.8164   9.8170   9.8170  11.2523  11.2529  11.2529  11.7523
    11.8036  11.8036  11.8136  11.8225  11.8225  12.0908  12.0908  12.0913
    13.1392  13.1392  13.4938  13.4938  13.4940  15.8439  15.8440  15.8440
    20.9742  20.9742  20.9743  24.6860  31.9916  31.9916  31.9920  34.6847
    34.6850  34.6850  36.7184  36.7184  36.7189  37.3227  39.3287  39.3287
    43.8077  43.8077  47.0932  47.4185  47.4185  47.4203  47.4657  47.4660
    47.4660  51.6981  51.6989  51.6989

          k = 0.0946 0.0946-0.1419 (  3238 PWs)   bands (ev):

     9.2558   9.2592   9.7496   9.7500  11.3681  11.3685  11.6374  11.6551
    11.8551  11.8576  11.9694  11.9741  11.9869  12.0045  12.0910  12.0916
    13.4151  13.4170  13.4239  13.4254  13.8340  13.8353  16.1347  16.1348
    19.9442  19.9443  22.5145  22.5255  32.9194  32.9195  34.0586  34.0591
    35.8358  35.8671  36.6517  36.6699  38.3528  38.4067  38.8755  38.8756
    44.0026  44.0029  44.2645  44.2909  45.3588  45.3647  47.8924  47.8924
    48.8839  48.8955  52.2396  52.2415

          k = 0.0946-0.1419-0.1419 (  3224 PWs)   bands (ev):

     9.4335   9.4342   9.4342   9.4343  11.6016  11.6065  11.6065  11.6108
    11.7859  11.7907  11.7907  11.7959  12.5209  12.5309  12.5309  12.5410
    13.3388  13.3465  13.3465  13.3543  14.6262  14.6395  14.6395  14.6527
    20.6463  20.6556  20.6556  20.6649  34.6422  34.6454  34.6454  34.6489
    37.6579  37.6719  37.6719  37.6868  38.3182  38.3341  38.3341  38.3472
    43.4384  43.4500  43.4501  43.4611  44.5163  44.5190  44.5190  44.5212
    49.6867  49.6916  49.6917  49.6978

          k =-0.1419-0.1419-0.1419 (  3184 PWs)   bands (ev):

     9.3208   9.3215   9.3215   9.3215  11.6817  11.6817  11.6817  11.6819
    11.6819  11.6824  11.6824  11.6824  13.4695  13.4695  13.4695  13.4705
    13.4705  13.4706  13.4706  13.4706  14.0048  14.0056  14.0056  14.0056
    19.7737  19.7737  19.7737  19.7739  36.4961  36.4963  36.4963  36.4963
    38.9594  38.9594  38.9596  38.9596  38.9596  38.9605  38.9605  38.9605
    42.1751  42.1751  42.1754  42.1754  42.1754  42.1758  42.1758  42.1758
    48.0449  48.0449  48.0449  48.0452

          k =-0.0473 0.0000 0.0473 (  3227 PWs)   bands (ev):

     5.9439   9.7074   9.7074   9.8334  10.1562  10.1568  10.1701  11.4845
    11.8113  11.8280  12.6325  12.6666  12.6891  12.7013  12.8587  13.2430
    13.3639  13.3639  13.4307  13.4310  13.4908  16.0553  16.0553  18.4343
    23.4480  24.6341  25.7734  25.7738  27.8188  27.8189  28.4464  28.4471
    30.1618  35.4701  35.5989  36.4719  36.4723  36.7719  39.4614  39.4620
    40.7143  41.9444  42.9234  44.6223  45.6795  49.0060  49.8069  52.2827
    53.0105  54.6580  54.6591  55.6128

          k =-0.0473 0.0000 0.0946 (  3245 PWs)   bands (ev):

     6.9542   9.5094  10.1800  10.2277  10.4312  10.4835  10.5015  11.2115
    11.7068  11.8429  11.9545  12.0678  12.0953  12.5171  12.9281  12.9941
    13.0173  13.0345  13.1832  13.4265  13.4344  14.1031  17.6423  20.1896
    21.6670  24.1308  25.0541  26.0845  26.8876  29.1157  29.4123  29.4654
    30.4852  33.2001  33.9302  37.1242  38.0544  39.8309  40.0103  40.0861
    40.5346  43.3645  44.2793  46.3626  47.1621  47.9206  49.2225  50.6746
    52.2582  52.6003  54.0631  55.5549

          k =-0.0946 0.0000 0.0946 (  3227 PWs)   bands (ev):

     7.8714  10.0871  10.0873  10.4489  10.6915  10.6928  10.7103  11.1441
    11.3844  11.3846  11.5355  11.8462  12.1950  12.4332  12.7181  12.8678
    12.8684  13.0036  13.0040  13.1692  13.3796  15.3278  15.3278  18.9092
    21.6946  24.6819  26.3093  26.3094  27.4155  27.4162  30.4793  31.1093
    31.1156  31.2275  33.0656  36.2830  40.9617  41.2936  41.2938  42.4381
    42.8505  43.1211  43.1211  46.4563  46.6542  47.7835  47.7843  50.9477
    51.5031  51.5322  52.4681  54.6623

          k = 0.0473-0.0473 0.0473 (  3224 PWs)   bands (ev):

     6.2858   9.8646   9.8648   9.8648  10.2680  10.2687  10.2687  11.4509
    11.8470  11.8470  12.3929  12.3929  12.3930  12.7739  12.7739  13.0151
    13.0156  13.0156  13.5436  13.5436  13.5438  16.6710  16.6711  16.6711
    24.8801  24.8803  24.8803  26.1044  26.1044  26.1047  30.6689  30.6692
    30.6693  32.9596  35.6020  35.6021  35.6025  38.7561  40.5180  40.5180
    42.1510  42.1510  42.1510  45.9791  47.0115  47.0115  50.8221  50.8221
    54.4864  54.5253  54.5261  54.5262

          k = 0.0473-0.0473 0.0946 (  3245 PWs)   bands (ev):

     7.2570   9.6657  10.2382  10.2385  10.5467  10.5759  10.5761  11.2474
    11.6972  11.6974  11.8832  11.9300  11.9839  12.6225  12.6904  12.7759
    12.7780  13.0079  13.4487  13.4488  13.4809  14.4605  17.9948  17.9949
    22.2748  22.2749  26.1511  26.7611  26.7612  29.8502  29.8504  30.2388
    30.4433  32.1271  36.0784  37.2593  37.2725  38.2137  38.2138  41.7453
    42.8374  43.8280  46.3352  46.3353  47.1844  48.4368  49.5251  49.5253
    50.0022  52.3480  52.3813  54.8101

          k =-0.0946 0.0473 0.0473 (  3245 PWs)   bands (ev):

     7.2570   9.6657  10.2382  10.2385  10.5467  10.5759  10.5761  11.2474
    11.6972  11.6973  11.8832  11.9300  11.9839  12.6225  12.6904  12.7759
    12.7780  13.0079  13.4487  13.4488  13.4809  14.4605  17.9948  17.9949
    22.2748  22.2749  26.1511  26.7611  26.7612  29.8502  29.8504  30.2388
    30.4433  32.1271  36.0784  37.2593  37.2725  38.2137  38.2138  41.7453
    42.8374  43.8280  46.3352  46.3353  47.1844  48.4368  49.5252  49.5253
    50.0022  52.3480  52.3813  54.8103

          k = 0.0473-0.0473-0.1419 (  3232 PWs)   bands (ev):

     8.6092   8.6281  10.6121  10.6134  10.6767  10.6770  10.8956  10.9243
    11.3139  11.3140  11.7773  11.8095  12.2444  12.2554  12.6126  12.6131
    13.1629  13.1855  13.2737  13.2786  13.3943  13.3944  19.1395  19.1396
    20.7159  20.7159  27.7370  27.7415  27.9497  27.9659  28.4072  28.4140
    34.3664  34.4001  34.8808  34.9458  37.4625  37.5305  41.6079  41.6080
    44.0542  44.0894  44.7339  44.7342  48.8115  48.8619  50.2181  50.2358
    51.4392  51.4395  52.9807  52.9912

          k = 0.0946-0.0473 0.0946 (  3231 PWs)   bands (ev):

     8.0890   9.9780   9.9784  10.2610  10.8587  10.9015  10.9019  11.2917
    11.4979  11.4982  11.6288  11.8479  11.9694  12.4355  12.4359  12.4526
    12.7477  13.2877  13.3524  13.3695  13.3714  15.4602  15.4603  18.2542
    20.3727  23.4549  23.4549  27.4482  27.5767  30.6436  30.6438  31.5789
    31.5793  33.4733  34.7089  36.3564  38.7459  38.7462  39.6113  42.3602
    43.1181  44.1743  45.8093  45.8094  48.4877  48.4881  49.7490  49.9105
    50.2275  50.8618  51.5906  52.2443

          k =-0.0946 0.0473 0.0946 (  3231 PWs)   bands (ev):

     8.0890   9.9780   9.9784  10.2610  10.8587  10.9015  10.9019  11.2917
    11.4979  11.4982  11.6288  11.8479  11.9694  12.4355  12.4359  12.4526
    12.7477  13.2877  13.3524  13.3695  13.3714  15.4602  15.4603  18.2542
    20.3727  23.4549  23.4549  27.4482  27.5767  30.6436  30.6438  31.5789
    31.5793  33.4733  34.7089  36.3564  38.7459  38.7462  39.6113  42.3602
    43.1181  44.1743  45.8093  45.8094  48.4877  48.4882  49.7490  49.9105
    50.2275  50.8618  51.5906  52.2439

          k = 0.0946-0.0473-0.1419 (  3234 PWs)   bands (ev):

     9.1598   9.1717  10.1937  10.1972  11.0660  11.0671  11.1969  11.2201
    11.5011  11.5108  11.6136  11.6348  12.1110  12.1191  12.3187  12.3238
    13.0323  13.0412  13.2530  13.2623  13.9348  13.9382  16.8165  16.8350
    21.3768  21.3915  25.1922  25.2029  28.9392  28.9468  32.5178  32.5228
    32.7132  32.7200  36.3138  36.3902  39.5532  39.5705  39.8411  39.8540
    44.5550  44.5615  45.0252  45.0607  47.0321  47.0505  49.8439  49.8741
    51.1000  51.1182  53.1370  53.1656

          k = 0.0946-0.0946 0.0946 (  3253 PWs)   bands (ev):

     8.6326   9.8164   9.8170   9.8170  11.2523  11.2529  11.2529  11.7523
    11.8036  11.8036  11.8136  11.8225  11.8225  12.0908  12.0908  12.0913
    13.1392  13.1392  13.4938  13.4938  13.4940  15.8439  15.8440  15.8440
    20.9742  20.9742  20.9743  24.6860  31.9916  31.9916  31.9921  34.6847
    34.6850  34.6850  36.7183  36.7184  36.7190  37.3227  39.3287  39.3287
    43.8077  43.8077  47.0932  47.4185  47.4185  47.4203  47.4657  47.4660
    47.4660  51.6982  51.6988  51.6989

          k = 0.0946-0.0946-0.1419 (  3238 PWs)   bands (ev):

     9.2558   9.2592   9.7496   9.7500  11.3681  11.3685  11.6374  11.6551
    11.8551  11.8576  11.9694  11.9741  11.9869  12.0045  12.0910  12.0916
    13.4151  13.4170  13.4239  13.4254  13.8340  13.8353  16.1347  16.1348
    19.9442  19.9443  22.5145  22.5255  32.9194  32.9196  34.0586  34.0591
    35.8358  35.8671  36.6517  36.6699  38.3528  38.4067  38.8755  38.8757
    44.0026  44.0029  44.2645  44.2909  45.3588  45.3647  47.8923  47.8924
    48.8839  48.8955  52.2396  52.2415

 ------ SPIN DOWN ----------


          k = 0.0000 0.0000 0.0000 (  3239 PWs)   bands (ev):

     5.1724   9.9641   9.9641   9.9641  10.6611  10.6619  10.6619  12.5573
    12.5573  12.5573  13.6081  13.6081  14.3422  14.3422  14.3422  14.6214
    14.6214  14.6214  14.6218  14.6218  14.6218  16.6614  16.6617  16.6617
    23.6459  23.6460  23.6460  29.0762  29.0762  29.0762  29.0765  29.0765
    29.0766  34.2630  34.2630  34.2634  37.4879  37.4880  37.4880  37.8216
    41.8474  41.8474  41.8474  45.4535  45.4535  45.4535  47.4056  54.5233
    54.5233  54.5233  57.7731  58.5857

          k = 0.0000 0.0000 0.0473 (  3227 PWs)   bands (ev):

     5.5341   9.9355  10.1547  10.1547  10.7782  10.7819  10.7824  12.4190
    12.6612  12.6612  13.4831  13.6549  13.8005  13.8010  14.1794  14.1794
    14.2916  14.4339  14.4339  14.6220  14.6220  15.2179  17.7820  17.7823
    23.7296  23.7296  25.7841  27.4164  27.4167  27.9899  27.9899  29.6441
    29.6441  34.3689  36.3417  36.3420  37.2349  37.6159  39.4104  39.4105
    39.6918  39.6918  40.2866  46.8288  47.4444  47.4444  48.4825  50.8544
    55.6059  55.6059  55.9011  55.9017

          k = 0.0000 0.0000 0.0946 (  3234 PWs)   bands (ev):

     6.5757   9.4860  10.6076  10.6076  11.1037  11.1496  11.1504  12.0505
    12.6783  12.6792  12.9634  12.9634  13.1698  13.3834  13.7773  13.7774
    13.7873  13.9716  13.9716  14.1544  14.6226  14.6226  19.7913  19.7916
    24.0129  24.0129  24.7385  24.7386  26.2866  26.2866  29.9583  31.2334
    31.2334  34.7010  36.1826  36.5222  36.5222  37.7401  38.1617  40.2830
    40.2833  43.5248  43.5248  43.6136  50.1932  50.3123  50.3123  50.3161
    50.3162  54.2233  55.5005  55.5006

          k = 0.0000 0.0000-0.1419 (  3218 PWs)   bands (ev):

     8.0944   8.1179  10.8940  10.8940  11.5479  11.5820  11.7643  11.7650
    11.7968  11.7974  12.8859  12.9346  13.4134  13.4134  13.4383  13.4383
    13.5202  13.5202  13.9602  13.9785  14.6229  14.6229  22.1145  22.1146
    22.1719  22.1721  24.3584  24.3585  25.3810  25.3811  33.5865  33.5865
    33.6265  33.6265  34.3449  34.4294  35.2862  35.3087  39.6933  39.8262
    44.9412  44.9415  45.0572  45.0575  46.9757  46.9758  51.7532  51.7532
    53.3561  53.3561  53.4613  53.4613

          k = 0.0000 0.0473 0.0473 (  3227 PWs)   bands (ev):

     5.8883  10.1429  10.1429  10.3334  10.8785  10.8892  10.8899  12.3473
    12.7104  12.7145  13.4074  13.4312  13.4471  13.4740  13.6568  14.0448
    14.1676  14.1676  14.4326  14.4327  14.5021  16.3698  16.3699  18.5966
    23.7093  24.7611  25.9618  25.9621  27.9001  27.9001  28.4865  28.4872
    30.1716  35.5715  35.5915  36.5402  36.5407  36.7902  39.5775  39.5780
    40.6299  42.0294  42.8946  44.5610  45.7384  49.1610  49.7286  52.4579
    52.9593  54.6141  54.6153  55.5498

          k = 0.0000 0.0473 0.0946 (  3245 PWs)   bands (ev):

     6.9067   9.7333  10.6505  10.7697  11.1536  11.1882  11.2274  12.0428
    12.4071  12.5734  12.7562  12.8081  12.9792  13.2922  13.7041  13.7859
    13.8546  13.9402  13.9699  14.4292  14.4400  14.8197  17.9813  20.3911
    21.8642  24.3596  25.2039  26.2176  27.0131  29.2224  29.4739  29.5331
    30.5829  33.2769  33.9729  37.1641  38.0909  39.7807  39.9550  40.2032
    40.5321  43.4453  44.4844  46.4263  47.0807  47.9001  49.2033  50.5974
    52.2102  52.5055  54.2673  55.7837

          k = 0.0000 0.0473-0.1419 (  3240 PWs)   bands (ev):

     8.3857   8.4080  11.0319  11.0348  11.5832  11.6135  11.6139  11.6414
    11.7820  11.8137  12.6190  12.6569  13.4165  13.4410  13.4961  13.5023
    13.5104  13.5132  14.1894  14.1905  14.4259  14.4314  19.7554  19.7846
    22.6209  22.6720  25.0944  25.1345  27.9208  27.9347  31.0898  31.1058
    31.5596  31.5707  35.2630  35.3583  38.2677  38.2735  41.6275  41.7100
    42.4780  42.5100  45.2154  45.3251  49.3645  49.4602  49.6091  49.6548
    51.8386  51.8749  52.6417  52.6712

          k = 0.0000 0.0946 0.0946 (  3227 PWs)   bands (ev):

     7.8474  10.3633  10.3634  11.1215  11.2036  11.4361  11.4376  11.9474
    12.0874  12.0874  12.2569  12.6475  13.1194  13.1911  13.4829  13.6167
    13.6173  13.9733  13.9736  14.1592  14.2323  15.9385  15.9386  19.2168
    21.9115  24.8804  26.4740  26.4741  27.5159  27.5166  30.6084  31.1966
    31.2036  31.2955  33.1171  36.3171  40.8947  41.2735  41.2738  42.4749
    42.7305  43.1628  43.1628  46.5741  46.6815  47.8242  47.8252  51.0024
    51.4070  51.4552  52.6576  54.5584

          k = 0.0000 0.0946-0.1419 (  3252 PWs)   bands (ev):

     9.1790   9.1981  10.9648  10.9847  11.5983  11.6000  11.6983  11.7284
    11.8104  11.8404  12.3248  12.3487  13.2810  13.2817  13.3502  13.3536
    13.4667  13.4924  14.0073  14.0231  14.8399  14.8447  17.2966  17.3186
    23.9772  24.0151  25.8831  25.9159  28.3186  28.3357  29.1272  29.1318
    32.4821  32.4914  36.2131  36.3059  39.7687  39.7858  42.3995  42.4165
    42.6003  42.6081  46.0091  46.0982  47.2628  47.3179  49.6814  49.7310
    51.0806  51.1606  52.7878  52.8082

          k = 0.0000-0.1419-0.1419 (  3216 PWs)   bands (ev):

    10.1782  10.1952  10.1952  10.2117  11.7745  11.8038  11.8038  11.8325
    12.0328  12.0418  12.0419  12.0508  13.1392  13.1420  13.1420  13.1455
    13.6328  13.6566  13.6566  13.6802  15.7596  15.7687  15.7687  15.7776
    25.9112  25.9368  25.9368  25.9619  27.1967  27.2164  27.2165  27.2372
    37.3453  37.3700  37.3700  37.3968  37.8870  37.9186  37.9186  37.9449
    46.4528  46.4528  46.4528  46.4559  48.4575  48.5074  48.5074  48.5571
    51.1282  51.1342  51.1343  51.1394

          k = 0.0473 0.0473 0.0473 (  3224 PWs)   bands (ev):

     6.2330  10.3275  10.3276  10.3276  10.9773  10.9783  10.9783  12.2937
    12.7344  12.7344  13.1131  13.1131  13.1131  13.5711  13.5711  13.8567
    13.8572  13.8572  14.5016  14.5016  14.5020  17.0123  17.0125  17.0125
    25.0097  25.0100  25.0100  26.2776  26.2776  26.2780  30.6895  30.6900
    30.6900  33.0254  35.6954  35.6954  35.6958  38.5973  40.5714  40.5714
    42.2327  42.2327  42.2327  45.8875  46.9651  46.9651  50.9882  50.9882
    54.4762  54.4774  54.4774  54.8089

          k = 0.0473 0.0473 0.0946 (  3245 PWs)   bands (ev):

     7.2199   9.9300  10.7788  10.7790  11.2118  11.2127  11.2686  12.0525
    12.4088  12.4088  12.5683  12.7672  12.8538  13.4788  13.5097  13.5735
    13.5766  13.8409  14.3919  14.4215  14.4221  15.0977  18.3219  18.3221
    22.4838  22.4839  26.2937  26.9094  26.9095  29.9239  29.9243  30.3516
    30.5301  32.1724  36.1512  37.1765  37.3360  38.2426  38.2426  41.7553
    42.9150  43.8417  46.3777  46.3778  47.2241  48.3808  49.5102  49.5105
    50.0035  52.2721  52.3401  54.9237

          k = 0.0473 0.0473-0.1419 (  3232 PWs)   bands (ev):

     8.6411   8.6617  11.2000  11.2001  11.2599  11.2611  11.6543  11.6856
    12.0369  12.0373  12.5354  12.5713  13.1059  13.1149  13.3871  13.3875
    13.9766  14.0009  14.1465  14.1491  14.3754  14.3756  19.3955  19.3957
    21.0198  21.0199  27.8505  27.8546  28.0901  28.1054  28.5217  28.5291
    34.4350  34.4683  34.8511  34.9183  37.5396  37.6081  41.5878  41.5879
    44.1366  44.1748  44.7214  44.7218  48.7283  48.7789  50.1712  50.1891
    51.4709  51.4711  53.1386  53.1559

          k = 0.0473 0.0946 0.0946 (  3231 PWs)   bands (ev):

     8.0988  10.3743  10.3746  10.8870  11.3753  11.5122  11.5130  12.0278
    12.2276  12.2280  12.3499  12.6585  12.8037  13.2441  13.2457  13.2496
    13.6012  14.1470  14.2905  14.2925  14.3114  16.0182  16.0184  18.5277
    20.7171  23.6705  23.6705  27.6045  27.7075  30.7058  30.7060  31.6711
    31.6716  33.5271  34.7350  36.3799  38.7591  38.7594  39.5300  42.4756
    43.1073  44.1185  45.8022  45.8022  48.5382  48.5387  49.6797  49.8930
    50.2031  50.9320  51.6472  52.1687

          k = 0.0473 0.0946-0.1419 (  3234 PWs)   bands (ev):

     9.3061   9.3216  10.7330  10.7399  11.6293  11.6326  11.8506  11.8772
    12.2029  12.2151  12.3822  12.4060  12.9264  12.9325  13.1041  13.1084
    13.9054  13.9185  14.1979  14.2085  14.7363  14.7410  17.2296  17.2472
    21.6769  21.6901  25.3914  25.4006  29.0377  29.0475  32.5754  32.5780
    32.7801  32.7890  36.3263  36.4019  39.5365  39.5524  39.8614  39.8755
    44.5410  44.5466  45.0147  45.0522  47.0099  47.0310  49.8785  49.9087
    51.0379  51.0554  53.2147  53.2470

          k = 0.0473-0.1419-0.1419 (  3228 PWs)   bands (ev):

    10.0816  10.0915  10.0915  10.1006  12.0137  12.0269  12.0269  12.0397
    12.2282  12.2438  12.2438  12.2594  12.8685  12.8753  12.8753  12.8824
    13.9246  13.9408  13.9408  13.9573  15.6381  15.6480  15.6480  15.6576
    23.2504  23.2602  23.2602  23.2699  30.5459  30.5502  30.5502  30.5551
    37.6241  37.6400  37.6400  37.6694  37.7273  37.7606  37.7607  37.7779
    45.9588  45.9589  45.9606  45.9627  46.0843  46.1142  46.1142  46.1392
    54.0621  54.0809  54.0810  54.1081

          k = 0.0946 0.0946 0.0946 (  3253 PWs)   bands (ev):

     8.7637  10.3314  10.3321  10.3321  11.8212  11.8217  11.8217  12.2852
    12.4990  12.4990  12.5009  12.6266  12.6266  12.8921  12.8921  12.8926
    14.0302  14.0302  14.4313  14.4313  14.4317  16.2723  16.2726  16.2726
    21.3124  21.3124  21.3125  24.9099  32.0378  32.0378  32.0382  34.7453
    34.7457  34.7457  36.7288  36.7288  36.7293  37.1476  39.4146  39.4146
    43.8161  43.8161  47.1067  47.3639  47.3639  47.3659  47.4663  47.4667
    47.4667  51.7275  51.7281  51.7281

          k = 0.0946 0.0946-0.1419 (  3238 PWs)   bands (ev):

     9.5870   9.5946  10.2937  10.2942  12.0103  12.0108  12.3064  12.3239
    12.5449  12.5670  12.6572  12.6591  12.6999  12.7000  12.7630  12.7631
    14.3339  14.3367  14.3620  14.3631  14.5558  14.5596  16.4644  16.4646
    20.3832  20.3833  22.8035  22.8131  32.9262  32.9263  34.1443  34.1449
    35.7237  35.7570  36.7241  36.7411  38.4330  38.4865  38.8477  38.8479
    44.0279  44.0283  44.2385  44.2652  45.3657  45.3730  47.8497  47.8498
    48.9357  48.9470  52.3403  52.3422

          k = 0.0946-0.1419-0.1419 (  3224 PWs)   bands (ev):

     9.9068   9.9094   9.9094   9.9112  12.3453  12.3499  12.3499  12.3542
    12.5722  12.5767  12.5767  12.5817  12.9686  12.9804  12.9804  12.9922
    14.2658  14.2745  14.2745  14.2834  15.1611  15.1720  15.1720  15.1824
    21.0409  21.0487  21.0487  21.0565  34.6157  34.6213  34.6213  34.6272
    37.6230  37.6355  37.6355  37.6491  38.3880  38.4030  38.4031  38.4154
    43.4678  43.4809  43.4809  43.4935  44.5062  44.5096  44.5097  44.5127
    49.7731  49.7781  49.7781  49.7845

          k =-0.1419-0.1419-0.1419 (  3184 PWs)   bands (ev):

     9.8275   9.8283   9.8283   9.8283  12.4647  12.4647  12.4647  12.4651
    12.4651  12.4654  12.4655  12.4655  13.9018  13.9018  13.9018  13.9028
    14.4037  14.4037  14.4041  14.4041  14.4041  14.4045  14.4045  14.4045
    20.2587  20.2587  20.2587  20.2588  36.3075  36.3077  36.3077  36.3078
    39.0297  39.0297  39.0297  39.0298  39.0298  39.0307  39.0307  39.0308
    42.2041  42.2041  42.2043  42.2043  42.2043  42.2048  42.2048  42.2048
    48.1556  48.1556  48.1556  48.1560

          k =-0.0473 0.0000 0.0473 (  3227 PWs)   bands (ev):

     5.8883  10.1429  10.1429  10.3334  10.8785  10.8892  10.8899  12.3473
    12.7104  12.7145  13.4074  13.4312  13.4471  13.4740  13.6568  14.0448
    14.1676  14.1676  14.4326  14.4327  14.5021  16.3698  16.3699  18.5966
    23.7093  24.7611  25.9617  25.9621  27.9001  27.9002  28.4864  28.4872
    30.1716  35.5715  35.5915  36.5402  36.5406  36.7902  39.5774  39.5781
    40.6299  42.0294  42.8946  44.5610  45.7384  49.1610  49.7286  52.4579
    52.9593  54.6141  54.6152  55.5498

          k =-0.0473 0.0000 0.0946 (  3245 PWs)   bands (ev):

     6.9067   9.7333  10.6505  10.7697  11.1536  11.1882  11.2274  12.0428
    12.4071  12.5734  12.7562  12.8081  12.9792  13.2922  13.7041  13.7859
    13.8546  13.9402  13.9699  14.4292  14.4400  14.8197  17.9813  20.3911
    21.8642  24.3596  25.2039  26.2176  27.0131  29.2224  29.4739  29.5331
    30.5829  33.2769  33.9729  37.1641  38.0909  39.7807  39.9550  40.2032
    40.5321  43.4453  44.4844  46.4263  47.0807  47.9001  49.2033  50.5974
    52.2102  52.5055  54.2673  55.7837

          k =-0.0946 0.0000 0.0946 (  3227 PWs)   bands (ev):

     7.8474  10.3633  10.3634  11.1215  11.2036  11.4360  11.4376  11.9474
    12.0874  12.0875  12.2569  12.6475  13.1194  13.1911  13.4829  13.6167
    13.6173  13.9733  13.9736  14.1592  14.2323  15.9385  15.9386  19.2168
    21.9115  24.8804  26.4739  26.4741  27.5159  27.5166  30.6084  31.1966
    31.2036  31.2955  33.1171  36.3171  40.8947  41.2735  41.2738  42.4749
    42.7305  43.1628  43.1629  46.5741  46.6815  47.8242  47.8251  51.0024
    51.4070  51.4552  52.6576  54.5540

          k = 0.0473-0.0473 0.0473 (  3224 PWs)   bands (ev):

     6.2330  10.3275  10.3276  10.3276  10.9773  10.9783  10.9783  12.2937
    12.7344  12.7344  13.1131  13.1131  13.1131  13.5711  13.5711  13.8567
    13.8572  13.8572  14.5016  14.5016  14.5020  17.0123  17.0125  17.0125
    25.0097  25.0100  25.0100  26.2776  26.2776  26.2780  30.6895  30.6899
    30.6900  33.0254  35.6954  35.6954  35.6958  38.5973  40.5714  40.5714
    42.2326  42.2327  42.2328  45.8875  46.9651  46.9651  50.9882  50.9882
    54.4763  54.4773  54.4774  54.8088

          k = 0.0473-0.0473 0.0946 (  3245 PWs)   bands (ev):

     7.2199   9.9300  10.7788  10.7790  11.2118  11.2127  11.2686  12.0525
    12.4088  12.4088  12.5683  12.7672  12.8538  13.4788  13.5097  13.5735
    13.5766  13.8409  14.3919  14.4215  14.4221  15.0977  18.3219  18.3220
    22.4838  22.4839  26.2937  26.9094  26.9095  29.9240  29.9243  30.3516
    30.5301  32.1724  36.1512  37.1765  37.3360  38.2426  38.2426  41.7553
    42.9150  43.8417  46.3777  46.3778  47.2241  48.3808  49.5102  49.5105
    50.0035  52.2721  52.3401  54.9239

          k =-0.0946 0.0473 0.0473 (  3245 PWs)   bands (ev):

     7.2199   9.9300  10.7788  10.7790  11.2118  11.2127  11.2686  12.0525
    12.4088  12.4088  12.5683  12.7672  12.8538  13.4788  13.5097  13.5735
    13.5766  13.8409  14.3919  14.4215  14.4221  15.0977  18.3219  18.3221
    22.4838  22.4839  26.2937  26.9094  26.9095  29.9239  29.9243  30.3516
    30.5301  32.1724  36.1512  37.1765  37.3360  38.2426  38.2426  41.7553
    42.9150  43.8417  46.3777  46.3778  47.2241  48.3808  49.5102  49.5105
    50.0035  52.2721  52.3401  54.9239

          k = 0.0473-0.0473-0.1419 (  3232 PWs)   bands (ev):

     8.6411   8.6617  11.2000  11.2001  11.2599  11.2611  11.6543  11.6856
    12.0369  12.0373  12.5354  12.5713  13.1059  13.1149  13.3871  13.3876
    13.9766  14.0009  14.1465  14.1491  14.3754  14.3756  19.3956  19.3957
    21.0199  21.0199  27.8505  27.8546  28.0901  28.1054  28.5217  28.5291
    34.4350  34.4683  34.8511  34.9183  37.5396  37.6081  41.5878  41.5879
    44.1366  44.1748  44.7214  44.7218  48.7283  48.7789  50.1712  50.1891
    51.4708  51.4712  53.1386  53.1559

          k = 0.0946-0.0473 0.0946 (  3231 PWs)   bands (ev):

     8.0988  10.3743  10.3746  10.8870  11.3753  11.5122  11.5130  12.0278
    12.2276  12.2280  12.3499  12.6585  12.8037  13.2441  13.2457  13.2496
    13.6012  14.1470  14.2905  14.2925  14.3114  16.0182  16.0184  18.5277
    20.7171  23.6705  23.6705  27.6045  27.7075  30.7058  30.7060  31.6711
    31.6716  33.5271  34.7350  36.3799  38.7591  38.7594  39.5300  42.4756
    43.1073  44.1185  45.8022  45.8022  48.5382  48.5387  49.6797  49.8930
    50.2031  50.9320  51.6472  52.1684

          k =-0.0946 0.0473 0.0946 (  3231 PWs)   bands (ev):

     8.0988  10.3743  10.3746  10.8870  11.3753  11.5122  11.5130  12.0278
    12.2276  12.2280  12.3499  12.6585  12.8037  13.2441  13.2457  13.2496
    13.6012  14.1470  14.2905  14.2925  14.3114  16.0182  16.0184  18.5277
    20.7171  23.6704  23.6705  27.6045  27.7075  30.7058  30.7060  31.6711
    31.6716  33.5271  34.7350  36.3799  38.7591  38.7594  39.5300  42.4756
    43.1073  44.1185  45.8022  45.8022  48.5382  48.5387  49.6797  49.8930
    50.2031  50.9320  51.6472  52.1684

          k = 0.0946-0.0473-0.1419 (  3234 PWs)   bands (ev):

     9.3061   9.3216  10.7329  10.7399  11.6293  11.6326  11.8506  11.8772
    12.2029  12.2151  12.3822  12.4060  12.9264  12.9325  13.1041  13.1084
    13.9054  13.9185  14.1979  14.2085  14.7363  14.7410  17.2296  17.2472
    21.6769  21.6901  25.3914  25.4006  29.0377  29.0475  32.5754  32.5780
    32.7801  32.7890  36.3263  36.4019  39.5365  39.5524  39.8614  39.8755
    44.5410  44.5466  45.0147  45.0522  47.0099  47.0310  49.8785  49.9087
    51.0379  51.0554  53.2147  53.2471

          k = 0.0946-0.0946 0.0946 (  3253 PWs)   bands (ev):

     8.7637  10.3314  10.3321  10.3321  11.8212  11.8217  11.8217  12.2852
    12.4990  12.4990  12.5009  12.6266  12.6266  12.8920  12.8921  12.8926
    14.0302  14.0302  14.4313  14.4313  14.4317  16.2723  16.2726  16.2726
    21.3124  21.3125  21.3125  24.9099  32.0378  32.0378  32.0383  34.7453
    34.7457  34.7457  36.7287  36.7288  36.7294  37.1476  39.4146  39.4146
    43.8161  43.8161  47.1067  47.3639  47.3639  47.3659  47.4663  47.4666
    47.4667  51.7275  51.7281  51.7281

          k = 0.0946-0.0946-0.1419 (  3238 PWs)   bands (ev):

     9.5870   9.5946  10.2937  10.2942  12.0104  12.0107  12.3064  12.3239
    12.5449  12.5670  12.6572  12.6591  12.6999  12.7000  12.7630  12.7631
    14.3339  14.3367  14.3620  14.3631  14.5558  14.5596  16.4645  16.4646
    20.3832  20.3832  22.8035  22.8131  32.9262  32.9264  34.1443  34.1449
    35.7237  35.7570  36.7241  36.7411  38.4330  38.4865  38.8477  38.8479
    44.0280  44.0283  44.2385  44.2652  45.3657  45.3730  47.8497  47.8498
    48.9357  48.9470  52.3403  52.3422

     the Fermi energy is    14.1792 ev

!    total energy              =    -343.62964797 Ry
     Harris-Foulkes estimate   =    -343.62964797 Ry
     estimated scf accuracy    <          3.3E-09 Ry

     The total energy is the sum of the following terms:

     one-electron contribution =      -8.70019996 Ry
     hartree contribution      =      61.07877990 Ry
     xc contribution           =    -120.47477965 Ry
     ewald contribution        =    -275.48620515 Ry
     Dispersion Correction     =      -0.04675218 Ry
     smearing contrib. (-TS)   =      -0.00049094 Ry

     total magnetization       =     2.87 Bohr mag/cell
     absolute magnetization    =     3.30 Bohr mag/cell

     convergence has been achieved in  15 iterations

     Forces acting on atoms (Ry/au):

     atom    1 type  1   force =    -0.00230627   -0.00230627    0.00230606
     atom    2 type  1   force =     0.00230648    0.00230648    0.00230648
     atom    3 type  1   force =    -0.00230627    0.00230606   -0.00230627
     atom    4 type  1   force =     0.00230606   -0.00230627   -0.00230627

     Total force =     0.007989     Total SCF correction =     0.000007


     entering subroutine stress ...

          total   stress  (Ry/bohr**3)                   (kbar)     P=  -31.89
  -0.00021677  -0.00000000  -0.00000000        -31.89     -0.00     -0.00
  -0.00000000  -0.00021677  -0.00000000         -0.00    -31.89     -0.00
  -0.00000000  -0.00000000  -0.00021677         -0.00     -0.00    -31.89


     BFGS Geometry Optimization

     number of scf cycles    =   1
     number of bfgs steps    =   0

     enthalpy new            =    -343.6296479705 Ry

     new trust radius        =       0.0186155700 bohr
     new conv_thr            =       0.0000000100 Ry

     new unit-cell volume =    290.23090 a.u.^3 (    43.00778 Ang^3 )

CELL_PARAMETERS (alat=  1.88972590)
   3.503609808  -0.000000000  -0.000000000
  -0.000000000   3.503609808  -0.000000000
  -0.000000000  -0.000000000   3.503609808

ATOMIC_POSITIONS (alat)
Ni1      1.758368659   1.758368659   0.001213703
Ni1      0.001213924   0.001213924   0.001213924
Ni1      1.758368659   0.001213703   1.758368659
Ni1      0.001213703   1.758368659   1.758368659



     Writing output data file Ni-ferromag.save
     NEW-OLD atomic charge density approx. for the potential

     Check: negative/imaginary core charge=   -0.000005    0.000000
     extrapolated charge   39.34261, renormalised to   40.00000

     total cpu time spent up to now is      877.0 secs

     Self-consistent Calculation

     iteration #  1     ecut=    75.00 Ry     beta=0.20
     Davidson diagonalization with overlap
     c_bands:  1 eigenvalues not converged
     c_bands:  1 eigenvalues not converged
     c_bands:  2 eigenvalues not converged
     c_bands:  3 eigenvalues not converged
     c_bands:  2 eigenvalues not converged
     ethr =  1.00E-06,  avg # of iterations =  7.1

     total cpu time spent up to now is      997.6 secs

     total energy              =    -343.54426792 Ry
     Harris-Foulkes estimate   =    -344.35490039 Ry
     estimated scf accuracy    <       0.14098827 Ry

     total magnetization       =     2.55 Bohr mag/cell
     absolute magnetization    =     2.98 Bohr mag/cell

     iteration #  2     ecut=    75.00 Ry     beta=0.20
     Davidson diagonalization with overlap
     ethr =  3.52E-04,  avg # of iterations =  3.3

     total cpu time spent up to now is     1051.3 secs

     total energy              =    -343.63312275 Ry
     Harris-Foulkes estimate   =    -343.64349192 Ry
     estimated scf accuracy    <       0.05320777 Ry

     total magnetization       =     2.94 Bohr mag/cell
     absolute magnetization    =     3.35 Bohr mag/cell

     iteration #  3     ecut=    75.00 Ry     beta=0.20
     Davidson diagonalization with overlap
     ethr =  1.33E-04,  avg # of iterations =  1.2

     total cpu time spent up to now is     1100.2 secs

     total energy              =    -343.62644647 Ry
     Harris-Foulkes estimate   =    -343.63482194 Ry
     estimated scf accuracy    <       0.01840559 Ry

     total magnetization       =     2.90 Bohr mag/cell
     absolute magnetization    =     3.32 Bohr mag/cell

     iteration #  4     ecut=    75.00 Ry     beta=0.20
     Davidson diagonalization with overlap
     ethr =  4.60E-05,  avg # of iterations =  2.9

     total cpu time spent up to now is     1151.9 secs

     total energy              =    -343.63052954 Ry
     Harris-Foulkes estimate   =    -343.63026811 Ry
     estimated scf accuracy    <       0.00015327 Ry

     total magnetization       =     2.84 Bohr mag/cell
     absolute magnetization    =     3.26 Bohr mag/cell

     iteration #  5     ecut=    75.00 Ry     beta=0.20
     Davidson diagonalization with overlap
     ethr =  3.83E-07,  avg # of iterations =  4.0

     total cpu time spent up to now is     1216.5 secs

     total energy              =    -343.63069353 Ry
     Harris-Foulkes estimate   =    -343.63071218 Ry
     estimated scf accuracy    <       0.00192828 Ry

     total magnetization       =     2.82 Bohr mag/cell
     absolute magnetization    =     3.25 Bohr mag/cell

     iteration #  6     ecut=    75.00 Ry     beta=0.20
     Davidson diagonalization with overlap
     ethr =  3.83E-07,  avg # of iterations =  1.0

     total cpu time spent up to now is     1265.2 secs

     total energy              =    -343.63020830 Ry
     Harris-Foulkes estimate   =    -343.63069380 Ry
     estimated scf accuracy    <       0.00185110 Ry

     total magnetization       =     2.82 Bohr mag/cell
     absolute magnetization    =     3.24 Bohr mag/cell

     iteration #  7     ecut=    75.00 Ry     beta=0.20
     Davidson diagonalization with overlap
     ethr =  3.83E-07,  avg # of iterations =  2.1

     total cpu time spent up to now is     1316.4 secs

     total energy              =    -343.63028281 Ry
     Harris-Foulkes estimate   =    -343.63031779 Ry
     estimated scf accuracy    <       0.00032315 Ry

     total magnetization       =     2.83 Bohr mag/cell
     absolute magnetization    =     3.25 Bohr mag/cell

     iteration #  8     ecut=    75.00 Ry     beta=0.20
     Davidson diagonalization with overlap
     ethr =  3.83E-07,  avg # of iterations =  1.0

     total cpu time spent up to now is     1365.1 secs

     total energy              =    -343.63025815 Ry
     Harris-Foulkes estimate   =    -343.63028598 Ry
     estimated scf accuracy    <       0.00019248 Ry

     total magnetization       =     2.83 Bohr mag/cell
     absolute magnetization    =     3.25 Bohr mag/cell

     iteration #  9     ecut=    75.00 Ry     beta=0.20
     Davidson diagonalization with overlap
     ethr =  3.83E-07,  avg # of iterations =  1.0

     total cpu time spent up to now is     1413.7 secs

     total energy              =    -343.63024758 Ry
     Harris-Foulkes estimate   =    -343.63026145 Ry
     estimated scf accuracy    <       0.00009147 Ry

     total magnetization       =     2.83 Bohr mag/cell
     absolute magnetization    =     3.25 Bohr mag/cell

     iteration # 10     ecut=    75.00 Ry     beta=0.20
     Davidson diagonalization with overlap
     ethr =  2.29E-07,  avg # of iterations =  1.0

     total cpu time spent up to now is     1462.4 secs

     total energy              =    -343.63023190 Ry
     Harris-Foulkes estimate   =    -343.63024929 Ry
     estimated scf accuracy    <       0.00004174 Ry

     total magnetization       =     2.84 Bohr mag/cell
     absolute magnetization    =     3.25 Bohr mag/cell

     iteration # 11     ecut=    75.00 Ry     beta=0.20
     Davidson diagonalization with overlap
     ethr =  1.04E-07,  avg # of iterations =  1.0

     Magnetic moment per site:
     atom:    1    charge:    3.0067    magn:    0.3352    constr:    0.0000
     atom:    2    charge:    3.0049    magn:    0.3350    constr:    0.0000
     atom:    3    charge:    3.0067    magn:    0.3352    constr:    0.0000
     atom:    4    charge:    3.0067    magn:    0.3352    constr:    0.0000

     total cpu time spent up to now is     1511.0 secs

     End of self-consistent calculation

 ------ SPIN UP ------------


          k = 0.0000 0.0000 0.0000 (  3239 PWs)   bands (ev):

     5.4254   9.7084   9.7084   9.7084  10.1609  10.1612  10.1612  11.9389
    11.9389  11.9389  13.1168  13.1168  13.8343  13.8343  13.8343  13.9240
    13.9240  13.9240  13.9241  13.9241  13.9241  17.0633  17.0634  17.0634
    23.7972  23.7972  23.7972  29.5556  29.5557  29.5557  29.5558  29.5558
    29.5558  34.6305  34.6305  34.6307  37.9732  37.9733  37.9734  38.4840
    42.4567  42.4567  42.4567  46.0505  46.0505  46.0505  48.1578  55.1464
    55.1464  55.1464  57.5996  59.0222

          k = 0.0000 0.0000 0.0476 (  3227 PWs)   bands (ev):

     5.7915   9.7305   9.8925   9.8925  10.2715  10.2873  10.2875  11.8103
    12.0412  12.0412  12.9987  13.1632  13.2710  13.2711  13.6807  13.6807
    13.7485  13.7485  13.7849  13.9244  13.9244  15.4625  18.0212  18.0213
    23.8932  23.8932  26.0463  27.8039  27.8040  28.4318  28.4318  30.1158
    30.1158  34.7468  36.8032  36.8034  37.8475  38.1052  39.9293  39.9294
    40.2354  40.2354  40.9022  47.4710  48.1092  48.1092  49.1296  51.5395
    56.2409  56.2409  56.6555  56.6557

          k = 0.0000 0.0000 0.0951 (  3234 PWs)   bands (ev):

     6.8405   9.5011  10.3292  10.3292  10.5789  10.6700  10.6704  11.4667
    12.2153  12.2157  12.3375  12.3375  12.7115  13.2921  13.2971  13.2971
    13.2990  13.3156  13.3156  13.6508  13.9249  13.9249  19.9827  19.9827
    24.2108  24.2108  25.0310  25.0310  26.6634  26.6634  30.3457  31.6943
    31.6943  35.1103  36.7137  37.0140  37.0140  38.3352  38.6572  40.8469
    40.8470  44.0939  44.0940  44.1251  50.9070  51.0308  51.0308  51.0333
    51.0333  55.0170  55.9211  55.9212

          k =-0.0000-0.0000-0.1427 (  3218 PWs)   bands (ev):

     8.3318   8.3471  10.6051  10.6051  11.0021  11.0245  11.3055  11.3057
    11.3278  11.3279  12.5191  12.5505  12.7806  12.7806  12.7974  12.7974
    13.0553  13.0553  13.4639  13.4762  13.9252  13.9252  22.3480  22.3480
    22.3869  22.3869  24.5846  24.5847  25.7174  25.7174  34.0575  34.0575
    34.0848  34.0848  34.8667  34.9241  35.7517  35.7652  40.2040  40.2959
    45.6075  45.6077  45.6874  45.6876  47.5990  47.5990  52.2706  52.2707
    54.1219  54.1219  54.1957  54.1957

          k = 0.0000 0.0476 0.0476 (  3227 PWs)   bands (ev):

     6.1490   9.9287   9.9287  10.0555  10.3887  10.3889  10.4027  11.7505
    12.0862  12.1032  12.9248  12.9663  12.9832  12.9913  13.1590  13.5525
    13.6767  13.6768  13.7470  13.7471  13.8086  16.3938  16.3938  18.7906
    23.8879  25.0865  26.2338  26.2339  28.2810  28.2810  28.9241  28.9244
    30.6432  36.0193  36.1051  37.0117  37.0119  37.3176  40.0982  40.0984
    41.2566  42.5859  43.5154  45.2155  46.3439  49.7667  50.4379  53.0712
    53.6513  55.3316  55.3321  56.2858

          k = 0.0000 0.0476 0.0951 (  3245 PWs)   bands (ev):

     7.1702   9.7371  10.4105  10.4589  10.6702  10.7236  10.7426  11.4698
    11.9772  12.1163  12.2320  12.3492  12.3752  12.8079  13.2290  13.3018
    13.3188  13.3385  13.4903  13.7432  13.7503  14.4273  18.0072  20.5725
    22.0699  24.5955  25.4921  26.5213  27.3872  29.5944  29.8857  29.9460
    31.0013  33.7097  34.4527  37.6642  38.6163  40.3752  40.5538  40.7302
    41.1027  44.0217  45.0124  47.0390  47.7688  48.5696  49.8756  51.3179
    52.9221  53.2435  54.7968  56.1846

          k =-0.0000 0.0476-0.1427 (  3240 PWs)   bands (ev):

     8.6136   8.6280  10.7571  10.7580  11.0537  11.0754  11.1758  11.1940
    11.3204  11.3420  12.1499  12.1730  12.7812  12.7984  13.0151  13.0227
    13.0400  13.0410  13.6535  13.6536  13.7397  13.7431  19.8653  19.8850
    22.8489  22.8839  25.3862  25.4128  28.2916  28.3004  31.4776  31.4892
    32.0030  32.0111  35.7813  35.8473  38.8108  38.8159  42.1660  42.2226
    43.0878  43.1088  45.8858  45.9613  50.0285  50.0959  50.3218  50.3536
    52.5823  52.6075  53.1739  53.1942

          k = 0.0000 0.0951 0.0951 (  3227 PWs)   bands (ev):

     8.0965  10.3243  10.3244  10.6898  10.9377  10.9383  10.9523  11.4002
    11.6468  11.6469  11.8012  12.1198  12.4797  12.7216  13.0133  13.1675
    13.1677  13.3083  13.3085  13.4782  13.6932  15.6726  15.6726  19.2899
    22.0984  25.1462  26.7639  26.7639  27.8839  27.8841  30.9714  31.6234
    31.6267  31.7262  33.5900  36.8232  41.5128  41.8645  41.8646  43.0582
    43.3980  43.7546  43.7547  47.1697  47.3112  48.4562  48.4566  51.6547
    52.1599  52.1732  53.1808  55.3318

          k =-0.0000 0.0951-0.1427 (  3252 PWs)   bands (ev):

     9.3573   9.3690  10.7878  10.8017  11.1792  11.1927  11.2037  11.2089
    11.3399  11.3601  11.8483  11.8635  12.8174  12.8264  12.8274  12.8345
    12.8943  12.8969  13.3380  13.3483  14.3529  14.3556  17.1958  17.2112
    24.2084  24.2349  26.2031  26.2248  28.6335  28.6461  29.5235  29.5262
    32.9324  32.9381  36.7440  36.8084  40.3430  40.3557  43.0281  43.0406
    43.1974  43.2033  46.6932  46.7546  47.8866  47.9238  50.3925  50.4268
    51.7140  51.7691  53.5381  53.5526

          k =-0.0000-0.1427-0.1427 (  3216 PWs)   bands (ev):

    10.2059  10.2160  10.2160  10.2260  11.2923  11.3115  11.3116  11.3306
    11.6154  11.6210  11.6210  11.6264  12.6788  12.6807  12.6807  12.6828
    12.9793  12.9952  12.9952  13.0110  15.4168  15.4241  15.4241  15.4314
    26.1765  26.1949  26.1949  26.2130  27.5534  27.5664  27.5664  27.5798
    37.8591  37.8767  37.8767  37.8951  38.4644  38.4867  38.4867  38.5066
    47.1625  47.1625  47.1629  47.1635  49.1377  49.1724  49.1724  49.2070
    51.7947  51.7977  51.7977  51.8004

          k = 0.0476 0.0476 0.0476 (  3224 PWs)   bands (ev):

     6.4946  10.0895  10.0895  10.0895  10.5030  10.5034  10.5034  11.7156
    12.1227  12.1227  12.6794  12.6794  12.6795  13.0721  13.0721  13.3192
    13.3194  13.3194  13.8625  13.8625  13.8626  17.0206  17.0206  17.0206
    25.3137  25.3138  25.3138  26.5786  26.5786  26.5788  31.1581  31.1583
    31.1583  33.4684  36.1509  36.1509  36.1510  39.2400  41.1213  41.1213
    42.7932  42.7933  42.7933  46.5766  47.6311  47.6311  51.6203  51.6203
    55.0915  55.2096  55.2101  55.2101

          k = 0.0476 0.0476 0.0951 (  3245 PWs)   bands (ev):

     7.4758   9.8957  10.4722  10.4723  10.7885  10.8169  10.8170  11.5065
    11.9674  11.9675  12.1606  12.2044  12.2624  12.9171  12.9870  13.0734
    13.0744  13.3118  13.7653  13.7653  13.7977  14.7890  18.3623  18.3623
    22.6951  22.6952  26.6066  27.2300  27.2301  30.3447  30.3448  30.7315
    30.9344  32.6372  36.6299  37.7633  37.8347  38.7751  38.7751  42.3442
    43.4853  44.4529  47.0019  47.0019  47.8635  49.0662  50.1823  50.1824
    50.6772  52.9993  53.0592  55.6332

          k = 0.0476 0.0476-0.1427 (  3232 PWs)   bands (ev):

     8.8414   8.8542  10.8585  10.8591  10.9173  10.9174  11.1503  11.1706
    11.5740  11.5741  12.0544  12.0771  12.5313  12.5390  12.9058  12.9060
    13.4731  13.4891  13.5858  13.5892  13.7095  13.7095  19.5110  19.5110
    21.1340  21.1340  28.1929  28.1949  28.4280  28.4373  28.9132  28.9163
    34.9124  34.9352  35.3794  35.4247  38.0552  38.1026  42.1886  42.1886
    44.7252  44.7507  45.3521  45.3523  49.4455  49.4811  50.8752  50.8876
    52.1650  52.1651  53.6582  53.6628

          k = 0.0476 0.0951 0.0951 (  3231 PWs)   bands (ev):

     8.3144  10.2131  10.2132  10.4991  11.1041  11.1499  11.1501  11.5515
    11.7637  11.7639  11.8968  12.1218  12.2473  12.7249  12.7251  12.7417
    13.0446  13.5989  13.6671  13.6833  13.6843  15.8034  15.8034  18.6144
    20.7916  23.8914  23.8914  27.9255  28.0451  31.1212  31.1213  32.1060
    32.1062  34.0028  35.2274  36.8942  39.3092  39.3093  40.1405  43.0194
    43.7186  44.7682  46.4455  46.4456  49.1727  49.1729  50.3998  50.5774
    50.9058  51.5976  52.2822  52.9084

          k = 0.0476 0.0951-0.1427 (  3234 PWs)   bands (ev):

     9.3934   9.4013  10.4330  10.4354  11.3170  11.3177  11.4575  11.4739
    11.7671  11.7740  11.8842  11.8991  12.3935  12.3992  12.6053  12.6088
    13.3381  13.3445  13.5655  13.5721  14.2594  14.2619  17.1745  17.1871
    21.8024  21.8122  25.6479  25.6549  29.4196  29.4257  33.0243  33.0269
    33.2365  33.2420  36.8639  36.9166  40.1167  40.1283  40.4257  40.4351
    45.1735  45.1778  45.6546  45.6800  47.6797  47.6933  50.5425  50.5637
    51.7665  51.7788  53.8561  53.8797

          k = 0.0476-0.1427-0.1427 (  3228 PWs)   bands (ev):

     9.9632   9.9666   9.9666   9.9697  11.7026  11.7080  11.7080  11.7130
    11.7849  11.7960  11.7960  11.8073  12.3624  12.3679  12.3679  12.3734
    13.3139  13.3239  13.3239  13.3339  15.3272  15.3351  15.3352  15.3432
    23.4331  23.4407  23.4407  23.4482  30.9576  30.9599  30.9599  30.9624
    38.1417  38.1557  38.1557  38.1734  38.3112  38.3322  38.3322  38.3481
    46.6372  46.6372  46.6378  46.6404  46.7212  46.7416  46.7416  46.7586
    54.7740  54.7873  54.7873  55.0503

          k = 0.0951 0.0951 0.0951 (  3253 PWs)   bands (ev):

     8.8581  10.0481  10.0483  10.0483  11.5082  11.5085  11.5085  12.0215
    12.0785  12.0785  12.0840  12.0928  12.0928  12.3712  12.3712  12.3715
    13.4469  13.4469  13.8113  13.8113  13.8114  16.1819  16.1820  16.1820
    21.3988  21.3988  21.3988  25.1381  32.4866  32.4866  32.4868  35.2296
    35.2297  35.2297  37.2594  37.2594  37.2596  37.7801  39.9354  39.9354
    44.4282  44.4282  47.7549  48.0486  48.0486  48.0495  48.1220  48.1222
    48.1222  52.4287  52.4291  52.4291

          k = 0.0951 0.0951-0.1427 (  3238 PWs)   bands (ev):

     9.4830   9.4851   9.9796   9.9798  11.6280  11.6282  11.9082  11.9206
    12.1301  12.1318  12.2483  12.2513  12.2614  12.2739  12.3661  12.3664
    13.7310  13.7323  13.7397  13.7404  14.1506  14.1513  16.4664  16.4664
    20.3697  20.3698  22.9526  22.9599  33.4027  33.4027  34.6126  34.6129
    36.3072  36.3292  37.2253  37.2372  38.9603  38.9978  39.4255  39.4256
    44.6346  44.6348  44.8773  44.8960  45.9972  46.0022  48.5335  48.5335
    49.5833  49.5912  52.9579  52.9588

          k = 0.0951-0.1427-0.1427 (  3224 PWs)   bands (ev):

     9.6594   9.6597   9.6597   9.6597  11.8706  11.8740  11.8740  11.8771
    12.0601  12.0635  12.0635  12.0671  12.8059  12.8129  12.8130  12.8201
    13.6545  13.6600  13.6600  13.6655  14.9501  14.9591  14.9592  14.9682
    21.0770  21.0831  21.0832  21.0893  35.1391  35.1421  35.1421  35.1452
    38.1958  38.2054  38.2054  38.2155  38.9147  38.9250  38.9250  38.9341
    44.0683  44.0770  44.0770  44.0854  45.1381  45.1404  45.1404  45.1424
    50.3972  50.4007  50.4007  50.4050

          k =-0.1427-0.1427-0.1427 (  3184 PWs)   bands (ev):

     9.5435   9.5438   9.5438   9.5438  11.9519  11.9519  11.9519  11.9520
    11.9520  11.9523  11.9523  11.9523  13.7868  13.7869  13.7869  13.7874
    13.7874  13.7874  13.7874  13.7874  14.2853  14.2857  14.2857  14.2857
    20.2019  20.2019  20.2019  20.2020  36.9392  36.9394  36.9394  36.9394
    39.5608  39.5608  39.5608  39.5609  39.5609  39.5613  39.5613  39.5613
    42.7858  42.7858  42.7859  42.7859  42.7860  42.7861  42.7862  42.7862
    48.7546  48.7546  48.7546  48.7547

          k =-0.0476 0.0000 0.0476 (  3227 PWs)   bands (ev):

     6.1490   9.9287   9.9287  10.0555  10.3887  10.3889  10.4027  11.7505
    12.0862  12.1032  12.9248  12.9663  12.9832  12.9913  13.1590  13.5525
    13.6767  13.6768  13.7470  13.7471  13.8086  16.3938  16.3938  18.7906
    23.8879  25.0865  26.2338  26.2340  28.2810  28.2810  28.9241  28.9244
    30.6432  36.0193  36.1051  37.0117  37.0119  37.3176  40.0981  40.0985
    41.2566  42.5859  43.5154  45.2155  46.3439  49.7667  50.4379  53.0712
    53.6513  55.3316  55.3322  56.2858

          k =-0.0476 0.0000 0.0951 (  3245 PWs)   bands (ev):

     7.1702   9.7371  10.4105  10.4589  10.6702  10.7236  10.7426  11.4698
    11.9772  12.1163  12.2320  12.3492  12.3752  12.8079  13.2290  13.3018
    13.3188  13.3385  13.4903  13.7432  13.7503  14.4273  18.0072  20.5725
    22.0699  24.5955  25.4921  26.5213  27.3872  29.5944  29.8857  29.9460
    31.0013  33.7097  34.4527  37.6642  38.6163  40.3752  40.5538  40.7302
    41.1027  44.0217  45.0124  47.0390  47.7688  48.5696  49.8756  51.3179
    52.9221  53.2435  54.7968  56.1846

          k =-0.0951 0.0000 0.0951 (  3227 PWs)   bands (ev):

     8.0965  10.3243  10.3243  10.6898  10.9377  10.9383  10.9523  11.4002
    11.6468  11.6469  11.8012  12.1198  12.4797  12.7216  13.0133  13.1675
    13.1677  13.3083  13.3085  13.4782  13.6932  15.6726  15.6726  19.2899
    22.0984  25.1462  26.7638  26.7639  27.8839  27.8842  30.9714  31.6234
    31.6267  31.7262  33.5900  36.8232  41.5128  41.8645  41.8646  43.0582
    43.3980  43.7546  43.7547  47.1697  47.3112  48.4562  48.4566  51.6547
    52.1599  52.1732  53.1808  55.3320

          k = 0.0476-0.0476 0.0476 (  3224 PWs)   bands (ev):

     6.4946  10.0895  10.0895  10.0895  10.5030  10.5034  10.5034  11.7156
    12.1227  12.1227  12.6794  12.6794  12.6795  13.0721  13.0721  13.3192
    13.3194  13.3194  13.8625  13.8626  13.8626  17.0206  17.0206  17.0206
    25.3137  25.3138  25.3138  26.5786  26.5786  26.5788  31.1581  31.1583
    31.1583  33.4684  36.1508  36.1509  36.1511  39.2400  41.1213  41.1213
    42.7932  42.7933  42.7933  46.5766  47.6311  47.6311  51.6203  51.6203
    55.0915  55.2096  55.2101  55.2101

          k = 0.0476-0.0476 0.0951 (  3245 PWs)   bands (ev):

     7.4758   9.8957  10.4722  10.4723  10.7885  10.8169  10.8170  11.5065
    11.9674  11.9675  12.1606  12.2044  12.2624  12.9171  12.9870  13.0734
    13.0744  13.3118  13.7653  13.7653  13.7977  14.7890  18.3623  18.3623
    22.6951  22.6952  26.6066  27.2301  27.2301  30.3447  30.3448  30.7315
    30.9344  32.6372  36.6299  37.7633  37.8347  38.7751  38.7751  42.3442
    43.4853  44.4529  47.0019  47.0020  47.8635  49.0662  50.1823  50.1824
    50.6772  52.9993  53.0592  55.6332

          k =-0.0951 0.0476 0.0476 (  3245 PWs)   bands (ev):

     7.4758   9.8957  10.4722  10.4723  10.7885  10.8169  10.8170  11.5065
    11.9674  11.9675  12.1606  12.2044  12.2624  12.9171  12.9870  13.0734
    13.0744  13.3118  13.7653  13.7653  13.7977  14.7890  18.3623  18.3623
    22.6951  22.6952  26.6066  27.2300  27.2301  30.3447  30.3448  30.7315
    30.9344  32.6372  36.6299  37.7633  37.8347  38.7751  38.7751  42.3442
    43.4853  44.4529  47.0019  47.0019  47.8635  49.0662  50.1823  50.1824
    50.6772  52.9993  53.0592  55.6331

          k = 0.0476-0.0476-0.1427 (  3232 PWs)   bands (ev):

     8.8414   8.8542  10.8585  10.8591  10.9173  10.9174  11.1503  11.1706
    11.5740  11.5741  12.0544  12.0771  12.5313  12.5390  12.9058  12.9060
    13.4731  13.4891  13.5858  13.5892  13.7095  13.7095  19.5110  19.5110
    21.1340  21.1340  28.1929  28.1949  28.4280  28.4373  28.9132  28.9163
    34.9124  34.9352  35.3794  35.4247  38.0552  38.1026  42.1885  42.1886
    44.7252  44.7507  45.3521  45.3523  49.4455  49.4811  50.8752  50.8876
    52.1650  52.1651  53.6582  53.6627

          k = 0.0951-0.0476 0.0951 (  3231 PWs)   bands (ev):

     8.3144  10.2131  10.2132  10.4991  11.1041  11.1499  11.1501  11.5515
    11.7637  11.7639  11.8968  12.1218  12.2473  12.7249  12.7251  12.7417
    13.0446  13.5989  13.6671  13.6833  13.6843  15.8034  15.8034  18.6144
    20.7916  23.8914  23.8914  27.9255  28.0451  31.1212  31.1213  32.1060
    32.1062  34.0028  35.2274  36.8942  39.3092  39.3093  40.1405  43.0194
    43.7186  44.7682  46.4455  46.4456  49.1727  49.1729  50.3998  50.5774
    50.9058  51.5976  52.2822  52.9083

          k =-0.0951 0.0476 0.0951 (  3231 PWs)   bands (ev):

     8.3144  10.2131  10.2132  10.4991  11.1041  11.1499  11.1501  11.5515
    11.7637  11.7639  11.8968  12.1218  12.2473  12.7249  12.7251  12.7417
    13.0446  13.5989  13.6671  13.6833  13.6843  15.8034  15.8034  18.6144
    20.7916  23.8914  23.8914  27.9255  28.0451  31.1212  31.1213  32.1060
    32.1062  34.0028  35.2274  36.8942  39.3092  39.3094  40.1405  43.0194
    43.7186  44.7682  46.4456  46.4456  49.1727  49.1729  50.3998  50.5774
    50.9058  51.5976  52.2822  52.9081

          k = 0.0951-0.0476-0.1427 (  3234 PWs)   bands (ev):

     9.3934   9.4013  10.4330  10.4354  11.3170  11.3177  11.4575  11.4739
    11.7671  11.7740  11.8842  11.8991  12.3935  12.3992  12.6053  12.6088
    13.3381  13.3445  13.5655  13.5721  14.2594  14.2619  17.1745  17.1871
    21.8024  21.8122  25.6479  25.6549  29.4196  29.4257  33.0243  33.0269
    33.2365  33.2420  36.8639  36.9166  40.1167  40.1283  40.4257  40.4351
    45.1735  45.1778  45.6546  45.6800  47.6797  47.6933  50.5425  50.5637
    51.7665  51.7788  53.8561  53.8799

          k = 0.0951-0.0951 0.0951 (  3253 PWs)   bands (ev):

     8.8581  10.0481  10.0483  10.0483  11.5082  11.5085  11.5085  12.0215
    12.0785  12.0785  12.0840  12.0928  12.0928  12.3712  12.3712  12.3715
    13.4469  13.4469  13.8113  13.8113  13.8114  16.1819  16.1819  16.1820
    21.3988  21.3988  21.3988  25.1381  32.4866  32.4866  32.4868  35.2296
    35.2297  35.2297  37.2593  37.2594  37.2597  37.7801  39.9354  39.9354
    44.4282  44.4282  47.7549  48.0486  48.0486  48.0495  48.1220  48.1222
    48.1222  52.4287  52.4291  52.4291

          k = 0.0951-0.0951-0.1427 (  3238 PWs)   bands (ev):

     9.4830   9.4851   9.9796   9.9798  11.6280  11.6282  11.9082  11.9206
    12.1301  12.1318  12.2483  12.2513  12.2614  12.2739  12.3661  12.3665
    13.7310  13.7323  13.7397  13.7404  14.1506  14.1513  16.4664  16.4664
    20.3697  20.3698  22.9526  22.9599  33.4026  33.4027  34.6126  34.6129
    36.3072  36.3292  37.2253  37.2372  38.9603  38.9978  39.4255  39.4256
    44.6346  44.6348  44.8773  44.8960  45.9972  46.0022  48.5335  48.5335
    49.5833  49.5912  52.9579  52.9588

 ------ SPIN DOWN ----------


          k = 0.0000 0.0000 0.0000 (  3239 PWs)   bands (ev):

     5.3707  10.1708  10.1708  10.1708  10.8796  10.8800  10.8800  12.8199
    12.8199  12.8199  13.8974  13.8974  14.6489  14.6490  14.6490  14.9340
    14.9340  14.9340  14.9342  14.9342  14.9342  16.9843  16.9845  16.9845
    24.1029  24.1029  24.1029  29.5417  29.5418  29.5418  29.5419  29.5419
    29.5420  34.7947  34.7947  34.7949  38.1166  38.1168  38.1168  38.2783
    42.4274  42.4274  42.4274  46.1229  46.1229  46.1229  47.9981  55.3353
    55.3353  55.3353  58.1199  59.5396

          k = 0.0000 0.0000 0.0476 (  3227 PWs)   bands (ev):

     5.7367  10.1463  10.3649  10.3649  10.9991  11.0034  11.0037  12.6781
    12.9263  12.9263  13.7696  13.9458  14.0917  14.0919  14.4820  14.4820
    14.5971  14.7417  14.7417  14.9345  14.9345  15.5327  18.1278  18.1280
    24.1838  24.1838  26.2482  27.8724  27.8726  28.4590  28.4591  30.1183
    30.1183  34.8984  36.8841  36.8842  37.7087  38.2461  40.0492  40.0493
    40.2778  40.2778  40.8323  47.4914  48.0829  48.0829  49.2014  51.5298
    56.4520  56.4520  56.5818  56.5821

          k = 0.0000 0.0000 0.0951 (  3234 PWs)   bands (ev):

     6.7900   9.7093  10.8261  10.8261  11.3319  11.3808  11.3812  12.3001
    12.9452  12.9456  13.2357  13.2357  13.4487  13.6706  14.0701  14.0701
    14.0807  14.2674  14.2674  14.4565  14.9351  14.9351  20.1677  20.1678
    24.4570  24.4570  25.1717  25.1717  26.7615  26.7615  30.4412  31.7311
    31.7311  35.2242  36.6789  37.0854  37.0854  38.2449  38.8030  40.8522
    40.8524  44.1932  44.1933  44.3432  50.8623  50.9358  50.9358  50.9597
    50.9597  54.9123  56.1614  56.1614

          k =-0.0000-0.0000-0.1427 (  3218 PWs)   bands (ev):

     8.3249   8.3407  11.1177  11.1177  11.7921  11.8161  12.0150  12.0154
    12.0378  12.0381  13.1660  13.2003  13.7017  13.7017  13.7192  13.7192
    13.8036  13.8036  14.2606  14.2735  14.9354  14.9354  22.5291  22.5292
    22.5689  22.5690  24.7812  24.7813  25.8747  25.8748  34.1225  34.1225
    34.1498  34.1498  34.8459  34.9050  35.8017  35.8178  40.3952  40.4885
    45.5620  45.5621  45.6438  45.6440  47.6729  47.6730  52.4594  52.4594
    54.0114  54.0114  54.0853  54.0853

          k = 0.0000 0.0476 0.0476 (  3227 PWs)   bands (ev):

     6.0951  10.3571  10.3571  10.5468  11.1029  11.1132  11.1135  12.6045
    12.9766  12.9810  13.6903  13.7221  13.7319  13.7533  13.9467  14.3437
    14.4697  14.4697  14.7404  14.7405  14.8114  16.7083  16.7084  18.9561
    24.1467  25.2160  26.4225  26.4226  28.3638  28.3639  28.9651  28.9654
    30.6541  36.0962  36.1240  37.0823  37.0825  37.3350  40.2160  40.2162
    41.1756  42.6732  43.4845  45.1588  46.4045  49.9252  50.3631  53.2438
    53.6163  55.2933  55.2939  56.2259

          k = 0.0000 0.0476 0.0951 (  3245 PWs)   bands (ev):

     7.1245   9.9597  10.8731  10.9914  11.3860  11.4186  11.4600  12.2924
    12.6690  12.8379  13.0294  13.0744  13.2519  13.5728  13.9945  14.0791
    14.1496  14.2365  14.2658  14.7372  14.7473  15.1369  18.3459  20.7765
    22.2684  24.8235  25.6437  26.6560  27.5124  29.7029  29.9479  30.0159
    31.0986  33.7878  34.4951  37.7061  38.6542  40.3267  40.5013  40.8498
    41.1022  44.1038  45.2169  47.1053  47.6911  48.5519  49.8596  51.2430
    52.8775  53.1527  55.0160  56.4365

          k =-0.0000 0.0476-0.1427 (  3240 PWs)   bands (ev):

     8.6188   8.6338  11.2602  11.2622  11.8325  11.8545  11.8575  11.8761
    12.0327  12.0550  12.8896  12.9162  13.7049  13.7225  13.7843  13.7883
    13.7936  13.7963  14.4923  14.4931  14.7343  14.7381  20.1466  20.1667
    23.0418  23.0771  25.5566  25.5852  28.4077  28.4182  31.5922  31.6026
    32.0614  32.0684  35.8065  35.8724  38.8127  38.8164  42.3177  42.3761
    43.0796  43.1029  45.8368  45.9141  50.0944  50.1606  50.2539  50.2860
    52.4981  52.5243  53.3414  53.3616

          k = 0.0000 0.0951 0.0951 (  3227 PWs)   bands (ev):

     8.0742  10.5976  10.5977  11.3546  11.4369  11.6738  11.6746  12.1947
    12.3406  12.3406  12.5140  12.9115  13.3956  13.4691  13.7674  13.9056
    13.9059  14.2696  14.2697  14.4597  14.5361  16.2781  16.2782  19.5975
    22.3175  25.3445  26.9306  26.9306  27.9850  27.9853  31.1023  31.7116
    31.7154  31.7942  33.6424  36.8589  41.4491  41.8463  41.8465  43.0929
    43.2804  43.7969  43.7970  47.2908  47.3403  48.5009  48.5014  51.7139
    52.0501  52.1145  53.3836  55.2329

          k =-0.0000 0.0951-0.1427 (  3252 PWs)   bands (ev):

     9.4180   9.4309  11.2079  11.2216  11.8391  11.8403  11.9454  11.9668
    12.0609  12.0820  12.5849  12.6017  13.5616  13.5620  13.6334  13.6360
    13.7538  13.7720  14.3067  14.3179  15.1591  15.1625  17.6603  17.6754
    24.4138  24.4397  26.3539  26.3775  28.7964  28.8076  29.6131  29.6168
    33.0034  33.0106  36.7715  36.8361  40.3425  40.3538  42.9743  42.9858
    43.2160  43.2212  46.6307  46.6934  47.9678  48.0068  50.3392  50.3744
    51.8348  51.8896  53.4531  53.4667

          k =-0.0000-0.1427-0.1427 (  3216 PWs)   bands (ev):

    10.4241  10.4355  10.4355  10.4467  12.0293  12.0499  12.0499  12.0702
    12.2844  12.2908  12.2908  12.2971  13.4169  13.4190  13.4190  13.4214
    13.9281  13.9448  13.9448  13.9615  16.1002  16.1064  16.1064  16.1125
    26.3725  26.3898  26.3898  26.4068  27.6755  27.6899  27.6900  27.7049
    37.9337  37.9506  37.9506  37.9688  38.4318  38.4528  38.4529  38.4713
    47.0419  47.0424  47.0425  47.0444  49.1259  49.1615  49.1615  49.1970
    51.8941  51.8988  51.8989  51.9032

          k = 0.0476 0.0476 0.0476 (  3224 PWs)   bands (ev):

     6.4436  10.5449  10.5449  10.5449  11.2041  11.2046  11.2046  12.5497
    13.0014  13.0014  13.3907  13.3907  13.3908  13.8589  13.8589  14.1508
    14.1511  14.1511  14.8115  14.8115  14.8117  17.3616  17.3617  17.3617
    25.4451  25.4452  25.4452  26.7519  26.7519  26.7520  31.1798  31.1801
    31.1801  33.5350  36.2458  36.2458  36.2459  39.0845  41.1739  41.1739
    42.8772  42.8773  42.8773  46.4890  47.5881  47.5881  51.7870  51.7870
    55.1626  55.1632  55.1632  55.4284

          k = 0.0476 0.0476 0.0951 (  3245 PWs)   bands (ev):

     7.4406  10.1584  11.0042  11.0043  11.4454  11.4459  11.5015  12.3027
    12.6704  12.6704  12.8352  13.0339  13.1233  13.7638  13.7970  13.8608
    13.8623  14.1347  14.6994  14.7292  14.7295  15.4197  18.6892  18.6893
    22.9053  22.9054  26.7507  27.3790  27.3791  30.4195  30.4197  30.8455
    31.0218  32.6835  36.7044  37.6691  37.9118  38.8053  38.8053  42.3518
    43.5655  44.4701  47.0460  47.0460  47.9055  49.0118  50.1710  50.1712
    50.6839  52.9285  53.0193  55.7476

          k = 0.0476 0.0476-0.1427 (  3232 PWs)   bands (ev):

     8.8753   8.8892  11.4316  11.4317  11.4985  11.4991  11.9007  11.9228
    12.2886  12.2887  12.8034  12.8286  13.3832  13.3895  13.6700  13.6702
    14.2778  14.2949  14.4484  14.4502  14.6818  14.6818  19.7683  19.7683
    21.4380  21.4380  28.3078  28.3097  28.5701  28.5786  29.0278  29.0312
    34.9818  35.0043  35.3518  35.3987  38.1322  38.1799  42.1698  42.1698
    44.8109  44.8386  45.3411  45.3413  49.3658  49.4015  50.8294  50.8418
    52.1984  52.1985  53.8342  53.8418

          k = 0.0476 0.0951 0.0951 (  3231 PWs)   bands (ev):

     8.3262  10.6061  10.6063  11.1179  11.6117  11.7521  11.7525  12.2787
    12.4843  12.4845  12.6092  12.9230  13.0721  13.5241  13.5250  13.5283
    13.8885  14.4485  14.5960  14.5971  14.6151  16.3570  16.3571  18.8891
    21.1355  24.1083  24.1083  28.0851  28.1750  31.1849  31.1850  32.1985
    32.1988  34.0574  35.2529  36.9194  39.3239  39.3240  40.0640  43.1330
    43.7103  44.7139  46.4395  46.4395  49.2272  49.2275  50.3314  50.5610
    50.8821  51.6700  52.3474  52.8352

          k = 0.0476 0.0951-0.1427 (  3234 PWs)   bands (ev):

     9.5416   9.5520  10.9672  10.9718  11.8711  11.8733  12.1027  12.1214
    12.4607  12.4693  12.6440  12.6607  13.1989  13.2032  13.3805  13.3835
    14.2025  14.2118  14.5015  14.5090  15.0525  15.0558  17.5859  17.5980
    22.1031  22.1119  25.8484  25.8543  29.5194  29.5269  33.0819  33.0828
    33.3047  33.3116  36.8771  36.9293  40.1013  40.1120  40.4478  40.4579
    45.1609  45.1646  45.6456  45.6725  47.6596  47.6751  50.5807  50.6018
    51.7061  51.7179  53.9383  53.9605

          k = 0.0476-0.1427-0.1427 (  3228 PWs)   bands (ev):

    10.3173  10.3237  10.3237  10.3297  12.2699  12.2790  12.2790  12.2880
    12.4883  12.4994  12.4994  12.5105  13.1407  13.1455  13.1455  13.1505
    14.2250  14.2365  14.2365  14.2481  15.9744  15.9812  15.9812  15.9878
    23.6920  23.6983  23.6984  23.7047  31.0388  31.0425  31.0425  31.0465
    38.2144  38.2228  38.2228  38.2451  38.2631  38.2880  38.2880  38.2976
    46.5696  46.5697  46.5700  46.5716  46.7455  46.7665  46.7665  46.7855
    54.8370  54.8512  54.8512  55.0682

          k = 0.0951 0.0951 0.0951 (  3253 PWs)   bands (ev):

     8.9912  10.5581  10.5584  10.5584  12.0676  12.0679  12.0679  12.5451
    12.7626  12.7626  12.7635  12.8903  12.8903  13.1628  13.1628  13.1630
    14.3284  14.3284  14.7395  14.7395  14.7397  16.6085  16.6087  16.6087
    21.7374  21.7374  21.7374  25.3634  32.5330  32.5330  32.5332  35.2909
    35.2912  35.2912  37.2720  37.2720  37.2722  37.6089  40.0215  40.0215
    44.4375  44.4375  47.7699  47.9969  47.9969  47.9980  48.1234  48.1236
    48.1236  52.4599  52.4602  52.4602

          k = 0.0951 0.0951-0.1427 (  3238 PWs)   bands (ev):

     9.8141   9.8189  10.5181  10.5183  12.2601  12.2603  12.5673  12.5796
    12.8131  12.8286  12.9228  12.9240  12.9667  12.9667  13.0305  13.0305
    14.6403  14.6423  14.6686  14.6691  14.8658  14.8685  16.7979  16.7980
    20.8069  20.8069  23.2425  23.2488  33.4105  33.4105  34.6985  34.6989
    36.1977  36.2211  37.2981  37.3092  39.0407  39.0778  39.4000  39.4001
    44.6611  44.6613  44.8543  44.8732  46.0050  46.0110  48.4932  48.4933
    49.6368  49.6445  53.0666  53.0675

          k = 0.0951-0.1427-0.1427 (  3224 PWs)   bands (ev):

    10.1292  10.1307  10.1307  10.1318  12.6041  12.6073  12.6074  12.6104
    12.8366  12.8398  12.8398  12.8433  13.2454  13.2537  13.2537  13.2620
    14.5726  14.5787  14.5787  14.5849  15.4833  15.4908  15.4908  15.4981
    21.4708  21.4759  21.4760  21.4811  35.1116  35.1162  35.1162  35.1210
    38.1656  38.1743  38.1743  38.1834  38.9843  38.9941  38.9941  39.0027
    44.0993  44.1090  44.1090  44.1185  45.1302  45.1330  45.1330  45.1356
    50.4874  50.4910  50.4910  50.4954

          k =-0.1427-0.1427-0.1427 (  3184 PWs)   bands (ev):

    10.0452  10.0455  10.0455  10.0455  12.7253  12.7253  12.7254  12.7256
    12.7256  12.7257  12.7257  12.7257  14.1854  14.1854  14.1854  14.1859
    14.7113  14.7113  14.7114  14.7115  14.7115  14.7116  14.7116  14.7116
    20.6844  20.6844  20.6844  20.6844  36.7549  36.7552  36.7552  36.7552
    39.6308  39.6308  39.6308  39.6309  39.6309  39.6313  39.6313  39.6314
    42.8162  42.8162  42.8162  42.8163  42.8163  42.8165  42.8165  42.8165
    48.8685  48.8685  48.8685  48.8687

          k =-0.0476 0.0000 0.0476 (  3227 PWs)   bands (ev):

     6.0951  10.3571  10.3571  10.5468  11.1029  11.1132  11.1135  12.6045
    12.9766  12.9810  13.6903  13.7221  13.7319  13.7533  13.9467  14.3437
    14.4697  14.4697  14.7404  14.7405  14.8114  16.7083  16.7084  18.9561
    24.1467  25.2160  26.4225  26.4227  28.3638  28.3639  28.9650  28.9654
    30.6541  36.0962  36.1240  37.0823  37.0825  37.3350  40.2159  40.2163
    41.1756  42.6732  43.4845  45.1588  46.4045  49.9252  50.3631  53.2438
    53.6163  55.2933  55.2939  56.2259

          k =-0.0476 0.0000 0.0951 (  3245 PWs)   bands (ev):

     7.1245   9.9597  10.8731  10.9914  11.3860  11.4186  11.4600  12.2924
    12.6690  12.8379  13.0294  13.0744  13.2519  13.5728  13.9945  14.0791
    14.1496  14.2365  14.2658  14.7372  14.7473  15.1369  18.3459  20.7765
    22.2684  24.8235  25.6437  26.6560  27.5124  29.7029  29.9479  30.0159
    31.0986  33.7878  34.4951  37.7061  38.6542  40.3267  40.5013  40.8498
    41.1022  44.1038  45.2169  47.1053  47.6911  48.5519  49.8596  51.2430
    52.8775  53.1527  55.0160  56.4365

          k =-0.0951 0.0000 0.0951 (  3227 PWs)   bands (ev):

     8.0742  10.5976  10.5977  11.3546  11.4369  11.6738  11.6746  12.1947
    12.3406  12.3406  12.5140  12.9115  13.3956  13.4691  13.7674  13.9056
    13.9059  14.2696  14.2697  14.4597  14.5361  16.2782  16.2782  19.5975
    22.3175  25.3445  26.9305  26.9307  27.9850  27.9854  31.1023  31.7116
    31.7154  31.7942  33.6424  36.8589  41.4491  41.8463  41.8464  43.0929
    43.2804  43.7969  43.7970  47.2908  47.3403  48.5009  48.5014  51.7139
    52.0501  52.1145  53.3836  55.2308

          k = 0.0476-0.0476 0.0476 (  3224 PWs)   bands (ev):

     6.4436  10.5449  10.5449  10.5449  11.2041  11.2046  11.2046  12.5497
    13.0014  13.0014  13.3907  13.3907  13.3908  13.8589  13.8589  14.1508
    14.1511  14.1511  14.8115  14.8115  14.8117  17.3616  17.3617  17.3617
    25.4451  25.4452  25.4452  26.7519  26.7519  26.7521  31.1799  31.1800
    31.1801  33.5350  36.2457  36.2458  36.2460  39.0845  41.1739  41.1739
    42.8772  42.8773  42.8773  46.4890  47.5881  47.5881  51.7870  51.7870
    55.1627  55.1632  55.1632  55.4284

          k = 0.0476-0.0476 0.0951 (  3245 PWs)   bands (ev):

     7.4406  10.1584  11.0042  11.0043  11.4455  11.4459  11.5015  12.3027
    12.6704  12.6704  12.8352  13.0339  13.1233  13.7638  13.7970  13.8608
    13.8623  14.1347  14.6994  14.7292  14.7295  15.4197  18.6892  18.6893
    22.9053  22.9054  26.7507  27.3790  27.3791  30.4195  30.4196  30.8455
    31.0218  32.6835  36.7044  37.6691  37.9118  38.8053  38.8054  42.3518
    43.5655  44.4701  47.0460  47.0461  47.9055  49.0118  50.1710  50.1712
    50.6839  52.9285  53.0193  55.7476

          k =-0.0951 0.0476 0.0476 (  3245 PWs)   bands (ev):

     7.4406  10.1584  11.0042  11.0043  11.4454  11.4459  11.5015  12.3027
    12.6704  12.6704  12.8352  13.0339  13.1233  13.7638  13.7970  13.8608
    13.8623  14.1347  14.6994  14.7292  14.7295  15.4197  18.6892  18.6893
    22.9053  22.9054  26.7507  27.3790  27.3791  30.4195  30.4197  30.8455
    31.0218  32.6835  36.7044  37.6691  37.9118  38.8053  38.8053  42.3518
    43.5655  44.4701  47.0460  47.0460  47.9055  49.0118  50.1710  50.1712
    50.6839  52.9285  53.0193  55.7480

          k = 0.0476-0.0476-0.1427 (  3232 PWs)   bands (ev):

     8.8753   8.8892  11.4316  11.4316  11.4985  11.4991  11.9007  11.9228
    12.2885  12.2887  12.8034  12.8286  13.3832  13.3895  13.6699  13.6702
    14.2778  14.2949  14.4484  14.4502  14.6818  14.6818  19.7683  19.7683
    21.4380  21.4380  28.3079  28.3097  28.5701  28.5786  29.0278  29.0312
    34.9818  35.0043  35.3518  35.3987  38.1322  38.1799  42.1697  42.1699
    44.8109  44.8386  45.3411  45.3413  49.3658  49.4015  50.8294  50.8418
    52.1983  52.1985  53.8342  53.8418

          k = 0.0951-0.0476 0.0951 (  3231 PWs)   bands (ev):

     8.3262  10.6061  10.6063  11.1179  11.6117  11.7521  11.7525  12.2787
    12.4843  12.4845  12.6092  12.9230  13.0721  13.5241  13.5250  13.5283
    13.8885  14.4485  14.5960  14.5971  14.6151  16.3570  16.3571  18.8891
    21.1355  24.1083  24.1083  28.0851  28.1750  31.1849  31.1850  32.1985
    32.1988  34.0574  35.2529  36.9194  39.3239  39.3240  40.0640  43.1330
    43.7103  44.7139  46.4395  46.4395  49.2272  49.2275  50.3314  50.5610
    50.8821  51.6700  52.3474  52.8351

          k =-0.0951 0.0476 0.0951 (  3231 PWs)   bands (ev):

     8.3262  10.6061  10.6063  11.1179  11.6117  11.7521  11.7525  12.2787
    12.4843  12.4845  12.6092  12.9230  13.0721  13.5241  13.5250  13.5283
    13.8885  14.4485  14.5960  14.5971  14.6151  16.3570  16.3571  18.8891
    21.1355  24.1083  24.1083  28.0851  28.1750  31.1849  31.1850  32.1985
    32.1987  34.0574  35.2529  36.9194  39.3239  39.3240  40.0640  43.1330
    43.7103  44.7139  46.4395  46.4395  49.2272  49.2275  50.3314  50.5610
    50.8821  51.6700  52.3474  52.8351

          k = 0.0951-0.0476-0.1427 (  3234 PWs)   bands (ev):

     9.5416   9.5520  10.9672  10.9718  11.8711  11.8733  12.1027  12.1214
    12.4607  12.4693  12.6440  12.6607  13.1989  13.2032  13.3805  13.3835
    14.2025  14.2118  14.5015  14.5090  15.0525  15.0558  17.5859  17.5980
    22.1031  22.1119  25.8484  25.8543  29.5194  29.5269  33.0819  33.0828
    33.3047  33.3116  36.8771  36.9293  40.1013  40.1120  40.4478  40.4579
    45.1609  45.1646  45.6456  45.6725  47.6596  47.6751  50.5807  50.6018
    51.7061  51.7179  53.9383  53.9605

          k = 0.0951-0.0951 0.0951 (  3253 PWs)   bands (ev):

     8.9912  10.5581  10.5584  10.5584  12.0676  12.0679  12.0679  12.5451
    12.7626  12.7626  12.7636  12.8903  12.8903  13.1628  13.1628  13.1630
    14.3284  14.3284  14.7395  14.7395  14.7397  16.6085  16.6086  16.6087
    21.7374  21.7374  21.7374  25.3634  32.5329  32.5330  32.5332  35.2909
    35.2911  35.2912  37.2719  37.2720  37.2723  37.6089  40.0215  40.0215
    44.4375  44.4375  47.7699  47.9969  47.9969  47.9980  48.1234  48.1236
    48.1236  52.4599  52.4602  52.4602

          k = 0.0951-0.0951-0.1427 (  3238 PWs)   bands (ev):

     9.8141   9.8189  10.5180  10.5183  12.2601  12.2603  12.5673  12.5796
    12.8131  12.8286  12.9228  12.9240  12.9667  12.9667  13.0305  13.0306
    14.6403  14.6423  14.6686  14.6692  14.8658  14.8685  16.7979  16.7980
    20.8069  20.8069  23.2425  23.2488  33.4104  33.4105  34.6986  34.6988
    36.1977  36.2211  37.2981  37.3092  39.0407  39.0778  39.4000  39.4001
    44.6611  44.6613  44.8543  44.8732  46.0050  46.0110  48.4932  48.4933
    49.6368  49.6445  53.0666  53.0675

     the Fermi energy is    14.4845 ev

!    total energy              =    -343.63023907 Ry
     Harris-Foulkes estimate   =    -343.63023908 Ry
     estimated scf accuracy    <          3.7E-09 Ry

     The total energy is the sum of the following terms:

     one-electron contribution =      -6.44775720 Ry
     hartree contribution      =      60.37058345 Ry
     xc contribution           =    -120.51341298 Ry
     ewald contribution        =    -276.99126308 Ry
     Dispersion Correction     =      -0.04781656 Ry
     smearing contrib. (-TS)   =      -0.00057270 Ry

     total magnetization       =     2.84 Bohr mag/cell
     absolute magnetization    =     3.25 Bohr mag/cell

     convergence has been achieved in  11 iterations

     Forces acting on atoms (Ry/au):

     atom    1 type  1   force =    -0.00171103   -0.00171103    0.00171166
     atom    2 type  1   force =     0.00171040    0.00171040    0.00171040
     atom    3 type  1   force =    -0.00171103    0.00171166   -0.00171103
     atom    4 type  1   force =     0.00171166   -0.00171103   -0.00171103

     Total force =     0.005927     Total SCF correction =     0.000012


     entering subroutine stress ...

          total   stress  (Ry/bohr**3)                   (kbar)     P=   -0.18
  -0.00000122  -0.00000000  -0.00000000         -0.18     -0.00     -0.00
  -0.00000000  -0.00000122  -0.00000000         -0.00     -0.18     -0.00
  -0.00000000  -0.00000000  -0.00000122         -0.00     -0.00     -0.18


     number of scf cycles    =   2
     number of bfgs steps    =   1

     enthalpy old            =    -343.6296479705 Ry
     enthalpy new            =    -343.6302390748 Ry

     CASE: enthalpy_new < enthalpy_old

     new trust radius        =       0.0032076379 bohr
     new conv_thr            =       0.0000000002 Ry

     new unit-cell volume =    290.05018 a.u.^3 (    42.98100 Ang^3 )

CELL_PARAMETERS (alat=  1.88972590)
   3.502882468  -0.000000006  -0.000000006
  -0.000000006   3.502882468  -0.000000006
  -0.000000006  -0.000000006   3.502882468

ATOMIC_POSITIONS (alat)
Ni1      1.757023942   1.757023942   0.002193470
Ni1      0.002193011   0.002193011   0.002193011
Ni1      1.757023942   0.002193470   1.757023942
Ni1      0.002193470   1.757023942   1.757023942



     Writing output data file Ni-ferromag.save
     NEW-OLD atomic charge density approx. for the potential

     Check: negative/imaginary core charge=   -0.000005    0.000000
     extrapolated charge   39.97508, renormalised to   40.00000

     total cpu time spent up to now is     1548.9 secs

     Self-consistent Calculation

     iteration #  1     ecut=    75.00 Ry     beta=0.20
     Davidson diagonalization with overlap
     ethr =  1.00E-06,  avg # of iterations =  2.4

     total cpu time spent up to now is     1624.2 secs

     total energy              =    -343.63014755 Ry
     Harris-Foulkes estimate   =    -343.65651632 Ry
     estimated scf accuracy    <       0.00019847 Ry

     total magnetization       =     2.83 Bohr mag/cell
     absolute magnetization    =     3.24 Bohr mag/cell

     iteration #  2     ecut=    75.00 Ry     beta=0.20
     Davidson diagonalization with overlap
     ethr =  4.96E-07,  avg # of iterations =  1.8

     total cpu time spent up to now is     1674.2 secs

     total energy              =    -343.63027424 Ry
     Harris-Foulkes estimate   =    -343.63028964 Ry
     estimated scf accuracy    <       0.00008152 Ry

     total magnetization       =     2.84 Bohr mag/cell
     absolute magnetization    =     3.26 Bohr mag/cell

     iteration #  3     ecut=    75.00 Ry     beta=0.20
     Davidson diagonalization with overlap
     ethr =  2.04E-07,  avg # of iterations =  1.0

     total cpu time spent up to now is     1722.9 secs

     total energy              =    -343.63025582 Ry
     Harris-Foulkes estimate   =    -343.63027683 Ry
     estimated scf accuracy    <       0.00002880 Ry

     total magnetization       =     2.84 Bohr mag/cell
     absolute magnetization    =     3.25 Bohr mag/cell

     iteration #  4     ecut=    75.00 Ry     beta=0.20
     Davidson diagonalization with overlap
     ethr =  7.20E-08,  avg # of iterations =  2.0

     total cpu time spent up to now is     1775.0 secs

     total energy              =    -343.63027366 Ry
     Harris-Foulkes estimate   =    -343.63028227 Ry
     estimated scf accuracy    <       0.00004974 Ry

     total magnetization       =     2.83 Bohr mag/cell
     absolute magnetization    =     3.25 Bohr mag/cell

     iteration #  5     ecut=    75.00 Ry     beta=0.20
     Davidson diagonalization with overlap
     ethr =  7.20E-08,  avg # of iterations =  1.0

     total cpu time spent up to now is     1823.6 secs

     total energy              =    -343.63027118 Ry
     Harris-Foulkes estimate   =    -343.63027488 Ry
     estimated scf accuracy    <       0.00001986 Ry

     total magnetization       =     2.83 Bohr mag/cell
     absolute magnetization    =     3.25 Bohr mag/cell

     iteration #  6     ecut=    75.00 Ry     beta=0.20
     Davidson diagonalization with overlap
     ethr =  4.97E-08,  avg # of iterations =  1.0

     total cpu time spent up to now is     1872.2 secs

     total energy              =    -343.63026853 Ry
     Harris-Foulkes estimate   =    -343.63027174 Ry
     estimated scf accuracy    <       0.00000709 Ry

     total magnetization       =     2.84 Bohr mag/cell
     absolute magnetization    =     3.25 Bohr mag/cell

     iteration #  7     ecut=    75.00 Ry     beta=0.20
     Davidson diagonalization with overlap
     ethr =  1.77E-08,  avg # of iterations =  1.0

     total cpu time spent up to now is     1920.9 secs

     total energy              =    -343.63026996 Ry
     Harris-Foulkes estimate   =    -343.63027001 Ry
     estimated scf accuracy    <       0.00000006 Ry

     total magnetization       =     2.84 Bohr mag/cell
     absolute magnetization    =     3.25 Bohr mag/cell

     iteration #  8     ecut=    75.00 Ry     beta=0.20
     Davidson diagonalization with overlap
     ethr =  1.59E-10,  avg # of iterations =  2.0

     total cpu time spent up to now is     1979.4 secs

     total energy              =    -343.63027008 Ry
     Harris-Foulkes estimate   =    -343.63027012 Ry
     estimated scf accuracy    <       0.00000050 Ry

     total magnetization       =     2.84 Bohr mag/cell
     absolute magnetization    =     3.25 Bohr mag/cell

     iteration #  9     ecut=    75.00 Ry     beta=0.20
     Davidson diagonalization with overlap
     ethr =  1.59E-10,  avg # of iterations =  1.0

     total cpu time spent up to now is     2028.0 secs

     total energy              =    -343.63027014 Ry
     Harris-Foulkes estimate   =    -343.63027008 Ry
     estimated scf accuracy    <       0.00000035 Ry

     total magnetization       =     2.84 Bohr mag/cell
     absolute magnetization    =     3.25 Bohr mag/cell

     iteration # 10     ecut=    75.00 Ry     beta=0.20
     Davidson diagonalization with overlap
     ethr =  1.59E-10,  avg # of iterations =  1.0

     total cpu time spent up to now is     2076.6 secs

     total energy              =    -343.63026989 Ry
     Harris-Foulkes estimate   =    -343.63027015 Ry
     estimated scf accuracy    <       0.00000060 Ry

     total magnetization       =     2.84 Bohr mag/cell
     absolute magnetization    =     3.25 Bohr mag/cell

     iteration # 11     ecut=    75.00 Ry     beta=0.20
     Davidson diagonalization with overlap
     ethr =  1.59E-10,  avg # of iterations =  2.0

     Magnetic moment per site:
     atom:    1    charge:    3.0047    magn:    0.3348    constr:    0.0000
     atom:    2    charge:    3.0029    magn:    0.3347    constr:    0.0000
     atom:    3    charge:    3.0047    magn:    0.3348    constr:    0.0000
     atom:    4    charge:    3.0047    magn:    0.3348    constr:    0.0000

     total cpu time spent up to now is     2132.7 secs

     End of self-consistent calculation

 ------ SPIN UP ------------


          k = 0.0000 0.0000 0.0000 (  3239 PWs)   bands (ev):

     5.4330   9.7168   9.7168   9.7168  10.1700  10.1701  10.1701  11.9496
    11.9496  11.9496  13.1286  13.1286  13.8467  13.8467  13.8467  13.9366
    13.9367  13.9367  13.9367  13.9367  13.9367  17.0755  17.0755  17.0755
    23.8149  23.8150  23.8150  29.5734  29.5734  29.5734  29.5734  29.5734
    29.5734  34.6510  34.6510  34.6511  37.9976  37.9978  37.9978  38.5011
    42.4787  42.4787  42.4787  46.0764  46.0764  46.0764  48.1806  55.1773
    55.1773  55.1773  57.6132  59.0349

          k = 0.0000 0.0000 0.0476 (  3227 PWs)   bands (ev):

     5.7992   9.7390   9.9010   9.9011  10.2806  10.2964  10.2965  11.8208
    12.0520  12.0520  13.0106  13.1752  13.2826  13.2826  13.6931  13.6931
    13.7608  13.7608  13.7972  13.9370  13.9370  15.4746  18.0343  18.0344
    23.9108  23.9109  26.0643  27.8213  27.8214  28.4498  28.4498  30.1338
    30.1338  34.7671  36.8241  36.8241  37.8653  38.1296  39.9547  39.9548
    40.2571  40.2571  40.9230  47.4965  48.1337  48.1337  49.1574  51.5650
    56.2733  56.2733  56.6813  56.6814

          k = 0.0000 0.0000 0.0952 (  3234 PWs)   bands (ev):

     6.8487   9.5098  10.3381  10.3381  10.5883  10.6796  10.6798  11.4767
    12.2263  12.2264  12.3487  12.3487  12.7228  13.3040  13.3102  13.3117
    13.3117  13.3248  13.3248  13.6630  13.9375  13.9375  19.9971  19.9971
    24.2280  24.2281  25.0476  25.0476  26.6817  26.6817  30.3642  31.7132
    31.7132  35.1304  36.7326  37.0356  37.0356  38.3546  38.6819  40.8687
    40.8688  44.1197  44.1198  44.1530  50.9326  51.0546  51.0546  51.0578
    51.0578  55.0430  55.9454  55.9454

          k =-0.0000-0.0000-0.1427 (  3218 PWs)   bands (ev):

     8.3432   8.3530  10.6142  10.6143  11.0161  11.0304  11.3196  11.3196
    11.3337  11.3337  12.5358  12.5557  12.7954  12.7954  12.8061  12.8061
    13.0663  13.0663  13.4782  13.4860  13.9378  13.9378  22.3706  22.3707
    22.3953  22.3953  24.6010  24.6010  25.7364  25.7364  34.0827  34.0827
    34.1000  34.1000  34.8958  34.9322  35.7737  35.7823  40.2471  40.3053
    45.6452  45.6452  45.6959  45.6959  47.6260  47.6260  52.2973  52.2973
    54.1597  54.1597  54.2065  54.2065

          k = 0.0000 0.0476 0.0476 (  3227 PWs)   bands (ev):

     6.1568   9.9373   9.9374  10.0642  10.3979  10.3980  10.4119  11.7609
    12.0970  12.1140  12.9363  12.9818  12.9947  12.9990  13.1707  13.5645
    13.6890  13.6891  13.7594  13.7595  13.8210  16.4068  16.4068  18.8042
    23.9049  25.1040  26.2516  26.2516  28.2989  28.2990  28.9423  28.9424
    30.6615  36.0407  36.1243  37.0326  37.0326  37.3385  40.1229  40.1230
    41.2773  42.6107  43.5379  45.2382  46.3696  49.7959  50.4621  53.1015
    53.6760  55.3573  55.3576  56.3113

          k = 0.0000 0.0476 0.0952 (  3245 PWs)   bands (ev):

     7.1785   9.7459  10.4195  10.4680  10.6798  10.7331  10.7522  11.4798
    11.9877  12.1273  12.2429  12.3603  12.3860  12.8191  13.2407  13.3164
    13.3285  13.3500  13.5022  13.7559  13.7624  14.4399  18.0213  20.5873
    22.0854  24.6135  25.5089  26.5380  27.4066  29.6126  29.9060  29.9623
    31.0211  33.7293  34.4727  37.6849  38.6380  40.3960  40.5746  40.7551
    41.1245  44.0471  45.0405  47.0653  47.7921  48.5946  49.9005  51.3424
    52.9474  53.2683  54.8247  56.2083

          k =-0.0000 0.0476-0.1427 (  3240 PWs)   bands (ev):

     8.6251   8.6342  10.7665  10.7671  11.0680  11.0817  11.1887  11.2002
    11.3343  11.3480  12.1648  12.1795  12.7961  12.8070  13.0285  13.0333
    13.0511  13.0517  13.6656  13.6657  13.7526  13.7548  19.8838  19.8963
    22.8712  22.8933  25.4086  25.4255  28.3119  28.3175  31.4988  31.5061
    32.0235  32.0287  35.8136  35.8555  38.8325  38.8357  42.2024  42.2383
    43.1145  43.1279  45.9227  45.9706  50.0684  50.1112  50.3519  50.3720
    52.6120  52.6280  53.2037  53.2166

          k = 0.0000 0.0952 0.0952 (  3227 PWs)   bands (ev):

     8.1051  10.3335  10.3336  10.6994  10.9478  10.9480  10.9618  11.4100
    11.6571  11.6571  11.8117  12.1303  12.4911  12.7329  13.0247  13.1795
    13.1796  13.3200  13.3201  13.4901  13.7054  15.6860  15.6860  19.3045
    22.1140  25.1642  26.7817  26.7817  27.9016  27.9017  30.9902  31.6450
    31.6464  31.7435  33.6101  36.8440  41.5338  41.8865  41.8865  43.0820
    43.4188  43.7789  43.7790  47.1972  47.3365  48.4822  48.4824  51.6817
    52.1848  52.1982  53.2078  55.3581

          k =-0.0000 0.0952-0.1427 (  3252 PWs)   bands (ev):

     9.3685   9.3760  10.8000  10.8088  11.1943  11.2040  11.2119  11.2141
    11.3535  11.3663  11.8614  11.8710  12.8330  12.8380  12.8387  12.8440
    12.9050  12.9069  13.3517  13.3583  14.3661  14.3679  17.2127  17.2224
    24.2298  24.2466  26.2252  26.2390  28.6538  28.6618  29.5426  29.5443
    32.9533  32.9570  36.7767  36.8175  40.3671  40.3752  43.0522  43.0601
    43.2220  43.2257  46.7276  46.7666  47.9201  47.9437  50.4238  50.4455
    51.7523  51.7872  53.5660  53.5752

          k =-0.0000-0.1427-0.1427 (  3216 PWs)   bands (ev):

    10.2190  10.2254  10.2254  10.2317  11.3094  11.3216  11.3216  11.3338
    11.6275  11.6310  11.6310  11.6344  12.6909  12.6921  12.6921  12.6934
    12.9965  13.0066  13.0066  13.0167  15.4329  15.4375  15.4375  15.4421
    26.2010  26.2125  26.2126  26.2241  27.5760  27.5843  27.5843  27.5927
    37.8881  37.8993  37.8993  37.9108  38.4927  38.5065  38.5065  38.5194
    47.1853  47.1853  47.1854  47.1857  49.1753  49.1973  49.1973  49.2193
    51.8252  51.8270  51.8271  51.8288

          k = 0.0476 0.0476 0.0476 (  3224 PWs)   bands (ev):

     6.5026  10.0983  10.0983  10.0983  10.5124  10.5126  10.5126  11.7260
    12.1336  12.1336  12.6907  12.6907  12.6907  13.0838  13.0838  13.3311
    13.3312  13.3312  13.8750  13.8750  13.8751  17.0341  17.0341  17.0341
    25.3304  25.3305  25.3305  26.5969  26.5969  26.5969  31.1768  31.1769
    31.1769  33.4879  36.1721  36.1721  36.1721  39.2584  41.1445  41.1445
    42.8180  42.8181  42.8181  46.5995  47.6549  47.6549  51.6511  51.6511
    55.1143  55.2359  55.2361  55.2361

          k = 0.0476 0.0476 0.0952 (  3245 PWs)   bands (ev):

     7.4842   9.9046  10.4814  10.4815  10.7982  10.8264  10.8264  11.5165
    11.9781  11.9781  12.1726  12.2139  12.2732  12.9287  12.9991  13.0851
    13.0855  13.3235  13.7777  13.7777  13.8101  14.8018  18.3765  18.3765
    22.7114  22.7114  26.6242  27.2481  27.2482  30.3637  30.3637  30.7504
    30.9530  32.6566  36.6512  37.7820  37.8568  38.7966  38.7966  42.3672
    43.5103  44.4768  47.0278  47.0278  47.8897  49.0902  50.2075  50.2075
    50.7030  53.0242  53.0852  55.6653

          k = 0.0476 0.0476-0.1427 (  3232 PWs)   bands (ev):

     8.8526   8.8607  10.8686  10.8688  10.9267  10.9268  11.1638  11.1766
    11.5842  11.5842  12.0692  12.0836  12.5439  12.5488  12.9173  12.9174
    13.4880  13.4981  13.5985  13.6007  13.7217  13.7217  19.5253  19.5254
    21.1501  21.1502  28.2115  28.2123  28.4485  28.4539  28.9326  28.9339
    34.9372  34.9517  35.4064  35.4351  38.0862  38.1162  42.2108  42.2108
    44.7554  44.7717  45.3760  45.3761  49.4760  49.4986  50.9026  50.9104
    52.1929  52.1930  53.6864  53.6883

          k = 0.0476 0.0952 0.0952 (  3231 PWs)   bands (ev):

     8.3231  10.2223  10.2224  10.5085  11.1138  11.1598  11.1599  11.5616
    11.7741  11.7742  11.9074  12.1323  12.2581  12.7364  12.7365  12.7530
    13.0560  13.6110  13.6799  13.6956  13.6960  15.8167  15.8167  18.6283
    20.8078  23.9082  23.9082  27.9468  28.0602  31.1395  31.1395  32.1263
    32.1264  34.0230  35.2472  36.9149  39.3308  39.3309  40.1606  43.0447
    43.7417  44.7910  46.4700  46.4700  49.1993  49.1994  50.4248  50.6028
    50.9319  51.6258  52.3087  52.9337

          k = 0.0476 0.0952-0.1427 (  3234 PWs)   bands (ev):

     9.4038   9.4088  10.4429  10.4444  11.3271  11.3275  11.4705  11.4809
    11.7788  11.7832  11.8972  11.9067  12.4056  12.4092  12.6171  12.6194
    13.3512  13.3552  13.5788  13.5830  14.2725  14.2741  17.1905  17.1985
    21.8206  21.8268  25.6668  25.6712  29.4390  29.4429  33.0443  33.0459
    33.2574  33.2609  36.8941  36.9276  40.1403  40.1476  40.4496  40.4556
    45.1980  45.2008  45.6833  45.6994  47.7070  47.7156  50.5733  50.5867
    51.7941  51.8019  53.8931  53.9083

          k = 0.0476-0.1427-0.1427 (  3228 PWs)   bands (ev):

     9.9736   9.9757   9.9757   9.9777  11.7151  11.7185  11.7185  11.7217
    11.7989  11.8060  11.8060  11.8132  12.3754  12.3789  12.3789  12.3824
    13.3294  13.3358  13.3358  13.3421  15.3433  15.3483  15.3483  15.3534
    23.4528  23.4576  23.4576  23.4624  30.9772  30.9787  30.9787  30.9803
    38.1700  38.1792  38.1792  38.1900  38.3380  38.3508  38.3508  38.3614
    46.6616  46.6617  46.6617  46.6632  46.7531  46.7657  46.7657  46.7769
    54.8090  54.8180  54.8180  55.0809

          k = 0.0952 0.0952 0.0952 (  3253 PWs)   bands (ev):

     8.8669  10.0573  10.0574  10.0574  11.5184  11.5185  11.5185  12.0324
    12.0913  12.0913  12.0940  12.1013  12.1013  12.3823  12.3823  12.3824
    13.4589  13.4589  13.8238  13.8238  13.8238  16.1950  16.1950  16.1950
    21.4152  21.4152  21.4153  25.1556  32.5056  32.5056  32.5056  35.2505
    35.2505  35.2505  37.2802  37.2802  37.2802  37.7974  39.9587  39.9587
    44.4521  44.4521  47.7809  48.0729  48.0729  48.0733  48.1473  48.1474
    48.1474  52.4571  52.4573  52.4573

          k = 0.0952 0.0952-0.1427 (  3238 PWs)   bands (ev):

     9.4923   9.4936   9.9888   9.9888  11.6383  11.6384  11.9210  11.9289
    12.1412  12.1423  12.2609  12.2622  12.2733  12.2815  12.3769  12.3770
    13.7438  13.7445  13.7521  13.7524  14.1630  14.1635  16.4792  16.4792
    20.3862  20.3863  22.9709  22.9754  33.4211  33.4212  34.6339  34.6340
    36.3290  36.3430  37.2493  37.2569  38.9901  39.0139  39.4465  39.4465
    44.6591  44.6592  44.9041  44.9160  46.0226  46.0258  48.5582  48.5582
    49.6117  49.6166  52.9861  52.9864

          k = 0.0952-0.1427-0.1427 (  3224 PWs)   bands (ev):

     9.6684   9.6685   9.6685   9.6685  11.8824  11.8845  11.8845  11.8864
    12.0720  12.0742  12.0742  12.0765  12.8194  12.8239  12.8239  12.8285
    13.6688  13.6722  13.6722  13.6757  14.9658  14.9715  14.9715  14.9773
    21.0959  21.0997  21.0998  21.1036  35.1591  35.1610  35.1610  35.1630
    38.2197  38.2259  38.2259  38.2322  38.9410  38.9474  38.9474  38.9533
    44.0956  44.1011  44.1011  44.1065  45.1629  45.1643  45.1643  45.1656
    50.4259  50.4283  50.4283  50.4309

          k =-0.1427-0.1427-0.1427 (  3184 PWs)   bands (ev):

     9.5524   9.5525   9.5525   9.5525  11.9626  11.9626  11.9626  11.9627
    11.9627  11.9628  11.9628  11.9628  13.7995  13.7996  13.7996  13.7997
    13.7997  13.7998  13.7998  13.7998  14.2960  14.2962  14.2962  14.2962
    20.2186  20.2186  20.2186  20.2186  36.9560  36.9562  36.9562  36.9562
    39.5838  39.5838  39.5838  39.5839  39.5839  39.5840  39.5840  39.5841
    42.8095  42.8095  42.8096  42.8096  42.8096  42.8096  42.8097  42.8097
    48.7822  48.7822  48.7822  48.7823

          k =-0.0476 0.0000 0.0476 (  3227 PWs)   bands (ev):

     6.1568   9.9373   9.9374  10.0642  10.3979  10.3980  10.4119  11.7609
    12.0970  12.1140  12.9363  12.9818  12.9947  12.9990  13.1707  13.5645
    13.6890  13.6891  13.7594  13.7595  13.8210  16.4068  16.4068  18.8042
    23.9049  25.1040  26.2516  26.2517  28.2989  28.2990  28.9423  28.9424
    30.6615  36.0407  36.1243  37.0326  37.0326  37.3385  40.1228  40.1230
    41.2773  42.6107  43.5379  45.2382  46.3696  49.7959  50.4621  53.1015
    53.6760  55.3573  55.3576  56.3113

          k =-0.0476 0.0000 0.0952 (  3245 PWs)   bands (ev):

     7.1785   9.7459  10.4195  10.4680  10.6798  10.7331  10.7522  11.4798
    11.9877  12.1273  12.2429  12.3603  12.3860  12.8191  13.2407  13.3164
    13.3285  13.3500  13.5022  13.7559  13.7624  14.4399  18.0213  20.5873
    22.0854  24.6135  25.5089  26.5380  27.4066  29.6126  29.9060  29.9623
    31.0211  33.7293  34.4727  37.6849  38.6380  40.3960  40.5746  40.7551
    41.1245  44.0471  45.0405  47.0653  47.7921  48.5946  49.9005  51.3424
    52.9474  53.2683  54.8247  56.2083

          k =-0.0952 0.0000 0.0952 (  3227 PWs)   bands (ev):

     8.1051  10.3335  10.3335  10.6994  10.9478  10.9480  10.9618  11.4100
    11.6571  11.6571  11.8117  12.1303  12.4911  12.7329  13.0247  13.1795
    13.1796  13.3200  13.3201  13.4901  13.7054  15.6860  15.6860  19.3045
    22.1140  25.1642  26.7817  26.7817  27.9016  27.9017  30.9902  31.6450
    31.6464  31.7435  33.6101  36.8440  41.5338  41.8865  41.8865  43.0820
    43.4188  43.7789  43.7790  47.1972  47.3365  48.4822  48.4824  51.6817
    52.1848  52.1982  53.2078  55.3582

          k = 0.0476-0.0476 0.0476 (  3224 PWs)   bands (ev):

     6.5026  10.0983  10.0983  10.0983  10.5125  10.5126  10.5126  11.7260
    12.1336  12.1336  12.6907  12.6907  12.6907  13.0838  13.0838  13.3311
    13.3312  13.3312  13.8750  13.8750  13.8751  17.0341  17.0341  17.0341
    25.3304  25.3305  25.3305  26.5969  26.5969  26.5970  31.1768  31.1769
    31.1769  33.4879  36.1720  36.1721  36.1721  39.2584  41.1445  41.1445
    42.8180  42.8181  42.8181  46.5995  47.6549  47.6549  51.6511  51.6511
    55.1143  55.2359  55.2361  55.2361

          k = 0.0476-0.0476 0.0952 (  3245 PWs)   bands (ev):

     7.4842   9.9046  10.4814  10.4815  10.7982  10.8264  10.8264  11.5165
    11.9781  11.9781  12.1726  12.2139  12.2732  12.9287  12.9991  13.0851
    13.0855  13.3235  13.7777  13.7777  13.8101  14.8018  18.3765  18.3765
    22.7114  22.7114  26.6242  27.2481  27.2481  30.3637  30.3637  30.7504
    30.9530  32.6566  36.6512  37.7820  37.8568  38.7966  38.7966  42.3672
    43.5103  44.4768  47.0277  47.0278  47.8897  49.0902  50.2074  50.2075
    50.7030  53.0242  53.0852  55.6653

          k =-0.0952 0.0476 0.0476 (  3245 PWs)   bands (ev):

     7.4842   9.9046  10.4814  10.4815  10.7982  10.8264  10.8264  11.5165
    11.9781  11.9781  12.1726  12.2139  12.2732  12.9287  12.9991  13.0851
    13.0855  13.3235  13.7777  13.7777  13.8101  14.8018  18.3765  18.3765
    22.7114  22.7114  26.6242  27.2481  27.2482  30.3637  30.3637  30.7504
    30.9530  32.6566  36.6512  37.7820  37.8568  38.7966  38.7966  42.3672
    43.5103  44.4768  47.0278  47.0278  47.8897  49.0902  50.2074  50.2075
    50.7030  53.0242  53.0852  55.6653

          k = 0.0476-0.0476-0.1427 (  3232 PWs)   bands (ev):

     8.8526   8.8607  10.8686  10.8688  10.9267  10.9268  11.1638  11.1766
    11.5842  11.5842  12.0692  12.0836  12.5439  12.5488  12.9173  12.9174
    13.4880  13.4981  13.5985  13.6007  13.7217  13.7217  19.5253  19.5253
    21.1502  21.1502  28.2115  28.2123  28.4485  28.4539  28.9327  28.9339
    34.9372  34.9517  35.4064  35.4351  38.0862  38.1162  42.2108  42.2109
    44.7554  44.7717  45.3760  45.3761  49.4760  49.4986  50.9026  50.9104
    52.1929  52.1930  53.6865  53.6883

          k = 0.0952-0.0476 0.0952 (  3231 PWs)   bands (ev):

     8.3231  10.2223  10.2224  10.5085  11.1138  11.1598  11.1599  11.5616
    11.7741  11.7742  11.9074  12.1323  12.2581  12.7364  12.7365  12.7530
    13.0560  13.6110  13.6799  13.6956  13.6960  15.8167  15.8167  18.6283
    20.8078  23.9082  23.9082  27.9468  28.0602  31.1395  31.1395  32.1263
    32.1264  34.0230  35.2472  36.9149  39.3308  39.3309  40.1606  43.0447
    43.7417  44.7910  46.4700  46.4700  49.1993  49.1994  50.4248  50.6028
    50.9319  51.6258  52.3087  52.9336

          k =-0.0952 0.0476 0.0952 (  3231 PWs)   bands (ev):

     8.3231  10.2223  10.2224  10.5085  11.1138  11.1598  11.1599  11.5616
    11.7741  11.7742  11.9074  12.1323  12.2581  12.7364  12.7365  12.7530
    13.0560  13.6110  13.6799  13.6956  13.6960  15.8167  15.8167  18.6283
    20.8078  23.9082  23.9082  27.9468  28.0602  31.1395  31.1396  32.1263
    32.1264  34.0230  35.2472  36.9149  39.3308  39.3309  40.1606  43.0447
    43.7417  44.7910  46.4700  46.4700  49.1993  49.1994  50.4248  50.6028
    50.9319  51.6258  52.3087  52.9335

          k = 0.0952-0.0476-0.1427 (  3234 PWs)   bands (ev):

     9.4038   9.4088  10.4429  10.4444  11.3271  11.3275  11.4705  11.4809
    11.7788  11.7832  11.8972  11.9067  12.4056  12.4092  12.6171  12.6194
    13.3512  13.3552  13.5788  13.5830  14.2725  14.2741  17.1905  17.1985
    21.8206  21.8268  25.6668  25.6712  29.4390  29.4429  33.0443  33.0459
    33.2574  33.2609  36.8941  36.9276  40.1403  40.1476  40.4496  40.4556
    45.1980  45.2008  45.6833  45.6994  47.7070  47.7156  50.5733  50.5867
    51.7941  51.8019  53.8931  53.9084

          k = 0.0952-0.0952 0.0952 (  3253 PWs)   bands (ev):

     8.8669  10.0573  10.0574  10.0574  11.5184  11.5185  11.5185  12.0324
    12.0913  12.0913  12.0940  12.1013  12.1013  12.3823  12.3823  12.3824
    13.4589  13.4589  13.8238  13.8238  13.8238  16.1950  16.1950  16.1950
    21.4152  21.4152  21.4153  25.1556  32.5056  32.5056  32.5057  35.2505
    35.2505  35.2505  37.2801  37.2802  37.2803  37.7974  39.9587  39.9587
    44.4521  44.4521  47.7809  48.0729  48.0729  48.0733  48.1473  48.1474
    48.1474  52.4571  52.4573  52.4573

          k = 0.0952-0.0952-0.1427 (  3238 PWs)   bands (ev):

     9.4923   9.4936   9.9887   9.9888  11.6383  11.6384  11.9210  11.9289
    12.1412  12.1423  12.2609  12.2622  12.2733  12.2815  12.3768  12.3770
    13.7438  13.7445  13.7521  13.7524  14.1630  14.1635  16.4792  16.4792
    20.3863  20.3863  22.9709  22.9754  33.4211  33.4212  34.6339  34.6340
    36.3290  36.3430  37.2493  37.2569  38.9901  39.0139  39.4465  39.4465
    44.6591  44.6592  44.9041  44.9160  46.0226  46.0258  48.5582  48.5582
    49.6117  49.6166  52.9861  52.9864

 ------ SPIN DOWN ----------


          k = 0.0000 0.0000 0.0000 (  3239 PWs)   bands (ev):

     5.3783  10.1788  10.1788  10.1788  10.8882  10.8884  10.8884  12.8301
    12.8301  12.8301  13.9087  13.9087  14.6608  14.6609  14.6609  14.9462
    14.9462  14.9462  14.9462  14.9462  14.9462  16.9967  16.9968  16.9968
    24.1206  24.1207  24.1207  29.5596  29.5596  29.5596  29.5597  29.5597
    29.5597  34.8154  34.8154  34.8154  38.1411  38.1413  38.1413  38.2956
    42.4494  42.4494  42.4494  46.1489  46.1489  46.1489  48.0212  55.3664
    55.3664  55.3664  58.1332  59.5520

          k = 0.0000 0.0000 0.0476 (  3227 PWs)   bands (ev):

     5.7446  10.1545  10.3731  10.3731  11.0077  11.0121  11.0122  12.6880
    12.9365  12.9365  13.7810  13.9574  14.1027  14.1028  14.4938  14.4938
    14.6089  14.7535  14.7535  14.9465  14.9465  15.5447  18.1412  18.1412
    24.2014  24.2014  26.2662  27.8899  27.8900  28.4770  28.4771  30.1364
    30.1364  34.9189  36.9051  36.9052  37.7267  38.2707  40.0750  40.0751
    40.2992  40.2992  40.8531  47.5171  48.1075  48.1075  49.2290  51.5560
    56.4845  56.4845  56.6079  56.6080

          k = 0.0000 0.0000 0.0952 (  3234 PWs)   bands (ev):

     6.7983   9.7180  10.8346  10.8347  11.3408  11.3900  11.3901  12.3097
    12.9557  12.9558  13.2463  13.2463  13.4601  13.6810  14.0816  14.0816
    14.0922  14.2786  14.2786  14.4682  14.9471  14.9471  20.1822  20.1823
    24.4743  24.4743  25.1883  25.1883  26.7798  26.7798  30.4599  31.7501
    31.7501  35.2444  36.6979  37.1070  37.1070  38.2644  38.8279  40.8742
    40.8743  44.2191  44.2192  44.3711  50.8883  50.9598  50.9598  50.9843
    50.9843  54.9389  56.1865  56.1866

          k =-0.0000-0.0000-0.1427 (  3218 PWs)   bands (ev):

     8.3366   8.3466  11.1264  11.1265  11.8061  11.8213  12.0287  12.0288
    12.0431  12.0433  13.1828  13.2046  13.7166  13.7166  13.7278  13.7278
    13.8131  13.8131  14.2746  14.2827  14.9474  14.9474  22.5520  22.5521
    22.5772  22.5773  24.7977  24.7978  25.8937  25.8938  34.1478  34.1478
    34.1650  34.1650  34.8755  34.9130  35.8244  35.8346  40.4386  40.4978
    45.6002  45.6002  45.6521  45.6522  47.6999  47.7000  52.4866  52.4866
    54.0495  54.0495  54.0963  54.0963

          k = 0.0000 0.0476 0.0476 (  3227 PWs)   bands (ev):

     6.1032  10.3655  10.3655  10.5552  11.1116  11.1220  11.1221  12.6144
    12.9869  12.9913  13.7014  13.7378  13.7429  13.7597  13.9579  14.3553
    14.4814  14.4814  14.7523  14.7524  14.8232  16.7214  16.7214  18.9699
    24.1636  25.2337  26.4403  26.4404  28.3819  28.3819  28.9833  28.9834
    30.6725  36.1159  36.1451  37.1033  37.1034  37.3560  40.2408  40.2408
    41.1966  42.6981  43.5070  45.1819  46.4303  49.9546  50.3876  53.2741
    53.6418  55.3194  55.3196  56.2516

          k = 0.0000 0.0476 0.0952 (  3245 PWs)   bands (ev):

     7.1329   9.9685  10.8818  11.0001  11.3951  11.4277  11.4692  12.3019
    12.6792  12.8483  13.0412  13.0833  13.2625  13.5836  14.0057  14.0909
    14.1611  14.2477  14.2770  14.7493  14.7589  15.1491  18.3600  20.7913
    22.2839  24.8415  25.6606  26.6729  27.5318  29.7212  29.9680  30.0327
    31.1184  33.8074  34.5152  37.7270  38.6760  40.3476  40.5223  40.8748
    41.1242  44.1293  45.2449  47.1318  47.7146  48.5771  49.8846  51.2677
    52.9031  53.1778  55.0447  56.4611

          k =-0.0000 0.0476-0.1427 (  3240 PWs)   bands (ev):

     8.6304   8.6399  11.2695  11.2707  11.8487  11.8629  11.8677  11.8793
    12.0461  12.0603  12.9047  12.9216  13.7199  13.7312  13.7974  13.7997
    13.8030  13.8050  14.5041  14.5046  14.7468  14.7492  20.1652  20.1779
    23.0642  23.0866  25.5795  25.5977  28.4284  28.4350  31.6132  31.6198
    32.0818  32.0862  35.8389  35.8807  38.8343  38.8366  42.3545  42.3916
    43.1068  43.1216  45.8742  45.9233  50.1342  50.1763  50.2842  50.3046
    52.5282  52.5448  53.3718  53.3846

          k = 0.0000 0.0952 0.0952 (  3227 PWs)   bands (ev):

     8.0830  10.6068  10.6068  11.3637  11.4460  11.6835  11.6838  12.2040
    12.3503  12.3503  12.5240  12.9216  13.4065  13.4799  13.7783  13.9170
    13.9171  14.2810  14.2810  14.4710  14.5478  16.2913  16.2913  19.6122
    22.3332  25.3626  26.9485  26.9486  28.0028  28.0029  31.1213  31.7336
    31.7352  31.8112  33.6625  36.8798  41.4703  41.8684  41.8685  43.1167
    43.3015  43.8213  43.8214  47.3185  47.3658  48.5272  48.5274  51.7412
    52.0752  52.1396  53.4112  55.2601

          k =-0.0000 0.0952-0.1427 (  3252 PWs)   bands (ev):

     9.4295   9.4377  11.2198  11.2284  11.8491  11.8500  11.9586  11.9722
    12.0739  12.0873  12.5978  12.6085  13.5727  13.5729  13.6454  13.6471
    13.7675  13.7792  14.3200  14.3271  15.1721  15.1742  17.6769  17.6865
    24.4352  24.4517  26.3764  26.3914  28.8165  28.8237  29.6324  29.6348
    33.0247  33.0292  36.8043  36.8452  40.3665  40.3737  42.9984  43.0057
    43.2405  43.2438  46.6656  46.7053  48.0019  48.0266  50.3709  50.3932
    51.8733  51.9081  53.4810  53.4896

          k =-0.0000-0.1427-0.1427 (  3216 PWs)   bands (ev):

    10.4376  10.4448  10.4448  10.4519  12.0466  12.0596  12.0596  12.0725
    12.2962  12.3003  12.3003  12.3043  13.4286  13.4299  13.4299  13.4314
    13.9452  13.9558  13.9558  13.9664  16.1155  16.1194  16.1194  16.1233
    26.3967  26.4076  26.4077  26.4184  27.6986  27.7078  27.7079  27.7173
    37.9625  37.9734  37.9734  37.9848  38.4596  38.4727  38.4727  38.4847
    47.0650  47.0654  47.0655  47.0665  49.1640  49.1866  49.1866  49.2091
    51.9252  51.9282  51.9283  51.9311

          k = 0.0476 0.0476 0.0476 (  3224 PWs)   bands (ev):

     6.4518  10.5534  10.5534  10.5534  11.2131  11.2133  11.2133  12.5595
    13.0119  13.0119  13.4015  13.4015  13.4015  13.8702  13.8702  14.1622
    14.1623  14.1623  14.8235  14.8235  14.8236  17.3751  17.3752  17.3752
    25.4620  25.4620  25.4620  26.7702  26.7702  26.7703  31.1986  31.1988
    31.1988  33.5545  36.2671  36.2671  36.2671  39.1031  41.1971  41.1971
    42.9021  42.9022  42.9022  46.5121  47.6121  47.6121  51.8179  51.8179
    55.1891  55.1894  55.1894  55.4518

          k = 0.0476 0.0476 0.0952 (  3245 PWs)   bands (ev):

     7.4491  10.1673  11.0130  11.0131  11.4547  11.4549  11.5107  12.3122
    12.6805  12.6806  12.8458  13.0438  13.1337  13.7750  13.8089  13.8720
    13.8727  14.1459  14.7113  14.7411  14.7412  15.4321  18.7034  18.7035
    22.9216  22.9216  26.7685  27.3972  27.3972  30.4386  30.4387  30.8646
    31.0405  32.7031  36.7258  37.6880  37.9339  38.8270  38.8270  42.3748
    43.5906  44.4942  47.0720  47.0720  47.9318  49.0360  50.1964  50.1964
    50.7100  52.9537  53.0453  55.7801

          k = 0.0476 0.0476-0.1427 (  3232 PWs)   bands (ev):

     8.8868   8.8956  11.4407  11.4408  11.5081  11.5083  11.9141  11.9281
    12.2982  12.2983  12.8181  12.8341  13.3951  13.3991  13.6811  13.6812
    14.2924  14.3033  14.4603  14.4615  14.6935  14.6936  19.7827  19.7827
    21.4541  21.4541  28.3265  28.3273  28.5907  28.5955  29.0473  29.0487
    35.0067  35.0210  35.3792  35.4090  38.1634  38.1936  42.1922  42.1922
    44.8417  44.8593  45.3651  45.3652  49.3966  49.4193  50.8569  50.8648
    52.2264  52.2264  53.8649  53.8680

          k = 0.0476 0.0952 0.0952 (  3231 PWs)   bands (ev):

     8.3351  10.6152  10.6153  11.1269  11.6209  11.7617  11.7618  12.2883
    12.4943  12.4943  12.6193  12.9331  13.0824  13.5355  13.5360  13.5386
    13.8994  14.4601  14.6084  14.6089  14.6261  16.3701  16.3701  18.9031
    21.1517  24.1253  24.1253  28.1077  28.1890  31.2034  31.2034  32.2189
    32.2190  34.0777  35.2728  36.9402  39.3457  39.3457  40.0844  43.1582
    43.7336  44.7368  46.4640  46.4641  49.2541  49.2542  50.3566  50.5864
    50.9084  51.6984  52.3744  52.8607

          k = 0.0476 0.0952-0.1427 (  3234 PWs)   bands (ev):

     9.5526   9.5591  10.9772  10.9801  11.8810  11.8824  12.1158  12.1277
    12.4721  12.4776  12.6569  12.6676  13.2103  13.2130  13.3918  13.3937
    14.2156  14.2214  14.5145  14.5192  15.0653  15.0674  17.6018  17.6094
    22.1211  22.1267  25.8672  25.8710  29.5391  29.5439  33.1016  33.1021
    33.3259  33.3303  36.9073  36.9404  40.1248  40.1316  40.4720  40.4784
    45.1855  45.1878  45.6747  45.6917  47.6873  47.6971  50.6116  50.6250
    51.7338  51.7413  53.9747  53.9882

          k = 0.0476-0.1427-0.1427 (  3228 PWs)   bands (ev):

    10.3287  10.3327  10.3327  10.3365  12.2832  12.2890  12.2890  12.2947
    12.5021  12.5091  12.5091  12.5161  13.1530  13.1561  13.1561  13.1592
    14.2406  14.2479  14.2479  14.2552  15.9898  15.9940  15.9940  15.9982
    23.7113  23.7153  23.7154  23.7193  31.0590  31.0614  31.0614  31.0640
    38.2426  38.2491  38.2491  38.2620  38.2897  38.3040  38.3041  38.3116
    46.5938  46.5938  46.5939  46.5948  46.7780  46.7911  46.7911  46.8035
    54.8726  54.8822  54.8822  55.0958

          k = 0.0952 0.0952 0.0952 (  3253 PWs)   bands (ev):

     9.0001  10.5671  10.5672  10.5672  12.0774  12.0775  12.0775  12.5553
    12.7730  12.7730  12.7734  12.9003  12.9003  13.1734  13.1734  13.1735
    14.3399  14.3399  14.7515  14.7515  14.7516  16.6215  16.6216  16.6216
    21.7538  21.7538  21.7539  25.3810  32.5521  32.5521  32.5521  35.3119
    35.3120  35.3120  37.2929  37.2929  37.2930  37.6265  40.0448  40.0448
    44.4615  44.4615  47.7960  48.0215  48.0215  48.0219  48.1487  48.1489
    48.1489  52.4884  52.4886  52.4886

          k = 0.0952 0.0952-0.1427 (  3238 PWs)   bands (ev):

     9.8238   9.8268  10.5269  10.5269  12.2699  12.2700  12.5797  12.5875
    12.8261  12.8360  12.9334  12.9342  12.9768  12.9768  13.0409  13.0409
    14.6525  14.6538  14.6806  14.6808  14.8782  14.8799  16.8108  16.8108
    20.8233  20.8233  23.2606  23.2646  33.4290  33.4291  34.7199  34.7200
    36.2200  36.2348  37.3220  37.3290  39.0705  39.0940  39.4211  39.4211
    44.6857  44.6858  44.8814  44.8934  46.0307  46.0345  48.5181  48.5181
    49.6652  49.6701  53.0952  53.0955

          k = 0.0952-0.1427-0.1427 (  3224 PWs)   bands (ev):

    10.1383  10.1393  10.1393  10.1400  12.6154  12.6174  12.6174  12.6193
    12.8480  12.8501  12.8501  12.8522  13.2590  13.2643  13.2643  13.2695
    14.5865  14.5904  14.5904  14.5944  15.4984  15.5031  15.5031  15.5078
    21.4892  21.4925  21.4925  21.4958  35.1322  35.1351  35.1352  35.1382
    38.1895  38.1950  38.1950  38.2007  39.0105  39.0165  39.0166  39.0221
    44.1271  44.1332  44.1332  44.1393  45.1553  45.1571  45.1571  45.1588
    50.5164  50.5188  50.5188  50.5215

          k =-0.1427-0.1427-0.1427 (  3184 PWs)   bands (ev):

    10.0538  10.0539  10.0539  10.0539  12.7356  12.7356  12.7356  12.7357
    12.7357  12.7357  12.7357  12.7357  14.1965  14.1966  14.1966  14.1968
    14.7232  14.7232  14.7233  14.7233  14.7233  14.7233  14.7233  14.7233
    20.7009  20.7009  20.7009  20.7009  36.7720  36.7722  36.7722  36.7722
    39.6539  39.6539  39.6539  39.6539  39.6539  39.6541  39.6541  39.6541
    42.8400  42.8400  42.8400  42.8401  42.8401  42.8401  42.8402  42.8402
    48.8963  48.8963  48.8963  48.8964

          k =-0.0476 0.0000 0.0476 (  3227 PWs)   bands (ev):

     6.1032  10.3655  10.3655  10.5552  11.1116  11.1220  11.1221  12.6144
    12.9869  12.9913  13.7014  13.7378  13.7429  13.7597  13.9579  14.3553
    14.4814  14.4814  14.7523  14.7524  14.8232  16.7214  16.7214  18.9699
    24.1636  25.2337  26.4403  26.4404  28.3819  28.3820  28.9833  28.9834
    30.6725  36.1159  36.1451  37.1033  37.1034  37.3560  40.2407  40.2409
    41.1966  42.6981  43.5070  45.1819  46.4303  49.9546  50.3876  53.2741
    53.6418  55.3194  55.3196  56.2516

          k =-0.0476 0.0000 0.0952 (  3245 PWs)   bands (ev):

     7.1329   9.9685  10.8818  11.0001  11.3951  11.4277  11.4692  12.3019
    12.6792  12.8483  13.0412  13.0833  13.2625  13.5836  14.0057  14.0909
    14.1611  14.2477  14.2770  14.7493  14.7589  15.1491  18.3600  20.7913
    22.2839  24.8415  25.6606  26.6729  27.5318  29.7212  29.9680  30.0327
    31.1184  33.8074  34.5152  37.7270  38.6760  40.3476  40.5223  40.8748
    41.1242  44.1293  45.2449  47.1318  47.7146  48.5771  49.8846  51.2677
    52.9031  53.1778  55.0447  56.4611

          k =-0.0952 0.0000 0.0952 (  3227 PWs)   bands (ev):

     8.0830  10.6068  10.6068  11.3637  11.4460  11.6835  11.6838  12.2040
    12.3503  12.3504  12.5240  12.9216  13.4065  13.4799  13.7783  13.9170
    13.9172  14.2810  14.2810  14.4710  14.5478  16.2913  16.2913  19.6122
    22.3332  25.3626  26.9485  26.9486  28.0028  28.0030  31.1213  31.7336
    31.7352  31.8112  33.6625  36.8798  41.4703  41.8685  41.8685  43.1167
    43.3015  43.8213  43.8214  47.3185  47.3658  48.5272  48.5274  51.7412
    52.0752  52.1396  53.4112  55.2592

          k = 0.0476-0.0476 0.0476 (  3224 PWs)   bands (ev):

     6.4518  10.5534  10.5534  10.5534  11.2131  11.2133  11.2133  12.5595
    13.0119  13.0119  13.4015  13.4015  13.4015  13.8702  13.8702  14.1622
    14.1623  14.1623  14.8235  14.8235  14.8236  17.3751  17.3751  17.3752
    25.4620  25.4620  25.4620  26.7702  26.7702  26.7703  31.1987  31.1987
    31.1988  33.5545  36.2671  36.2671  36.2672  39.1031  41.1971  41.1971
    42.9021  42.9022  42.9022  46.5121  47.6121  47.6121  51.8179  51.8179
    55.1891  55.1893  55.1894  55.4518

          k = 0.0476-0.0476 0.0952 (  3245 PWs)   bands (ev):

     7.4491  10.1673  11.0130  11.0131  11.4548  11.4549  11.5107  12.3122
    12.6805  12.6806  12.8458  13.0438  13.1337  13.7750  13.8089  13.8720
    13.8726  14.1459  14.7113  14.7411  14.7412  15.4321  18.7034  18.7035
    22.9216  22.9216  26.7685  27.3972  27.3972  30.4386  30.4386  30.8646
    31.0405  32.7031  36.7258  37.6880  37.9339  38.8270  38.8270  42.3748
    43.5906  44.4942  47.0719  47.0720  47.9318  49.0360  50.1964  50.1965
    50.7100  52.9537  53.0453  55.7801

          k =-0.0952 0.0476 0.0476 (  3245 PWs)   bands (ev):

     7.4491  10.1673  11.0130  11.0131  11.4547  11.4549  11.5107  12.3122
    12.6805  12.6806  12.8458  13.0438  13.1337  13.7750  13.8089  13.8720
    13.8727  14.1459  14.7113  14.7411  14.7412  15.4321  18.7034  18.7035
    22.9216  22.9216  26.7685  27.3972  27.3972  30.4386  30.4387  30.8646
    31.0405  32.7031  36.7258  37.6880  37.9339  38.8270  38.8270  42.3748
    43.5906  44.4942  47.0719  47.0720  47.9318  49.0360  50.1964  50.1964
    50.7100  52.9537  53.0453  55.7802

          k = 0.0476-0.0476-0.1427 (  3232 PWs)   bands (ev):

     8.8868   8.8956  11.4408  11.4408  11.5081  11.5083  11.9141  11.9281
    12.2982  12.2983  12.8181  12.8341  13.3951  13.3991  13.6811  13.6812
    14.2924  14.3033  14.4603  14.4615  14.6935  14.6936  19.7827  19.7827
    21.4541  21.4541  28.3265  28.3272  28.5907  28.5955  29.0473  29.0487
    35.0067  35.0210  35.3792  35.4090  38.1634  38.1936  42.1921  42.1922
    44.8417  44.8593  45.3651  45.3652  49.3966  49.4193  50.8569  50.8648
    52.2264  52.2265  53.8649  53.8680

          k = 0.0952-0.0476 0.0952 (  3231 PWs)   bands (ev):

     8.3351  10.6152  10.6153  11.1269  11.6209  11.7617  11.7618  12.2883
    12.4943  12.4943  12.6193  12.9331  13.0824  13.5355  13.5360  13.5386
    13.8994  14.4601  14.6084  14.6089  14.6261  16.3701  16.3701  18.9031
    21.1517  24.1253  24.1253  28.1077  28.1890  31.2034  31.2034  32.2189
    32.2190  34.0777  35.2728  36.9402  39.3457  39.3457  40.0844  43.1582
    43.7336  44.7368  46.4640  46.4641  49.2541  49.2542  50.3566  50.5864
    50.9084  51.6984  52.3744  52.8607

          k =-0.0952 0.0476 0.0952 (  3231 PWs)   bands (ev):

     8.3351  10.6152  10.6153  11.1269  11.6209  11.7617  11.7618  12.2883
    12.4943  12.4943  12.6193  12.9331  13.0824  13.5355  13.5360  13.5387
    13.8994  14.4601  14.6084  14.6089  14.6261  16.3701  16.3701  18.9031
    21.1517  24.1253  24.1253  28.1077  28.1890  31.2033  31.2034  32.2189
    32.2189  34.0777  35.2728  36.9402  39.3456  39.3457  40.0844  43.1582
    43.7336  44.7368  46.4640  46.4641  49.2541  49.2542  50.3566  50.5864
    50.9084  51.6984  52.3744  52.8607

          k = 0.0952-0.0476-0.1427 (  3234 PWs)   bands (ev):

     9.5526   9.5591  10.9772  10.9801  11.8810  11.8824  12.1158  12.1277
    12.4721  12.4776  12.6569  12.6676  13.2103  13.2130  13.3918  13.3937
    14.2156  14.2214  14.5145  14.5192  15.0653  15.0674  17.6018  17.6094
    22.1211  22.1267  25.8672  25.8710  29.5391  29.5439  33.1016  33.1021
    33.3259  33.3303  36.9073  36.9404  40.1248  40.1316  40.4720  40.4784
    45.1855  45.1878  45.6747  45.6917  47.6873  47.6971  50.6116  50.6250
    51.7338  51.7413  53.9747  53.9882

          k = 0.0952-0.0952 0.0952 (  3253 PWs)   bands (ev):

     9.0001  10.5671  10.5672  10.5672  12.0774  12.0775  12.0775  12.5553
    12.7730  12.7730  12.7734  12.9003  12.9003  13.1734  13.1734  13.1735
    14.3399  14.3399  14.7515  14.7515  14.7516  16.6216  16.6216  16.6216
    21.7538  21.7538  21.7539  25.3810  32.5520  32.5521  32.5521  35.3119
    35.3120  35.3120  37.2929  37.2929  37.2931  37.6265  40.0448  40.0448
    44.4615  44.4615  47.7960  48.0214  48.0215  48.0219  48.1488  48.1488
    48.1489  52.4884  52.4886  52.4886

          k = 0.0952-0.0952-0.1427 (  3238 PWs)   bands (ev):

     9.8238   9.8268  10.5269  10.5269  12.2699  12.2700  12.5797  12.5875
    12.8261  12.8360  12.9334  12.9342  12.9768  12.9768  13.0409  13.0409
    14.6525  14.6538  14.6806  14.6808  14.8782  14.8799  16.8108  16.8108
    20.8233  20.8233  23.2606  23.2646  33.4290  33.4291  34.7199  34.7200
    36.2200  36.2348  37.3220  37.3290  39.0705  39.0940  39.4211  39.4212
    44.6857  44.6858  44.8814  44.8934  46.0307  46.0345  48.5181  48.5182
    49.6652  49.6701  53.0952  53.0956

     the Fermi energy is    14.4962 ev

!    total energy              =    -343.63027000 Ry
     Harris-Foulkes estimate   =    -343.63027000 Ry
     estimated scf accuracy    <          2.1E-11 Ry

     The total energy is the sum of the following terms:

     one-electron contribution =      -6.35739877 Ry
     hartree contribution      =      60.34113711 Ry
     xc contribution           =    -120.51464192 Ry
     ewald contribution        =    -277.05093361 Ry
     Dispersion Correction     =      -0.04785723 Ry
     smearing contrib. (-TS)   =      -0.00057558 Ry

     total magnetization       =     2.84 Bohr mag/cell
     absolute magnetization    =     3.25 Bohr mag/cell

     convergence has been achieved in  11 iterations

     Forces acting on atoms (Ry/au):

     atom    1 type  1   force =    -0.00108674   -0.00108674    0.00108703
     atom    2 type  1   force =     0.00108645    0.00108645    0.00108645
     atom    3 type  1   force =    -0.00108674    0.00108703   -0.00108674
     atom    4 type  1   force =     0.00108703   -0.00108674   -0.00108674

     Total force =     0.003765     Total SCF correction =     0.000004


     entering subroutine stress ...

          total   stress  (Ry/bohr**3)                   (kbar)     P=    0.49
   0.00000334   0.00000000   0.00000000          0.49      0.00      0.00
   0.00000000   0.00000334   0.00000000          0.00      0.49      0.00
   0.00000000   0.00000000   0.00000334          0.00      0.00      0.49


     number of scf cycles    =   3
     number of bfgs steps    =   2

     enthalpy old            =    -343.6302390748 Ry
     enthalpy new            =    -343.6302699985 Ry

     CASE: enthalpy_new < enthalpy_old

     new trust radius        =       0.0048104580 bohr
     new conv_thr            =            1.0E-10 Ry

     new unit-cell volume =    289.97892 a.u.^3 (    42.97044 Ang^3 )

CELL_PARAMETERS (alat=  1.88972590)
   3.502595557   0.000000087   0.000000087
   0.000000087   3.502595557   0.000000087
   0.000000087   0.000000087   3.502595557

ATOMIC_POSITIONS (alat)
Ni1      1.755410629   1.755410629   0.003663210
Ni1      0.003661898   0.003661898   0.003661898
Ni1      1.755410629   0.003663210   1.755410629
Ni1      0.003663210   1.755410629   1.755410629



     Writing output data file Ni-ferromag.save
     NEW-OLD atomic charge density approx. for the potential

     Check: negative/imaginary core charge=   -0.000005    0.000000
     extrapolated charge   39.99017, renormalised to   40.00000

     total cpu time spent up to now is     2170.5 secs

     Self-consistent Calculation

     iteration #  1     ecut=    75.00 Ry     beta=0.20
     Davidson diagonalization with overlap
     ethr =  1.00E-06,  avg # of iterations =  3.5

     Threshold (ethr) on eigenvalues was too large:
     Diagonalizing with lowered threshold

     Davidson diagonalization with overlap
     ethr =  9.24E-08,  avg # of iterations =  1.0

     total cpu time spent up to now is     2294.5 secs

     total energy              =    -343.63027548 Ry
     Harris-Foulkes estimate   =    -343.64063095 Ry
     estimated scf accuracy    <       0.00003705 Ry

     total magnetization       =     2.83 Bohr mag/cell
     absolute magnetization    =     3.25 Bohr mag/cell

     iteration #  2     ecut=    75.00 Ry     beta=0.20
     Davidson diagonalization with overlap
     ethr =  9.26E-08,  avg # of iterations =  1.1

     total cpu time spent up to now is     2343.4 secs

     total energy              =    -343.63029531 Ry
     Harris-Foulkes estimate   =    -343.63029776 Ry
     estimated scf accuracy    <       0.00001592 Ry

     total magnetization       =     2.84 Bohr mag/cell
     absolute magnetization    =     3.25 Bohr mag/cell

     iteration #  3     ecut=    75.00 Ry     beta=0.20
     Davidson diagonalization with overlap
     ethr =  3.98E-08,  avg # of iterations =  1.0

     total cpu time spent up to now is     2392.0 secs

     total energy              =    -343.63029253 Ry
     Harris-Foulkes estimate   =    -343.63029574 Ry
     estimated scf accuracy    <       0.00000679 Ry

     total magnetization       =     2.84 Bohr mag/cell
     absolute magnetization    =     3.25 Bohr mag/cell

     iteration #  4     ecut=    75.00 Ry     beta=0.20
     Davidson diagonalization with overlap
     ethr =  1.70E-08,  avg # of iterations =  1.4

     total cpu time spent up to now is     2441.2 secs

     total energy              =    -343.63029340 Ry
     Harris-Foulkes estimate   =    -343.63029694 Ry
     estimated scf accuracy    <       0.00000882 Ry

     total magnetization       =     2.83 Bohr mag/cell
     absolute magnetization    =     3.25 Bohr mag/cell

     iteration #  5     ecut=    75.00 Ry     beta=0.20
     Davidson diagonalization with overlap
     ethr =  1.70E-08,  avg # of iterations =  1.0

     total cpu time spent up to now is     2489.8 secs

     total energy              =    -343.63029476 Ry
     Harris-Foulkes estimate   =    -343.63029478 Ry
     estimated scf accuracy    <       0.00000008 Ry

     total magnetization       =     2.84 Bohr mag/cell
     absolute magnetization    =     3.25 Bohr mag/cell

     iteration #  6     ecut=    75.00 Ry     beta=0.20
     Davidson diagonalization with overlap
     ethr =  2.04E-10,  avg # of iterations =  2.0

     total cpu time spent up to now is     2542.0 secs

     total energy              =    -343.63029480 Ry
     Harris-Foulkes estimate   =    -343.63029480 Ry
     estimated scf accuracy    <       0.00000010 Ry

     total magnetization       =     2.84 Bohr mag/cell
     absolute magnetization    =     3.25 Bohr mag/cell

     iteration #  7     ecut=    75.00 Ry     beta=0.20
     Davidson diagonalization with overlap
     ethr =  2.04E-10,  avg # of iterations =  1.0

     total cpu time spent up to now is     2590.7 secs

     total energy              =    -343.63029472 Ry
     Harris-Foulkes estimate   =    -343.63029480 Ry
     estimated scf accuracy    <       0.00000010 Ry

     total magnetization       =     2.84 Bohr mag/cell
     absolute magnetization    =     3.25 Bohr mag/cell

     iteration #  8     ecut=    75.00 Ry     beta=0.20
     Davidson diagonalization with overlap
     ethr =  2.04E-10,  avg # of iterations =  2.0

     total cpu time spent up to now is     2646.0 secs

     total energy              =    -343.63029478 Ry
     Harris-Foulkes estimate   =    -343.63029484 Ry
     estimated scf accuracy    <       0.00000026 Ry

     total magnetization       =     2.84 Bohr mag/cell
     absolute magnetization    =     3.25 Bohr mag/cell

     iteration #  9     ecut=    75.00 Ry     beta=0.20
     Davidson diagonalization with overlap
     ethr =  2.04E-10,  avg # of iterations =  1.1

     total cpu time spent up to now is     2694.8 secs

     total energy              =    -343.63029480 Ry
     Harris-Foulkes estimate   =    -343.63029480 Ry
     estimated scf accuracy    <       0.00000006 Ry

     total magnetization       =     2.84 Bohr mag/cell
     absolute magnetization    =     3.25 Bohr mag/cell

     iteration # 10     ecut=    75.00 Ry     beta=0.20
     Davidson diagonalization with overlap
     ethr =  1.61E-10,  avg # of iterations =  1.0

     total cpu time spent up to now is     2743.5 secs

     total energy              =    -343.63029477 Ry
     Harris-Foulkes estimate   =    -343.63029480 Ry
     estimated scf accuracy    <       0.00000007 Ry

     total magnetization       =     2.84 Bohr mag/cell
     absolute magnetization    =     3.25 Bohr mag/cell

     iteration # 11     ecut=    75.00 Ry     beta=0.20
     Davidson diagonalization with overlap
     ethr =  1.61E-10,  avg # of iterations =  1.0

     Magnetic moment per site:
     atom:    1    charge:    3.0037    magn:    0.3347    constr:    0.0000
     atom:    2    charge:    3.0018    magn:    0.3345    constr:    0.0000
     atom:    3    charge:    3.0037    magn:    0.3347    constr:    0.0000
     atom:    4    charge:    3.0037    magn:    0.3347    constr:    0.0000

     total cpu time spent up to now is     2792.1 secs

     End of self-consistent calculation

 ------ SPIN UP ------------


          k = 0.0000 0.0000 0.0000 (  3239 PWs)   bands (ev):

     5.4360   9.7201   9.7201   9.7201  10.1736  10.1736  10.1736  11.9537
    11.9537  11.9537  13.1332  13.1332  13.8515  13.8515  13.8515  13.9416
    13.9416  13.9416  13.9416  13.9416  13.9416  17.0803  17.0803  17.0803
    23.8220  23.8220  23.8220  29.5803  29.5803  29.5803  29.5804  29.5804
    29.5804  34.6591  34.6591  34.6591  38.0073  38.0075  38.0075  38.5078
    42.4874  42.4874  42.4874  46.0866  46.0866  46.0866  48.1897  55.1895
    55.1895  55.1895  57.6185  59.0398

          k =-0.0000-0.0000 0.0476 (  3227 PWs)   bands (ev):

     5.8023   9.7423   9.9044   9.9044  10.2841  10.3000  10.3000  11.8249
    12.0561  12.0561  13.0153  13.1800  13.2871  13.2871  13.6980  13.6980
    13.7655  13.7655  13.8020  13.9418  13.9418  15.4793  18.0395  18.0395
    23.9178  23.9178  26.0714  27.8282  27.8282  28.4569  28.4569  30.1408
    30.1408  34.7752  36.8323  36.8323  37.8723  38.1394  39.9650  39.9651
    40.2654  40.2654  40.9311  47.5066  48.1433  48.1433  49.1683  51.5752
    56.2860  56.2860  56.6915  56.6915

          k =-0.0000-0.0000 0.0952 (  3234 PWs)   bands (ev):

     6.8519   9.5132  10.3416  10.3416  10.5920  10.6834  10.6834  11.4806
    12.2306  12.2306  12.3530  12.3530  12.7272  13.3087  13.3145  13.3192
    13.3192  13.3265  13.3265  13.6677  13.9424  13.9424  20.0027  20.0027
    24.2348  24.2349  25.0541  25.0541  26.6889  26.6889  30.3716  31.7206
    31.7206  35.1383  36.7400  37.0440  37.0440  38.3623  38.6917  40.8774
    40.8774  44.1299  44.1300  44.1639  50.9428  51.0640  51.0640  51.0674
    51.0674  55.0535  55.9550  55.9550

          k = 0.0000 0.0000-0.1428 (  3218 PWs)   bands (ev):

     8.3509   8.3522  10.6178  10.6178  11.0262  11.0281  11.3295  11.3295
    11.3314  11.3314  12.5486  12.5513  12.8046  12.8046  12.8061  12.8061
    13.0705  13.0705  13.4863  13.4873  13.9426  13.9426  22.3874  22.3874
    22.3907  22.3907  24.6074  24.6075  25.7439  25.7439  34.0981  34.0981
    34.1004  34.1004  34.9190  34.9238  35.7851  35.7863  40.2827  40.2904
    45.6762  45.6762  45.6830  45.6830  47.6367  47.6367  52.3078  52.3079
    54.1895  54.1895  54.1958  54.1958

          k =-0.0000 0.0476 0.0476 (  3227 PWs)   bands (ev):

     6.1600   9.9407   9.9408  10.0677  10.4016  10.4016  10.4155  11.7649
    12.1012  12.1182  12.9408  12.9905  12.9992  12.9993  13.1752  13.5692
    13.6939  13.6939  13.7642  13.7642  13.8257  16.4119  16.4119  18.8096
    23.9116  25.1109  26.2586  26.2586  28.3061  28.3061  28.9494  28.9494
    30.6687  36.0491  36.1319  37.0408  37.0408  37.3468  40.1327  40.1327
    41.2855  42.6205  43.5467  45.2472  46.3798  49.8074  50.4717  53.1135
    53.6858  55.3675  55.3675  56.3213

          k =-0.0000 0.0476 0.0952 (  3245 PWs)   bands (ev):

     7.1818   9.7494  10.4230  10.4716  10.6835  10.7368  10.7559  11.4837
    11.9919  12.1316  12.2471  12.3646  12.3901  12.8235  13.2452  13.3238
    13.3307  13.3543  13.5068  13.7609  13.7669  14.4448  18.0268  20.5931
    22.0915  24.6207  25.5155  26.5446  27.4142  29.6198  29.9147  29.9681
    31.0288  33.7369  34.4806  37.6931  38.6465  40.4042  40.5829  40.7649
    41.1332  44.0571  45.0514  47.0758  47.8013  48.6045  49.9102  51.3521
    52.9575  53.2781  54.8358  56.2177

          k = 0.0000 0.0476-0.1428 (  3240 PWs)   bands (ev):

     8.6325   8.6337  10.7704  10.7705  11.0781  11.0799  11.1973  11.1988
    11.3441  11.3459  12.1753  12.1773  12.8054  12.8069  13.0354  13.0360
    13.0555  13.0556  13.6704  13.6704  13.7583  13.7586  19.8951  19.8967
    22.8870  22.8899  25.4229  25.4252  28.3217  28.3225  31.5094  31.5104
    32.0333  32.0339  35.8398  35.8453  38.8421  38.8425  42.2282  42.2330
    43.1293  43.1311  45.9526  45.9589  50.0979  50.1035  50.3702  50.3729
    52.6289  52.6310  53.2197  53.2214

          k =-0.0000 0.0952 0.0952 (  3227 PWs)   bands (ev):

     8.1086  10.3372  10.3372  10.7032  10.9518  10.9518  10.9655  11.4137
    11.6610  11.6610  11.8158  12.1343  12.4955  12.7373  13.0291  13.1844
    13.1844  13.3245  13.3245  13.4946  13.7101  15.6912  15.6912  19.3103
    22.1201  25.1713  26.7888  26.7888  27.9085  27.9085  30.9976  31.6541
    31.6542  31.7497  33.6179  36.8522  41.5420  41.8952  41.8952  43.0914
    43.4270  43.7885  43.7885  47.2081  47.3466  48.4926  48.4926  51.6923
    52.1946  52.2082  53.2183  55.3684

          k = 0.0000 0.0952-0.1428 (  3252 PWs)   bands (ev):

     9.3753   9.3763  10.8076  10.8088  11.2054  11.2070  11.2137  11.2138
    11.3628  11.3645  11.8696  11.8708  12.8428  12.8429  12.8429  12.8444
    12.9096  12.9098  13.3591  13.3599  14.3718  14.3721  17.2224  17.2237
    24.2437  24.2459  26.2384  26.2402  28.6643  28.6653  29.5506  29.5509
    32.9627  32.9632  36.8026  36.8080  40.3792  40.3803  43.0643  43.0653
    43.2328  43.2333  46.7537  46.7589  47.9409  47.9441  50.4432  50.4461
    51.7786  51.7832  53.5799  53.5812

          k = 0.0000-0.1428-0.1428 (  3216 PWs)   bands (ev):

    10.2282  10.2291  10.2291  10.2299  11.3239  11.3256  11.3256  11.3272
    11.6344  11.6348  11.6348  11.6353  12.6965  12.6967  12.6967  12.6968
    13.0096  13.0110  13.0110  13.0123  15.4421  15.4427  15.4427  15.4433
    26.2181  26.2196  26.2196  26.2211  27.5901  27.5912  27.5912  27.5924
    37.9068  37.9083  37.9083  37.9098  38.5124  38.5141  38.5142  38.5159
    47.1944  47.1944  47.1944  47.1944  49.2042  49.2071  49.2071  49.2100
    51.8384  51.8386  51.8387  51.8389

          k = 0.0476 0.0476 0.0476 (  3224 PWs)   bands (ev):

     6.5058  10.1017  10.1018  10.1018  10.5162  10.5162  10.5162  11.7300
    12.1379  12.1379  12.6950  12.6950  12.6950  13.0884  13.0884  13.3357
    13.3357  13.3357  13.8799  13.8799  13.8799  17.0394  17.0394  17.0394
    25.3371  25.3371  25.3371  26.6041  26.6041  26.6041  31.1841  31.1842
    31.1842  33.4956  36.1804  36.1805  36.1805  39.2657  41.1536  41.1536
    42.8278  42.8279  42.8279  46.6085  47.6642  47.6642  51.6633  51.6633
    55.1234  55.2462  55.2463  55.2463

          k = 0.0476 0.0476 0.0952 (  3245 PWs)   bands (ev):

     7.4875   9.9081  10.4851  10.4851  10.8020  10.8301  10.8301  11.5204
    11.9822  11.9823  12.1777  12.2172  12.2774  12.9332  13.0039  13.0896
    13.0897  13.3281  13.7825  13.7825  13.8148  14.8067  18.3821  18.3821
    22.7177  22.7177  26.6313  27.2553  27.2553  30.3712  30.3712  30.7579
    30.9603  32.6642  36.6596  37.7894  37.8655  38.8051  38.8051  42.3763
    43.5201  44.4862  47.0380  47.0380  47.9001  49.0997  50.2174  50.2174
    50.7132  53.0340  53.0954  55.6782

          k = 0.0476 0.0476-0.1428 (  3232 PWs)   bands (ev):

     8.8596   8.8607  10.8726  10.8726  10.9304  10.9305  11.1731  11.1748
    11.5881  11.5881  12.0795  12.0814  12.5504  12.5511  12.9219  12.9219
    13.4970  13.4984  13.6042  13.6045  13.7265  13.7265  19.5310  19.5310
    21.1565  21.1565  28.2191  28.2192  28.4582  28.4589  28.9403  28.9403
    34.9516  34.9535  35.4263  35.4301  38.1080  38.1120  42.2196  42.2196
    44.7726  44.7747  45.3855  45.3855  49.4954  49.4984  50.9159  50.9169
    52.2039  52.2040  53.6983  53.6984

          k = 0.0476 0.0952 0.0952 (  3231 PWs)   bands (ev):

     8.3265  10.2260  10.2260  10.5122  11.1177  11.1637  11.1637  11.5655
    11.7782  11.7782  11.9115  12.1363  12.2623  12.7410  12.7410  12.7574
    13.0604  13.6157  13.6851  13.7003  13.7003  15.8219  15.8219  18.6338
    20.8142  23.9149  23.9149  27.9561  28.0653  31.1467  31.1468  32.1343
    32.1343  34.0310  35.2550  36.9230  39.3394  39.3394  40.1685  43.0546
    43.7509  44.8000  46.4797  46.4797  49.2099  49.2099  50.4348  50.6127
    50.9423  51.6370  52.3192  52.9436

          k = 0.0476 0.0952-0.1428 (  3234 PWs)   bands (ev):

     9.4096   9.4102  10.4472  10.4474  11.3312  11.3313  11.4789  11.4803
    11.7848  11.7854  11.9052  11.9065  12.4115  12.4120  12.6225  12.6228
    13.3575  13.3580  13.5853  13.5858  14.2781  14.2783  17.1994  17.2004
    21.8297  21.8305  25.6757  25.6763  29.4479  29.4484  33.0527  33.0529
    33.2667  33.2671  36.9167  36.9212  40.1519  40.1529  40.4610  40.4618
    45.2086  45.2090  45.6998  45.7019  47.7205  47.7216  50.5898  50.5916
    51.8075  51.8086  53.9190  53.9212

          k = 0.0476-0.1428-0.1428 (  3228 PWs)   bands (ev):

     9.9790   9.9793   9.9793   9.9796  11.7222  11.7227  11.7227  11.7231
    11.8089  11.8099  11.8099  11.8108  12.3827  12.3832  12.3832  12.3836
    13.3395  13.3403  13.3403  13.3412  15.3528  15.3535  15.3535  15.3541
    23.4636  23.4643  23.4643  23.4649  30.9859  30.9861  30.9861  30.9863
    38.1876  38.1889  38.1889  38.1902  38.3561  38.3577  38.3577  38.3592
    46.6715  46.6716  46.6716  46.6718  46.7733  46.7749  46.7749  46.7765
    54.8290  54.8303  54.8303  54.8317

          k = 0.0952 0.0952 0.0952 (  3253 PWs)   bands (ev):

     8.8703  10.0609  10.0609  10.0609  11.5224  11.5224  11.5224  12.0368
    12.0977  12.0977  12.0977  12.1032  12.1032  12.3866  12.3866  12.3866
    13.4635  13.4635  13.8286  13.8286  13.8286  16.2001  16.2001  16.2001
    21.4217  21.4217  21.4217  25.1625  32.5130  32.5131  32.5131  35.2587
    35.2587  35.2587  37.2883  37.2884  37.2884  37.8042  39.9678  39.9678
    44.4615  44.4615  47.7913  48.0826  48.0826  48.0826  48.1573  48.1573
    48.1573  52.4684  52.4685  52.4685

          k = 0.0952 0.0952-0.1428 (  3238 PWs)   bands (ev):

     9.4963   9.4965   9.9923   9.9923  11.6423  11.6423  11.9286  11.9296
    12.1458  12.1460  12.2663  12.2664  12.2804  12.2815  12.3810  12.3810
    13.7490  13.7491  13.7569  13.7569  14.1680  14.1680  16.4842  16.4842
    20.3928  20.3928  22.9795  22.9801  33.4284  33.4284  34.6423  34.6423
    36.3420  36.3439  37.2612  37.2622  39.0094  39.0126  39.4547  39.4547
    44.6688  44.6688  44.9185  44.9201  46.0337  46.0341  48.5680  48.5680
    49.6245  49.6252  52.9974  52.9974

          k = 0.0952-0.1428-0.1428 (  3224 PWs)   bands (ev):

     9.6719   9.6719   9.6719   9.6720  11.8883  11.8885  11.8885  11.8888
    12.0781  12.0784  12.0784  12.0787  12.8276  12.8282  12.8282  12.8288
    13.6765  13.6770  13.6770  13.6774  14.9756  14.9763  14.9764  14.9771
    21.1058  21.1063  21.1063  21.1068  35.1682  35.1684  35.1685  35.1687
    38.2331  38.2340  38.2340  38.2348  38.9553  38.9561  38.9561  38.9569
    44.1099  44.1106  44.1106  44.1114  45.1736  45.1738  45.1738  45.1740
    50.4390  50.4393  50.4393  50.4396

          k =-0.1428-0.1428-0.1428 (  3184 PWs)   bands (ev):

     9.5559   9.5559   9.5559   9.5559  11.9668  11.9668  11.9668  11.9668
    11.9668  11.9668  11.9668  11.9668  13.8045  13.8045  13.8045  13.8046
    13.8046  13.8046  13.8046  13.8046  14.3002  14.3003  14.3003  14.3003
    20.2251  20.2251  20.2251  20.2252  36.9626  36.9628  36.9628  36.9628
    39.5929  39.5929  39.5929  39.5929  39.5929  39.5929  39.5929  39.5929
    42.8189  42.8189  42.8189  42.8189  42.8189  42.8189  42.8189  42.8189
    48.7932  48.7932  48.7932  48.7932

          k =-0.0476 0.0000 0.0476 (  3227 PWs)   bands (ev):

     6.1600   9.9407   9.9408  10.0677  10.4016  10.4016  10.4155  11.7649
    12.1012  12.1182  12.9408  12.9905  12.9992  12.9993  13.1752  13.5692
    13.6939  13.6939  13.7642  13.7642  13.8257  16.4119  16.4119  18.8096
    23.9116  25.1109  26.2586  26.2586  28.3061  28.3061  28.9494  28.9494
    30.6687  36.0491  36.1319  37.0408  37.0408  37.3468  40.1327  40.1327
    41.2855  42.6205  43.5467  45.2472  46.3798  49.8074  50.4717  53.1135
    53.6858  55.3675  55.3675  56.3213

          k =-0.0476-0.0000 0.0952 (  3245 PWs)   bands (ev):

     7.1818   9.7494  10.4230  10.4716  10.6835  10.7368  10.7559  11.4837
    11.9919  12.1316  12.2471  12.3646  12.3901  12.8235  13.2452  13.3238
    13.3307  13.3543  13.5068  13.7609  13.7669  14.4448  18.0268  20.5931
    22.0915  24.6207  25.5155  26.5446  27.4142  29.6198  29.9147  29.9681
    31.0288  33.7369  34.4806  37.6931  38.6465  40.4041  40.5829  40.7649
    41.1332  44.0571  45.0514  47.0758  47.8013  48.6045  49.9103  51.3521
    52.9575  53.2781  54.8358  56.2177

          k =-0.0952 0.0000 0.0952 (  3227 PWs)   bands (ev):

     8.1086  10.3372  10.3372  10.7032  10.9518  10.9518  10.9655  11.4137
    11.6610  11.6610  11.8158  12.1343  12.4955  12.7373  13.0291  13.1844
    13.1844  13.3245  13.3245  13.4946  13.7101  15.6912  15.6912  19.3103
    22.1201  25.1713  26.7887  26.7888  27.9085  27.9085  30.9976  31.6541
    31.6542  31.7497  33.6179  36.8522  41.5420  41.8952  41.8952  43.0914
    43.4270  43.7885  43.7885  47.2081  47.3466  48.4926  48.4926  51.6923
    52.1946  52.2082  53.2183  55.3684

          k = 0.0476-0.0476 0.0476 (  3224 PWs)   bands (ev):

     6.5058  10.1017  10.1018  10.1018  10.5162  10.5162  10.5162  11.7300
    12.1379  12.1379  12.6950  12.6950  12.6950  13.0884  13.0884  13.3357
    13.3357  13.3357  13.8799  13.8799  13.8799  17.0394  17.0394  17.0394
    25.3371  25.3371  25.3371  26.6041  26.6041  26.6041  31.1841  31.1842
    31.1842  33.4956  36.1804  36.1805  36.1805  39.2657  41.1536  41.1536
    42.8278  42.8279  42.8279  46.6085  47.6642  47.6642  51.6633  51.6633
    55.1234  55.2462  55.2463  55.2463

          k = 0.0476-0.0476 0.0952 (  3245 PWs)   bands (ev):

     7.4875   9.9081  10.4851  10.4851  10.8020  10.8301  10.8301  11.5204
    11.9822  11.9823  12.1777  12.2172  12.2774  12.9332  13.0039  13.0896
    13.0897  13.3281  13.7825  13.7825  13.8148  14.8067  18.3821  18.3821
    22.7177  22.7177  26.6313  27.2553  27.2553  30.3712  30.3712  30.7579
    30.9603  32.6642  36.6596  37.7894  37.8655  38.8051  38.8051  42.3763
    43.5201  44.4862  47.0380  47.0380  47.9001  49.0997  50.2174  50.2174
    50.7132  53.0340  53.0954  55.6782

          k =-0.0952 0.0476 0.0476 (  3245 PWs)   bands (ev):

     7.4875   9.9081  10.4851  10.4851  10.8020  10.8301  10.8301  11.5204
    11.9822  11.9823  12.1777  12.2172  12.2774  12.9332  13.0039  13.0896
    13.0897  13.3281  13.7825  13.7825  13.8148  14.8067  18.3821  18.3821
    22.7177  22.7177  26.6313  27.2553  27.2553  30.3712  30.3712  30.7579
    30.9603  32.6642  36.6596  37.7894  37.8655  38.8051  38.8051  42.3763
    43.5201  44.4862  47.0380  47.0380  47.9001  49.0997  50.2174  50.2174
    50.7132  53.0340  53.0954  55.6782

          k = 0.0476-0.0476-0.1428 (  3232 PWs)   bands (ev):

     8.8596   8.8607  10.8726  10.8726  10.9304  10.9305  11.1731  11.1748
    11.5881  11.5881  12.0795  12.0814  12.5504  12.5511  12.9219  12.9219
    13.4970  13.4984  13.6042  13.6045  13.7265  13.7265  19.5310  19.5310
    21.1565  21.1565  28.2191  28.2192  28.4582  28.4589  28.9403  28.9403
    34.9516  34.9535  35.4263  35.4301  38.1080  38.1120  42.2196  42.2196
    44.7726  44.7747  45.3855  45.3855  49.4954  49.4984  50.9159  50.9169
    52.2039  52.2040  53.6983  53.6984

          k = 0.0952-0.0476 0.0952 (  3231 PWs)   bands (ev):

     8.3265  10.2260  10.2260  10.5122  11.1177  11.1637  11.1637  11.5655
    11.7782  11.7782  11.9115  12.1363  12.2623  12.7410  12.7410  12.7574
    13.0604  13.6157  13.6851  13.7003  13.7003  15.8219  15.8219  18.6338
    20.8142  23.9149  23.9149  27.9561  28.0653  31.1467  31.1468  32.1343
    32.1343  34.0310  35.2550  36.9230  39.3394  39.3394  40.1685  43.0546
    43.7509  44.8000  46.4797  46.4797  49.2099  49.2099  50.4348  50.6127
    50.9423  51.6370  52.3192  52.9436

          k =-0.0952 0.0476 0.0952 (  3231 PWs)   bands (ev):

     8.3265  10.2260  10.2260  10.5122  11.1177  11.1637  11.1637  11.5655
    11.7782  11.7782  11.9115  12.1363  12.2623  12.7410  12.7410  12.7574
    13.0604  13.6157  13.6851  13.7003  13.7003  15.8219  15.8219  18.6338
    20.8142  23.9149  23.9149  27.9561  28.0653  31.1467  31.1468  32.1343
    32.1343  34.0310  35.2550  36.9230  39.3394  39.3394  40.1685  43.0546
    43.7509  44.8000  46.4797  46.4797  49.2099  49.2099  50.4348  50.6127
    50.9423  51.6370  52.3192  52.9436

          k = 0.0952-0.0476-0.1428 (  3234 PWs)   bands (ev):

     9.4096   9.4102  10.4472  10.4474  11.3312  11.3313  11.4789  11.4803
    11.7848  11.7854  11.9052  11.9065  12.4115  12.4120  12.6225  12.6228
    13.3575  13.3580  13.5853  13.5858  14.2781  14.2783  17.1994  17.2004
    21.8297  21.8305  25.6757  25.6763  29.4479  29.4484  33.0527  33.0529
    33.2667  33.2671  36.9167  36.9212  40.1519  40.1529  40.4610  40.4618
    45.2086  45.2090  45.6998  45.7019  47.7205  47.7216  50.5898  50.5916
    51.8075  51.8086  53.9190  53.9213

          k = 0.0952-0.0952 0.0952 (  3253 PWs)   bands (ev):

     8.8703  10.0609  10.0609  10.0609  11.5224  11.5224  11.5224  12.0368
    12.0976  12.0977  12.0977  12.1032  12.1032  12.3866  12.3866  12.3866
    13.4635  13.4635  13.8286  13.8286  13.8286  16.2001  16.2001  16.2001
    21.4217  21.4217  21.4217  25.1625  32.5130  32.5131  32.5131  35.2587
    35.2587  35.2587  37.2883  37.2884  37.2884  37.8042  39.9678  39.9678
    44.4615  44.4615  47.7913  48.0825  48.0826  48.0826  48.1573  48.1573
    48.1573  52.4684  52.4685  52.4685

          k = 0.0952-0.0952-0.1428 (  3238 PWs)   bands (ev):

     9.4963   9.4965   9.9923   9.9923  11.6423  11.6423  11.9286  11.9296
    12.1458  12.1460  12.2663  12.2664  12.2804  12.2815  12.3810  12.3810
    13.7490  13.7491  13.7569  13.7569  14.1680  14.1680  16.4842  16.4842
    20.3928  20.3928  22.9795  22.9801  33.4284  33.4285  34.6423  34.6423
    36.3420  36.3439  37.2612  37.2622  39.0094  39.0126  39.4547  39.4547
    44.6688  44.6688  44.9185  44.9201  46.0337  46.0341  48.5680  48.5680
    49.6245  49.6252  52.9974  52.9974

 ------ SPIN DOWN ----------


          k = 0.0000 0.0000 0.0000 (  3239 PWs)   bands (ev):

     5.3814  10.1820  10.1820  10.1820  10.8917  10.8917  10.8917  12.8340
    12.8340  12.8340  13.9132  13.9132  14.6655  14.6655  14.6655  14.9510
    14.9510  14.9510  14.9510  14.9510  14.9510  17.0016  17.0016  17.0016
    24.1276  24.1277  24.1277  29.5665  29.5665  29.5665  29.5666  29.5666
    29.5666  34.8235  34.8235  34.8235  38.1508  38.1510  38.1510  38.3023
    42.4580  42.4580  42.4580  46.1592  46.1592  46.1592  48.0304  55.3786
    55.3786  55.3786  58.1385  59.5569

          k =-0.0000-0.0000 0.0476 (  3227 PWs)   bands (ev):

     5.7476  10.1577  10.3763  10.3763  11.0111  11.0156  11.0156  12.6920
    12.9405  12.9405  13.7856  13.9621  14.1070  14.1070  14.4984  14.4984
    14.6135  14.7582  14.7582  14.9513  14.9513  15.5493  18.1464  18.1464
    24.2084  24.2084  26.2733  27.8968  27.8968  28.4841  28.4842  30.1434
    30.1434  34.9270  36.9134  36.9134  37.7337  38.2805  40.0855  40.0857
    40.3073  40.3073  40.8612  47.5272  48.1172  48.1172  49.2399  51.5664
    56.4973  56.4973  56.6181  56.6181

          k =-0.0000-0.0000 0.0952 (  3234 PWs)   bands (ev):

     6.8016   9.7214  10.8380  10.8380  11.3444  11.3936  11.3936  12.3134
    12.9598  12.9598  13.2505  13.2505  13.4647  13.6848  14.0862  14.0862
    14.0967  14.2829  14.2829  14.4727  14.9519  14.9519  20.1880  20.1880
    24.4811  24.4811  25.1948  25.1948  26.7870  26.7870  30.4673  31.7576
    31.7576  35.2524  36.7054  37.1155  37.1155  38.2721  38.8377  40.8829
    40.8829  44.2293  44.2294  44.3820  50.8985  50.9692  50.9692  50.9940
    50.9940  54.9494  56.1965  56.1965

          k = 0.0000 0.0000-0.1428 (  3218 PWs)   bands (ev):

     8.3444   8.3457  11.1299  11.1299  11.8166  11.8186  12.0387  12.0387
    12.0406  12.0406  13.1963  13.1992  13.7263  13.7263  13.7278  13.7278
    13.8164  13.8164  14.2826  14.2837  14.9522  14.9522  22.5691  22.5691
    22.5724  22.5724  24.8042  24.8043  25.9012  25.9012  34.1632  34.1632
    34.1655  34.1655  34.8992  34.9042  35.8366  35.8379  40.4746  40.4825
    45.6318  45.6318  45.6387  45.6387  47.7106  47.7107  52.4973  52.4973
    54.0794  54.0794  54.0856  54.0856

          k =-0.0000 0.0476 0.0476 (  3227 PWs)   bands (ev):

     6.1063  10.3688  10.3688  10.5584  11.1151  11.1255  11.1255  12.6183
    12.9910  12.9954  13.7058  13.7470  13.7472  13.7592  13.9622  14.3598
    14.4860  14.4860  14.7570  14.7570  14.8278  16.7265  16.7265  18.9753
    24.1703  25.2406  26.4473  26.4474  28.3890  28.3891  28.9904  28.9904
    30.6797  36.1237  36.1533  37.1115  37.1116  37.3643  40.2505  40.2506
    41.2048  42.7079  43.5158  45.1909  46.4405  49.9661  50.3972  53.2860
    53.6519  55.3297  55.3297  56.2616

          k =-0.0000 0.0476 0.0952 (  3245 PWs)   bands (ev):

     7.1363   9.9720  10.8852  11.0035  11.3987  11.4313  11.4728  12.3056
    12.6831  12.8524  13.0462  13.0864  13.2667  13.5878  14.0101  14.0956
    14.1657  14.2520  14.2813  14.7542  14.7633  15.1538  18.3655  20.7972
    22.2901  24.8486  25.6672  26.6796  27.5394  29.7283  29.9765  30.0386
    31.1262  33.8151  34.5231  37.7352  38.6845  40.3558  40.5306  40.8847
    41.1328  44.1393  45.2559  47.1423  47.7238  48.5870  49.8944  51.2774
    52.9132  53.1876  55.0561  56.4709

          k = 0.0000 0.0476-0.1428 (  3240 PWs)   bands (ev):

     8.6380   8.6393  11.2735  11.2737  11.8611  11.8630  11.8740  11.8755
    12.0559  12.0578  12.9160  12.9183  13.7297  13.7313  13.8048  13.8050
    13.8055  13.8059  14.5088  14.5089  14.7524  14.7528  20.1766  20.1783
    23.0802  23.0831  25.5943  25.5968  28.4387  28.4396  31.6236  31.6244
    32.0912  32.0918  35.8650  35.8706  38.8435  38.8438  42.3808  42.3858
    43.1223  43.1243  45.9046  45.9111  50.1634  50.1690  50.3027  50.3054
    52.5454  52.5476  53.3879  53.3896

          k =-0.0000 0.0952 0.0952 (  3227 PWs)   bands (ev):

     8.0865  10.6104  10.6104  11.3673  11.4496  11.6875  11.6875  12.2076
    12.3542  12.3542  12.5280  12.9254  13.4109  13.4841  13.7825  13.9216
    13.9216  14.2854  14.2854  14.4754  14.5524  16.2964  16.2965  19.6179
    22.3394  25.3697  26.9557  26.9557  28.0097  28.0097  31.1287  31.7429
    31.7430  31.8172  33.6704  36.8880  41.4786  41.8771  41.8772  43.1260
    43.3097  43.8309  43.8309  47.3295  47.3759  48.5376  48.5376  51.7520
    52.0852  52.1494  53.4221  55.2712

          k = 0.0000 0.0952-0.1428 (  3252 PWs)   bands (ev):

     9.4366   9.4377  11.2272  11.2284  11.8535  11.8536  11.9682  11.9700
    12.0833  12.0850  12.6063  12.6077  13.5771  13.5771  13.6508  13.6510
    13.7765  13.7781  14.3275  14.3285  15.1778  15.1781  17.6866  17.6878
    24.4489  24.4511  26.3901  26.3921  28.8267  28.8276  29.6407  29.6410
    33.0345  33.0351  36.8302  36.8357  40.3782  40.3792  43.0102  43.0112
    43.2512  43.2516  46.6920  46.6973  48.0232  48.0265  50.3905  50.3935
    51.8996  51.9042  53.4947  53.4959

          k = 0.0000-0.1428-0.1428 (  3216 PWs)   bands (ev):

    10.4475  10.4485  10.4485  10.4494  12.0617  12.0635  12.0635  12.0652
    12.3034  12.3039  12.3040  12.3045  13.4340  13.4342  13.4342  13.4344
    13.9586  13.9600  13.9600  13.9614  16.1240  16.1245  16.1245  16.1250
    26.4133  26.4147  26.4148  26.4162  27.7135  27.7148  27.7148  27.7161
    37.9810  37.9825  37.9825  37.9840  38.4786  38.4803  38.4803  38.4819
    47.0745  47.0745  47.0746  47.0747  49.1934  49.1964  49.1964  49.1994
    51.9394  51.9398  51.9399  51.9402

          k = 0.0476 0.0476 0.0476 (  3224 PWs)   bands (ev):

     6.4550  10.5567  10.5567  10.5567  11.2168  11.2168  11.2168  12.5633
    13.0160  13.0160  13.4057  13.4057  13.4057  13.8746  13.8746  14.1667
    14.1667  14.1667  14.8282  14.8282  14.8282  17.3804  17.3804  17.3804
    25.4687  25.4687  25.4687  26.7774  26.7774  26.7774  31.2060  31.2061
    31.2061  33.5622  36.2755  36.2755  36.2755  39.1104  41.2062  41.2062
    42.9120  42.9121  42.9121  46.5212  47.6215  47.6215  51.8301  51.8301
    55.1995  55.1996  55.1996  55.4612

          k = 0.0476 0.0476 0.0952 (  3245 PWs)   bands (ev):

     7.4525  10.1708  11.0165  11.0165  11.4585  11.4585  11.5143  12.3159
    12.6846  12.6846  12.8500  13.0476  13.1377  13.7794  13.8138  13.8764
    13.8765  14.1503  14.7160  14.7458  14.7458  15.4370  18.7090  18.7090
    22.9280  22.9280  26.7755  27.4043  27.4043  30.4461  30.4461  30.8721
    31.0478  32.7107  36.7342  37.6954  37.9427  38.8355  38.8355  42.3838
    43.6005  44.5037  47.0822  47.0823  47.9422  49.0455  50.2064  50.2064
    50.7204  52.9636  53.0556  55.7932

          k = 0.0476 0.0476-0.1428 (  3232 PWs)   bands (ev):

     8.8942   8.8953  11.4444  11.4444  11.5119  11.5119  11.9239  11.9258
    12.3020  12.3020  12.8290  12.8311  13.4011  13.4016  13.6854  13.6855
    14.3016  14.3030  14.4654  14.4655  14.6981  14.6981  19.7884  19.7884
    21.4605  21.4605  28.3341  28.3342  28.6003  28.6009  29.0550  29.0550
    35.0210  35.0229  35.3996  35.4035  38.1853  38.1893  42.2009  42.2010
    44.8594  44.8618  45.3746  45.3746  49.4160  49.4190  50.8702  50.8713
    52.2374  52.2375  53.8783  53.8784

          k = 0.0476 0.0952 0.0952 (  3231 PWs)   bands (ev):

     8.3385  10.6188  10.6188  11.1305  11.6246  11.7655  11.7655  12.2921
    12.4982  12.4982  12.6232  12.9370  13.0865  13.5403  13.5403  13.5425
    13.9037  14.4646  14.6135  14.6135  14.6303  16.3752  16.3752  18.9085
    21.1581  24.1320  24.1320  28.1180  28.1930  31.2106  31.2106  32.2268
    32.2269  34.0856  35.2806  36.9483  39.3542  39.3542  40.0923  43.1681
    43.7428  44.7459  46.4737  46.4738  49.2648  49.2648  50.3665  50.5964
    50.9187  51.7096  52.3850  52.8707

          k = 0.0476 0.0952-0.1428 (  3234 PWs)   bands (ev):

     9.5590   9.5598  10.9821  10.9824  11.8853  11.8855  12.1248  12.1264
    12.4783  12.4791  12.6654  12.6668  13.2156  13.2160  13.3969  13.3971
    14.2226  14.2234  14.5210  14.5217  15.0710  15.0713  17.6104  17.6114
    22.1300  22.1307  25.8759  25.8763  29.5484  29.5490  33.1095  33.1096
    33.3356  33.3362  36.9298  36.9342  40.1362  40.1371  40.4836  40.4844
    45.1960  45.1963  45.6916  45.6938  47.7014  47.7027  50.6282  50.6300
    51.7471  51.7481  53.9977  54.0011

          k = 0.0476-0.1428-0.1428 (  3228 PWs)   bands (ev):

    10.3357  10.3362  10.3362  10.3367  12.2922  12.2929  12.2929  12.2937
    12.5119  12.5129  12.5129  12.5138  13.1598  13.1602  13.1602  13.1606
    14.2513  14.2523  14.2523  14.2533  15.9985  15.9991  15.9991  15.9996
    23.7215  23.7220  23.7221  23.7226  31.0685  31.0688  31.0688  31.0692
    38.2599  38.2611  38.2611  38.2624  38.3071  38.3086  38.3087  38.3101
    46.6034  46.6035  46.6035  46.6036  46.7989  46.8007  46.8007  46.8023
    54.8933  54.8947  54.8947  55.1064

          k = 0.0952 0.0952 0.0952 (  3253 PWs)   bands (ev):

     9.0035  10.5706  10.5706  10.5706  12.0812  12.0813  12.0813  12.5594
    12.7772  12.7772  12.7772  12.9041  12.9041  13.1775  13.1776  13.1776
    14.3444  14.3444  14.7562  14.7562  14.7562  16.6267  16.6267  16.6267
    21.7603  21.7603  21.7604  25.3879  32.5595  32.5596  32.5596  35.3201
    35.3202  35.3202  37.3011  37.3012  37.3012  37.6334  40.0539  40.0539
    44.4709  44.4709  47.8065  48.0311  48.0312  48.0312  48.1588  48.1588
    48.1588  52.4998  52.4998  52.4998

          k = 0.0952 0.0952-0.1428 (  3238 PWs)   bands (ev):

     9.8285   9.8289  10.5303  10.5304  12.2738  12.2738  12.5871  12.5881
    12.8344  12.8358  12.9379  12.9380  12.9807  12.9808  13.0449  13.0450
    14.6578  14.6579  14.6853  14.6853  14.8836  14.8838  16.8158  16.8159
    20.8298  20.8298  23.2690  23.2696  33.4363  33.4364  34.7283  34.7283
    36.2334  36.2354  37.3336  37.3346  39.0897  39.0928  39.4294  39.4294
    44.6954  44.6954  44.8959  44.8975  46.0420  46.0426  48.5279  48.5279
    49.6781  49.6787  53.1067  53.1067

          k = 0.0952-0.1428-0.1428 (  3224 PWs)   bands (ev):

    10.1425  10.1426  10.1426  10.1427  12.6211  12.6213  12.6213  12.6216
    12.8538  12.8541  12.8541  12.8544  13.2677  13.2684  13.2684  13.2691
    14.5945  14.5950  14.5951  14.5956  15.5073  15.5079  15.5079  15.5085
    21.4986  21.4990  21.4991  21.4995  35.1421  35.1425  35.1426  35.1430
    38.2024  38.2032  38.2032  38.2039  39.0245  39.0253  39.0253  39.0260
    44.1420  44.1428  44.1428  44.1436  45.1663  45.1666  45.1666  45.1668
    50.5295  50.5299  50.5299  50.5302

          k =-0.1428-0.1428-0.1428 (  3184 PWs)   bands (ev):

    10.0572  10.0572  10.0572  10.0572  12.7396  12.7396  12.7396  12.7396
    12.7396  12.7396  12.7396  12.7396  14.2010  14.2011  14.2011  14.2011
    14.7279  14.7279  14.7279  14.7279  14.7279  14.7279  14.7279  14.7279
    20.7074  20.7074  20.7074  20.7075  36.7786  36.7789  36.7789  36.7789
    39.6629  39.6629  39.6629  39.6630  39.6630  39.6630  39.6630  39.6630
    42.8494  42.8494  42.8494  42.8494  42.8494  42.8494  42.8495  42.8495
    48.9074  48.9074  48.9074  48.9074

          k =-0.0476 0.0000 0.0476 (  3227 PWs)   bands (ev):

     6.1063  10.3688  10.3688  10.5584  11.1151  11.1255  11.1255  12.6183
    12.9910  12.9954  13.7058  13.7470  13.7472  13.7592  13.9622  14.3598
    14.4860  14.4860  14.7570  14.7570  14.8278  16.7265  16.7265  18.9753
    24.1703  25.2406  26.4473  26.4474  28.3890  28.3891  28.9904  28.9904
    30.6797  36.1237  36.1533  37.1115  37.1116  37.3643  40.2505  40.2506
    41.2048  42.7079  43.5158  45.1909  46.4405  49.9661  50.3972  53.2860
    53.6519  55.3297  55.3297  56.2616

          k =-0.0476-0.0000 0.0952 (  3245 PWs)   bands (ev):

     7.1363   9.9720  10.8852  11.0035  11.3987  11.4313  11.4728  12.3056
    12.6831  12.8524  13.0462  13.0864  13.2667  13.5878  14.0101  14.0956
    14.1657  14.2520  14.2813  14.7542  14.7633  15.1538  18.3655  20.7972
    22.2901  24.8486  25.6672  26.6796  27.5394  29.7283  29.9765  30.0386
    31.1262  33.8151  34.5231  37.7352  38.6845  40.3558  40.5306  40.8847
    41.1328  44.1393  45.2559  47.1423  47.7238  48.5870  49.8944  51.2774
    52.9132  53.1876  55.0561  56.4709

          k =-0.0952 0.0000 0.0952 (  3227 PWs)   bands (ev):

     8.0865  10.6104  10.6104  11.3673  11.4496  11.6875  11.6875  12.2076
    12.3542  12.3542  12.5280  12.9254  13.4109  13.4841  13.7825  13.9216
    13.9216  14.2854  14.2854  14.4754  14.5524  16.2964  16.2965  19.6179
    22.3394  25.3697  26.9557  26.9557  28.0097  28.0097  31.1287  31.7430
    31.7430  31.8172  33.6704  36.8880  41.4786  41.8771  41.8772  43.1260
    43.3097  43.8309  43.8309  47.3295  47.3759  48.5376  48.5376  51.7520
    52.0852  52.1494  53.4221  55.2712

          k = 0.0476-0.0476 0.0476 (  3224 PWs)   bands (ev):

     6.4550  10.5567  10.5567  10.5567  11.2168  11.2168  11.2168  12.5633
    13.0160  13.0160  13.4057  13.4057  13.4057  13.8746  13.8746  14.1667
    14.1667  14.1667  14.8282  14.8282  14.8282  17.3804  17.3804  17.3804
    25.4687  25.4687  25.4687  26.7774  26.7774  26.7774  31.2060  31.2061
    31.2061  33.5622  36.2755  36.2755  36.2755  39.1104  41.2062  41.2062
    42.9120  42.9121  42.9121  46.5212  47.6215  47.6215  51.8300  51.8301
    55.1995  55.1996  55.1996  55.4612

          k = 0.0476-0.0476 0.0952 (  3245 PWs)   bands (ev):

     7.4525  10.1708  11.0165  11.0165  11.4585  11.4585  11.5143  12.3159
    12.6845  12.6846  12.8500  13.0476  13.1377  13.7794  13.8138  13.8764
    13.8765  14.1503  14.7160  14.7458  14.7458  15.4370  18.7090  18.7090
    22.9280  22.9280  26.7755  27.4043  27.4043  30.4461  30.4461  30.8721
    31.0478  32.7107  36.7342  37.6954  37.9427  38.8355  38.8355  42.3838
    43.6005  44.5037  47.0822  47.0823  47.9422  49.0455  50.2064  50.2064
    50.7204  52.9636  53.0556  55.7932

          k =-0.0952 0.0476 0.0476 (  3245 PWs)   bands (ev):

     7.4525  10.1708  11.0165  11.0165  11.4585  11.4585  11.5143  12.3159
    12.6845  12.6846  12.8500  13.0476  13.1377  13.7794  13.8138  13.8764
    13.8765  14.1503  14.7160  14.7458  14.7458  15.4370  18.7090  18.7090
    22.9280  22.9280  26.7755  27.4043  27.4043  30.4461  30.4461  30.8721
    31.0478  32.7107  36.7342  37.6954  37.9427  38.8355  38.8355  42.3838
    43.6005  44.5037  47.0822  47.0823  47.9422  49.0455  50.2064  50.2064
    50.7204  52.9636  53.0556  55.7932

          k = 0.0476-0.0476-0.1428 (  3232 PWs)   bands (ev):

     8.8942   8.8953  11.4444  11.4444  11.5119  11.5119  11.9239  11.9258
    12.3020  12.3020  12.8290  12.8311  13.4011  13.4016  13.6854  13.6855
    14.3016  14.3030  14.4654  14.4655  14.6981  14.6982  19.7884  19.7884
    21.4605  21.4605  28.3341  28.3341  28.6003  28.6009  29.0550  29.0550
    35.0210  35.0229  35.3996  35.4035  38.1853  38.1893  42.2009  42.2010
    44.8594  44.8618  45.3746  45.3746  49.4160  49.4190  50.8702  50.8713
    52.2374  52.2375  53.8783  53.8784

          k = 0.0952-0.0476 0.0952 (  3231 PWs)   bands (ev):

     8.3385  10.6188  10.6188  11.1305  11.6246  11.7655  11.7655  12.2921
    12.4982  12.4982  12.6232  12.9370  13.0865  13.5403  13.5403  13.5425
    13.9037  14.4646  14.6135  14.6135  14.6303  16.3752  16.3752  18.9085
    21.1581  24.1320  24.1320  28.1180  28.1930  31.2106  31.2106  32.2268
    32.2269  34.0856  35.2806  36.9483  39.3542  39.3542  40.0923  43.1681
    43.7428  44.7459  46.4737  46.4738  49.2648  49.2648  50.3665  50.5964
    50.9187  51.7096  52.3850  52.8707

          k =-0.0952 0.0476 0.0952 (  3231 PWs)   bands (ev):

     8.3385  10.6188  10.6188  11.1305  11.6246  11.7655  11.7655  12.2921
    12.4982  12.4982  12.6232  12.9370  13.0865  13.5403  13.5403  13.5425
    13.9037  14.4646  14.6135  14.6135  14.6303  16.3752  16.3752  18.9085
    21.1581  24.1320  24.1320  28.1180  28.1930  31.2106  31.2106  32.2269
    32.2269  34.0856  35.2806  36.9483  39.3542  39.3542  40.0923  43.1681
    43.7428  44.7459  46.4737  46.4738  49.2648  49.2648  50.3665  50.5964
    50.9187  51.7096  52.3850  52.8707

          k = 0.0952-0.0476-0.1428 (  3234 PWs)   bands (ev):

     9.5590   9.5598  10.9821  10.9824  11.8853  11.8855  12.1248  12.1264
    12.4783  12.4791  12.6654  12.6668  13.2156  13.2160  13.3969  13.3971
    14.2226  14.2234  14.5210  14.5217  15.0710  15.0713  17.6104  17.6114
    22.1300  22.1307  25.8759  25.8763  29.5484  29.5490  33.1095  33.1096
    33.3356  33.3362  36.9298  36.9342  40.1362  40.1371  40.4836  40.4844
    45.1960  45.1963  45.6916  45.6938  47.7014  47.7027  50.6282  50.6300
    51.7471  51.7481  53.9977  54.0011

          k = 0.0952-0.0952 0.0952 (  3253 PWs)   bands (ev):

     9.0035  10.5706  10.5706  10.5706  12.0812  12.0813  12.0813  12.5594
    12.7772  12.7772  12.7772  12.9041  12.9041  13.1775  13.1776  13.1776
    14.3444  14.3444  14.7562  14.7562  14.7562  16.6267  16.6267  16.6267
    21.7603  21.7603  21.7604  25.3879  32.5595  32.5596  32.5596  35.3201
    35.3202  35.3202  37.3011  37.3012  37.3012  37.6334  40.0539  40.0539
    44.4709  44.4709  47.8065  48.0311  48.0312  48.0312  48.1588  48.1588
    48.1588  52.4998  52.4998  52.4998

          k = 0.0952-0.0952-0.1428 (  3238 PWs)   bands (ev):

     9.8285   9.8289  10.5303  10.5304  12.2738  12.2738  12.5871  12.5881
    12.8344  12.8358  12.9379  12.9380  12.9807  12.9807  13.0449  13.0450
    14.6578  14.6579  14.6853  14.6853  14.8836  14.8838  16.8158  16.8159
    20.8298  20.8298  23.2690  23.2696  33.4363  33.4364  34.7283  34.7283
    36.2334  36.2354  37.3336  37.3346  39.0897  39.0928  39.4294  39.4294
    44.6954  44.6954  44.8959  44.8975  46.0420  46.0426  48.5279  48.5279
    49.6781  49.6787  53.1067  53.1067

     the Fermi energy is    14.5008 ev

!    total energy              =    -343.63029478 Ry
     Harris-Foulkes estimate   =    -343.63029478 Ry
     estimated scf accuracy    <          7.9E-11 Ry

     The total energy is the sum of the following terms:

     one-electron contribution =      -6.32088850 Ry
     hartree contribution      =      60.32932218 Ry
     xc contribution           =    -120.51523087 Ry
     ewald contribution        =    -277.07504905 Ry
     Dispersion Correction     =      -0.04787315 Ry
     smearing contrib. (-TS)   =      -0.00057539 Ry

     total magnetization       =     2.84 Bohr mag/cell
     absolute magnetization    =     3.25 Bohr mag/cell

     convergence has been achieved in  11 iterations

     Forces acting on atoms (Ry/au):

     atom    1 type  1   force =    -0.00014240   -0.00014240    0.00014235
     atom    2 type  1   force =     0.00014245    0.00014245    0.00014245
     atom    3 type  1   force =    -0.00014240    0.00014235   -0.00014240
     atom    4 type  1   force =     0.00014235   -0.00014240   -0.00014240

     Total force =     0.000493     Total SCF correction =     0.000014


     entering subroutine stress ...

          total   stress  (Ry/bohr**3)                   (kbar)     P=    1.05
   0.00000712  -0.00000001  -0.00000001          1.05     -0.00     -0.00
  -0.00000001   0.00000712  -0.00000001         -0.00      1.05     -0.00
  -0.00000001  -0.00000001   0.00000712         -0.00     -0.00      1.05


     number of scf cycles    =   4
     number of bfgs steps    =   3

     enthalpy old            =    -343.6302699985 Ry
     enthalpy new            =    -343.6302947805 Ry

     CASE: enthalpy_new < enthalpy_old

     new trust radius        =       0.0007312123 bohr
     new conv_thr            =            1.0E-10 Ry

     new unit-cell volume =    290.12364 a.u.^3 (    42.99189 Ang^3 )

CELL_PARAMETERS (alat=  1.88972590)
   3.503178163  -0.000000636  -0.000000636
  -0.000000636   3.503178163  -0.000000636
  -0.000000636  -0.000000636   3.503178163

ATOMIC_POSITIONS (alat)
Ni1      1.755478818   1.755478818   0.003886537
Ni1      0.003885935   0.003885935   0.003885935
Ni1      1.755478818   0.003886537   1.755478818
Ni1      0.003886537   1.755478818   1.755478818



     Writing output data file Ni-ferromag.save
     NEW-OLD atomic charge density approx. for the potential

     Check: negative/imaginary core charge=   -0.000005    0.000000
     extrapolated charge   40.01995, renormalised to   40.00000

     total cpu time spent up to now is     2829.9 secs

     Self-consistent Calculation

     iteration #  1     ecut=    75.00 Ry     beta=0.20
     Davidson diagonalization with overlap
     ethr =  1.00E-06,  avg # of iterations =  2.4

     total cpu time spent up to now is     2905.3 secs

     total energy              =    -343.63017932 Ry
     Harris-Foulkes estimate   =    -343.60930003 Ry
     estimated scf accuracy    <       0.00012816 Ry

     total magnetization       =     2.84 Bohr mag/cell
     absolute magnetization    =     3.26 Bohr mag/cell

     iteration #  2     ecut=    75.00 Ry     beta=0.20
     Davidson diagonalization with overlap
     ethr =  3.20E-07,  avg # of iterations =  1.6

     total cpu time spent up to now is     2955.2 secs

     total energy              =    -343.63026110 Ry
     Harris-Foulkes estimate   =    -343.63027090 Ry
     estimated scf accuracy    <       0.00005075 Ry

     total magnetization       =     2.83 Bohr mag/cell
     absolute magnetization    =     3.25 Bohr mag/cell

     iteration #  3     ecut=    75.00 Ry     beta=0.20
     Davidson diagonalization with overlap
     ethr =  1.27E-07,  avg # of iterations =  1.0

     total cpu time spent up to now is     3004.0 secs

     total energy              =    -343.63025337 Ry
     Harris-Foulkes estimate   =    -343.63026277 Ry
     estimated scf accuracy    <       0.00001743 Ry

     total magnetization       =     2.83 Bohr mag/cell
     absolute magnetization    =     3.25 Bohr mag/cell

     iteration #  4     ecut=    75.00 Ry     beta=0.20
     Davidson diagonalization with overlap
     ethr =  4.36E-08,  avg # of iterations =  1.0

     total cpu time spent up to now is     3052.9 secs

     total energy              =    -343.63026053 Ry
     Harris-Foulkes estimate   =    -343.63025902 Ry
     estimated scf accuracy    <       0.00000239 Ry

     total magnetization       =     2.84 Bohr mag/cell
     absolute magnetization    =     3.25 Bohr mag/cell

     iteration #  5     ecut=    75.00 Ry     beta=0.20
     Davidson diagonalization with overlap
     ethr =  5.98E-09,  avg # of iterations =  1.0

     total cpu time spent up to now is     3101.7 secs

     total energy              =    -343.63026021 Ry
     Harris-Foulkes estimate   =    -343.63026108 Ry
     estimated scf accuracy    <       0.00001066 Ry

     total magnetization       =     2.84 Bohr mag/cell
     absolute magnetization    =     3.25 Bohr mag/cell

     iteration #  6     ecut=    75.00 Ry     beta=0.20
     Davidson diagonalization with overlap
     ethr =  5.98E-09,  avg # of iterations =  1.0

     total cpu time spent up to now is     3150.6 secs

     total energy              =    -343.63025783 Ry
     Harris-Foulkes estimate   =    -343.63026027 Ry
     estimated scf accuracy    <       0.00000734 Ry

     total magnetization       =     2.84 Bohr mag/cell
     absolute magnetization    =     3.25 Bohr mag/cell

     iteration #  7     ecut=    75.00 Ry     beta=0.20
     Davidson diagonalization with overlap
     ethr =  5.98E-09,  avg # of iterations =  1.0

     total cpu time spent up to now is     3199.5 secs

     total energy              =    -343.63025855 Ry
     Harris-Foulkes estimate   =    -343.63025856 Ry
     estimated scf accuracy    <       0.00000045 Ry

     total magnetization       =     2.84 Bohr mag/cell
     absolute magnetization    =     3.25 Bohr mag/cell

     iteration #  8     ecut=    75.00 Ry     beta=0.20
     Davidson diagonalization with overlap
     ethr =  1.12E-09,  avg # of iterations =  1.0

     total cpu time spent up to now is     3248.3 secs

     total energy              =    -343.63025850 Ry
     Harris-Foulkes estimate   =    -343.63025855 Ry
     estimated scf accuracy    <       0.00000038 Ry

     total magnetization       =     2.84 Bohr mag/cell
     absolute magnetization    =     3.25 Bohr mag/cell

     iteration #  9     ecut=    75.00 Ry     beta=0.20
     Davidson diagonalization with overlap
     ethr =  9.47E-10,  avg # of iterations =  1.0

     total cpu time spent up to now is     3297.2 secs

     total energy              =    -343.63025849 Ry
     Harris-Foulkes estimate   =    -343.63025851 Ry
     estimated scf accuracy    <       0.00000021 Ry

     total magnetization       =     2.84 Bohr mag/cell
     absolute magnetization    =     3.25 Bohr mag/cell

     iteration # 10     ecut=    75.00 Ry     beta=0.20
     Davidson diagonalization with overlap
     ethr =  5.18E-10,  avg # of iterations =  1.0

     total cpu time spent up to now is     3346.0 secs

     total energy              =    -343.63025843 Ry
     Harris-Foulkes estimate   =    -343.63025849 Ry
     estimated scf accuracy    <       0.00000014 Ry

     total magnetization       =     2.84 Bohr mag/cell
     absolute magnetization    =     3.25 Bohr mag/cell

     iteration # 11     ecut=    75.00 Ry     beta=0.20
     Davidson diagonalization with overlap
     ethr =  3.58E-10,  avg # of iterations =  1.0

     Magnetic moment per site:
     atom:    1    charge:    3.0050    magn:    0.3349    constr:    0.0000
     atom:    2    charge:    3.0032    magn:    0.3347    constr:    0.0000
     atom:    3    charge:    3.0050    magn:    0.3349    constr:    0.0000
     atom:    4    charge:    3.0050    magn:    0.3349    constr:    0.0000

     total cpu time spent up to now is     3394.8 secs

     End of self-consistent calculation

 ------ SPIN UP ------------


          k = 0.0000 0.0000 0.0000 (  3239 PWs)   bands (ev):

     5.4299   9.7135   9.7135   9.7135  10.1666  10.1666  10.1666  11.9454
    11.9454  11.9454  13.1240  13.1240  13.8417  13.8417  13.8417  13.9317
    13.9317  13.9317  13.9317  13.9317  13.9317  17.0704  17.0704  17.0704
    23.8078  23.8079  23.8079  29.5660  29.5660  29.5660  29.5660  29.5660
    29.5660  34.6428  34.6428  34.6428  37.9880  37.9881  37.9881  38.4938
    42.4694  42.4694  42.4695  46.0660  46.0660  46.0660  48.1716  55.1645
    55.1645  55.1645  57.6076  59.0296

          k = 0.0000 0.0000 0.0476 (  3227 PWs)   bands (ev):

     5.7960   9.7356   9.8977   9.8977  10.2771  10.2929  10.2929  11.8167
    12.0477  12.0477  13.0061  13.1707  13.2778  13.2778  13.6883  13.6883
    13.7557  13.7557  13.7922  13.9319  13.9319  15.4695  18.0289  18.0289
    23.9038  23.9038  26.0571  27.8141  27.8141  28.4424  28.4424  30.1262
    30.1262  34.7589  36.8157  36.8157  37.8578  38.1200  39.9454  39.9455
    40.2473  40.2473  40.9143  47.4862  48.1237  48.1237  49.1460  51.5548
    56.2600  56.2600  56.6706  56.6706

          k = 0.0000 0.0000 0.0952 (  3234 PWs)   bands (ev):

     6.8453   9.5063  10.3346  10.3346  10.5847  10.6761  10.6761  11.4726
    12.2221  12.2221  12.3443  12.3443  12.7183  13.2993  13.3053  13.3099
    13.3099  13.3171  13.3171  13.6581  13.9325  13.9325  19.9912  19.9912
    24.2211  24.2212  25.0407  25.0407  26.6742  26.6742  30.3567  31.7053
    31.7053  35.1223  36.7248  37.0267  37.0267  38.3469  38.6719  40.8599
    40.8599  44.1094  44.1094  44.1414  50.9223  51.0449  51.0449  51.0476
    51.0476  55.0325  55.9356  55.9357

          k =-0.0000-0.0000-0.1427 (  3218 PWs)   bands (ev):

     8.3446   8.3446  10.6107  10.6107  11.0196  11.0196  11.3226  11.3226
    11.3226  11.3226  12.5412  12.5412  12.7964  12.7964  12.7964  12.7964
    13.0614  13.0614  13.4773  13.4773  13.9327  13.9327  22.3766  22.3766
    22.3766  22.3766  24.5944  24.5945  25.7286  25.7286  34.0829  34.0829
    34.0829  34.0830  34.9064  34.9065  35.7700  35.7700  40.2655  40.2655
    45.6610  45.6610  45.6611  45.6611  47.6152  47.6152  52.2865  52.2866
    54.1730  54.1730  54.1731  54.1731

          k = 0.0000 0.0476 0.0476 (  3227 PWs)   bands (ev):

     6.1536   9.9339   9.9339  10.0608  10.3944  10.3944  10.4083  11.7567
    12.0927  12.1097  12.9318  12.9815  12.9901  12.9901  13.1659  13.5597
    13.6842  13.6842  13.7544  13.7544  13.8159  16.4015  16.4015  18.7986
    23.8981  25.0970  26.2444  26.2444  28.2918  28.2918  28.9346  28.9346
    30.6538  36.0322  36.1163  37.0241  37.0241  37.3300  40.1130  40.1131
    41.2688  42.6007  43.5285  45.2289  46.3593  49.7839  50.4522  53.0892
    53.6662  55.3468  55.3468  56.3006

          k = 0.0000 0.0476 0.0952 (  3245 PWs)   bands (ev):

     7.1751   9.7424  10.4159  10.4645  10.6762  10.7294  10.7485  11.4757
    11.9835  12.1232  12.2386  12.3560  12.3814  12.8145  13.2359  13.3145
    13.3213  13.3450  13.4973  13.7511  13.7572  14.4348  18.0156  20.5812
    22.0791  24.6063  25.5020  26.5312  27.3988  29.6050  29.9003  29.9530
    31.0129  33.7212  34.4645  37.6765  38.6292  40.3874  40.5661  40.7450
    41.1156  44.0369  45.0288  47.0550  47.7826  48.5845  49.8901  51.3322
    52.9371  53.2583  54.8135  56.1986

          k =-0.0000 0.0476-0.1427 (  3240 PWs)   bands (ev):

     8.6260   8.6260  10.7632  10.7632  11.0713  11.0713  11.1903  11.1903
    11.3371  11.3371  12.1678  12.1678  12.7972  12.7972  13.0266  13.0266
    13.0464  13.0464  13.6608  13.6608  13.7487  13.7487  19.8840  19.8840
    22.8758  22.8758  25.4099  25.4100  28.3071  28.3072  31.4945  31.4945
    32.0182  32.0182  35.8263  35.8263  38.8256  38.8256  42.2097  42.2098
    43.1118  43.1118  45.9371  45.9372  50.0787  50.0787  50.3519  50.3520
    52.6099  52.6099  53.1996  53.1997

          k = 0.0000 0.0952 0.0952 (  3227 PWs)   bands (ev):

     8.1016  10.3299  10.3299  10.6958  10.9443  10.9443  10.9580  11.4058
    11.6530  11.6530  11.8076  12.1259  12.4868  12.7284  13.0200  13.1752
    13.1752  13.3151  13.3151  13.4851  13.7004  15.6806  15.6806  19.2985
    22.1076  25.1570  26.7747  26.7748  27.8940  27.8940  30.9824  31.6384
    31.6384  31.7342  33.6017  36.8355  41.5250  41.8776  41.8776  43.0723
    43.4101  43.7689  43.7690  47.1861  47.3263  48.4719  48.4719  51.6706
    52.1743  52.1885  53.1965  55.3478

          k =-0.0000 0.0952-0.1427 (  3252 PWs)   bands (ev):

     9.3685   9.3686  10.8006  10.8006  11.1985  11.1985  11.2060  11.2061
    11.3558  11.3558  11.8620  11.8620  12.8339  12.8339  12.8346  12.8347
    12.9007  12.9007  13.3501  13.3501  14.3619  14.3619  17.2118  17.2119
    24.2315  24.2316  26.2249  26.2250  28.6502  28.6502  29.5358  29.5358
    32.9469  32.9470  36.7885  36.7885  40.3622  40.3622  43.0472  43.0472
    43.2141  43.2142  46.7376  46.7376  47.9211  47.9211  50.4246  50.4247
    51.7582  51.7582  53.5602  53.5602

          k =-0.0000-0.1427-0.1427 (  3216 PWs)   bands (ev):

    10.2216  10.2216  10.2216  10.2216  11.3177  11.3177  11.3177  11.3178
    11.6269  11.6269  11.6269  11.6269  12.6878  12.6878  12.6878  12.6878
    13.0018  13.0018  13.0018  13.0018  15.4320  15.4321  15.4321  15.4321
    26.2057  26.2057  26.2057  26.2057  27.5766  27.5766  27.5766  27.5767
    37.8904  37.8904  37.8904  37.8904  38.4976  38.4977  38.4977  38.4977
    47.1763  47.1763  47.1763  47.1763  49.1870  49.1870  49.1870  49.1870
    51.8150  51.8151  51.8151  51.8151

          k = 0.0476 0.0476 0.0476 (  3224 PWs)   bands (ev):

     6.4994  10.0948  10.0948  10.0948  10.5090  10.5090  10.5090  11.7218
    12.1294  12.1294  12.6862  12.6862  12.6862  13.0792  13.0792  13.3263
    13.3263  13.3263  13.8701  13.8701  13.8701  17.0286  17.0286  17.0286
    25.3237  25.3237  25.3237  26.5895  26.5895  26.5895  31.1690  31.1691
    31.1691  33.4799  36.1635  36.1635  36.1635  39.2507  41.1350  41.1350
    42.8080  42.8081  42.8081  46.5901  47.6451  47.6451  51.6387  51.6387
    55.1052  55.2252  55.2252  55.2252

          k = 0.0476 0.0476 0.0952 (  3245 PWs)   bands (ev):

     7.4808   9.9010  10.4779  10.4779  10.7946  10.8227  10.8227  11.5124
    11.9739  11.9739  12.1692  12.2086  12.2688  12.9242  12.9948  13.0805
    13.0805  13.3187  13.7728  13.7728  13.8051  14.7966  18.3707  18.3707
    22.7048  22.7048  26.6172  27.2408  27.2408  30.3559  30.3559  30.7428
    30.9452  32.6485  36.6426  37.7742  37.8477  38.7878  38.7878  42.3578
    43.5002  44.4669  47.0175  47.0175  47.8791  49.0803  50.1971  50.1971
    50.6924  53.0140  53.0745  55.6528

          k = 0.0476 0.0476-0.1427 (  3232 PWs)   bands (ev):

     8.8530   8.8531  10.8651  10.8651  10.9231  10.9231  11.1663  11.1663
    11.5800  11.5801  12.0721  12.0721  12.5420  12.5420  12.9129  12.9129
    13.4882  13.4882  13.5947  13.5947  13.7167  13.7167  19.5195  19.5195
    21.1436  21.1436  28.2051  28.2052  28.4439  28.4440  28.9247  28.9247
    34.9359  34.9359  35.4131  35.4131  38.0920  38.0921  42.2017  42.2017
    44.7531  44.7531  45.3664  45.3664  49.4775  49.4776  50.8962  50.8963
    52.1816  52.1816  53.6778  53.6779

          k = 0.0476 0.0952 0.0952 (  3231 PWs)   bands (ev):

     8.3195  10.2188  10.2188  10.5049  11.1101  11.1561  11.1561  11.5575
    11.7700  11.7700  11.9032  12.1279  12.2538  12.7321  12.7321  12.7485
    13.0512  13.6061  13.6754  13.6906  13.6906  15.8113  15.8114  18.6226
    20.8013  23.9014  23.9014  27.9415  28.0507  31.1320  31.1320  32.1180
    32.1180  34.0146  35.2390  36.9064  39.3220  39.3220  40.1522  43.0342
    43.7324  44.7817  46.4601  46.4601  49.1888  49.1889  50.4147  50.5922
    50.9214  51.6142  52.2979  52.9231

          k = 0.0476 0.0952-0.1427 (  3234 PWs)   bands (ev):

     9.4027   9.4027  10.4400  10.4400  11.3235  11.3236  11.4717  11.4717
    11.7769  11.7769  11.8976  11.8976  12.4031  12.4031  12.6138  12.6138
    13.3484  13.3484  13.5760  13.5760  14.2682  14.2682  17.1889  17.1889
    21.8170  21.8171  25.6620  25.6620  29.4333  29.4333  33.0372  33.0372
    33.2508  33.2508  36.9023  36.9024  40.1351  40.1351  40.4434  40.4434
    45.1898  45.1898  45.6816  45.6816  47.7012  47.7012  50.5693  50.5693
    51.7876  51.7876  53.8998  53.8998

          k = 0.0476-0.1427-0.1427 (  3228 PWs)   bands (ev):

     9.9721   9.9721   9.9721   9.9721  11.7146  11.7146  11.7146  11.7146
    11.8017  11.8017  11.8017  11.8017  12.3746  12.3746  12.3746  12.3746
    13.3309  13.3309  13.3310  13.3310  15.3430  15.3430  15.3430  15.3430
    23.4508  23.4508  23.4508  23.4508  30.9709  30.9709  30.9709  30.9710
    38.1709  38.1709  38.1709  38.1709  38.3414  38.3415  38.3415  38.3415
    46.6529  46.6529  46.6529  46.6530  46.7547  46.7548  46.7548  46.7548
    54.8066  54.8066  54.8066  54.8067

          k = 0.0952 0.0952 0.0952 (  3253 PWs)   bands (ev):

     8.8634  10.0538  10.0538  10.0538  11.5146  11.5146  11.5146  12.0285
    12.0893  12.0893  12.0893  12.0947  12.0947  12.3779  12.3779  12.3779
    13.4540  13.4540  13.8188  13.8188  13.8188  16.1897  16.1897  16.1897
    21.4086  21.4086  21.4086  25.1485  32.4978  32.4978  32.4978  35.2419
    35.2419  35.2419  37.2716  37.2717  37.2717  37.7901  39.9490  39.9490
    44.4424  44.4424  47.7709  48.0631  48.0632  48.0632  48.1371  48.1371
    48.1371  52.4460  52.4460  52.4460

          k = 0.0952 0.0952-0.1427 (  3238 PWs)   bands (ev):

     9.4894   9.4894   9.9852   9.9853  11.6343  11.6343  11.9208  11.9208
    12.1375  12.1375  12.2578  12.2578  12.2726  12.2726  12.3725  12.3725
    13.7393  13.7393  13.7472  13.7472  14.1582  14.1582  16.4740  16.4740
    20.3796  20.3796  22.9663  22.9664  33.4135  33.4136  34.6252  34.6252
    36.3285  36.3286  37.2441  37.2441  38.9925  38.9925  39.4378  39.4378
    44.6493  44.6493  44.9005  44.9005  46.0142  46.0142  48.5482  48.5482
    49.6034  49.6034  52.9755  52.9755

          k = 0.0952-0.1427-0.1427 (  3224 PWs)   bands (ev):

     9.6650   9.6650   9.6650   9.6650  11.8803  11.8803  11.8803  11.8803
    12.0700  12.0700  12.0700  12.0700  12.8195  12.8195  12.8195  12.8195
    13.6673  13.6673  13.6673  13.6673  14.9665  14.9665  14.9665  14.9665
    21.0931  21.0931  21.0931  21.0931  35.1531  35.1532  35.1532  35.1532
    38.2174  38.2175  38.2175  38.2175  38.9378  38.9379  38.9379  38.9379
    44.0913  44.0913  44.0913  44.0913  45.1546  45.1546  45.1546  45.1546
    50.4175  50.4175  50.4175  50.4175

          k =-0.1427-0.1427-0.1427 (  3184 PWs)   bands (ev):

     9.5490   9.5490   9.5490   9.5491  11.9585  11.9585  11.9585  11.9585
    11.9585  11.9585  11.9585  11.9585  13.7948  13.7948  13.7948  13.7948
    13.7948  13.7948  13.7948  13.7948  14.2915  14.2916  14.2916  14.2916
    20.2119  20.2119  20.2119  20.2120  36.9489  36.9491  36.9491  36.9491
    39.5743  39.5743  39.5743  39.5744  39.5744  39.5744  39.5744  39.5744
    42.8001  42.8001  42.8001  42.8001  42.8001  42.8001  42.8001  42.8001
    48.7714  48.7714  48.7714  48.7714

          k =-0.0476-0.0000 0.0476 (  3227 PWs)   bands (ev):

     6.1536   9.9339   9.9339  10.0608  10.3944  10.3944  10.4083  11.7567
    12.0927  12.1097  12.9318  12.9815  12.9901  12.9901  13.1659  13.5597
    13.6842  13.6842  13.7544  13.7544  13.8159  16.4015  16.4015  18.7986
    23.8981  25.0969  26.2444  26.2444  28.2918  28.2918  28.9346  28.9346
    30.6538  36.0322  36.1163  37.0241  37.0241  37.3300  40.1130  40.1131
    41.2688  42.6007  43.5285  45.2289  46.3593  49.7839  50.4522  53.0892
    53.6661  55.3468  55.3468  56.3006

          k =-0.0476 0.0000 0.0952 (  3245 PWs)   bands (ev):

     7.1751   9.7424  10.4159  10.4645  10.6762  10.7294  10.7485  11.4757
    11.9835  12.1232  12.2386  12.3560  12.3814  12.8145  13.2359  13.3145
    13.3213  13.3450  13.4973  13.7511  13.7572  14.4347  18.0156  20.5812
    22.0791  24.6063  25.5020  26.5312  27.3988  29.6050  29.9003  29.9530
    31.0129  33.7212  34.4645  37.6765  38.6292  40.3874  40.5661  40.7450
    41.1156  44.0369  45.0288  47.0549  47.7826  48.5845  49.8901  51.3322
    52.9370  53.2583  54.8135  56.1986

          k =-0.0952-0.0000 0.0952 (  3227 PWs)   bands (ev):

     8.1016  10.3299  10.3299  10.6957  10.9443  10.9443  10.9580  11.4058
    11.6530  11.6530  11.8076  12.1259  12.4868  12.7284  13.0200  13.1752
    13.1752  13.3151  13.3151  13.4851  13.7004  15.6806  15.6806  19.2985
    22.1076  25.1570  26.7747  26.7748  27.8940  27.8941  30.9824  31.6384
    31.6384  31.7342  33.6017  36.8355  41.5251  41.8776  41.8776  43.0723
    43.4101  43.7689  43.7690  47.1861  47.3263  48.4719  48.4719  51.6706
    52.1744  52.1885  53.1965  55.3478

          k = 0.0476-0.0476 0.0476 (  3224 PWs)   bands (ev):

     6.4994  10.0948  10.0948  10.0948  10.5090  10.5090  10.5090  11.7218
    12.1294  12.1294  12.6862  12.6862  12.6862  13.0792  13.0792  13.3263
    13.3263  13.3263  13.8701  13.8701  13.8701  17.0286  17.0286  17.0286
    25.3237  25.3237  25.3237  26.5895  26.5895  26.5895  31.1691  31.1691
    31.1691  33.4799  36.1635  36.1635  36.1635  39.2507  41.1350  41.1350
    42.8080  42.8080  42.8081  46.5901  47.6451  47.6451  51.6387  51.6387
    55.1052  55.2252  55.2252  55.2252

          k = 0.0476-0.0476 0.0952 (  3245 PWs)   bands (ev):

     7.4808   9.9010  10.4779  10.4779  10.7946  10.8227  10.8227  11.5124
    11.9739  11.9739  12.1692  12.2086  12.2688  12.9242  12.9948  13.0805
    13.0805  13.3187  13.7728  13.7728  13.8051  14.7966  18.3707  18.3707
    22.7048  22.7048  26.6172  27.2408  27.2408  30.3559  30.3559  30.7427
    30.9452  32.6485  36.6426  37.7742  37.8477  38.7878  38.7878  42.3578
    43.5001  44.4669  47.0175  47.0175  47.8791  49.0803  50.1971  50.1971
    50.6924  53.0140  53.0745  55.6528

          k =-0.0952 0.0476 0.0476 (  3245 PWs)   bands (ev):

     7.4808   9.9011  10.4779  10.4779  10.7946  10.8227  10.8227  11.5124
    11.9739  11.9739  12.1693  12.2086  12.2688  12.9242  12.9948  13.0805
    13.0805  13.3187  13.7728  13.7728  13.8051  14.7966  18.3707  18.3707
    22.7048  22.7048  26.6172  27.2408  27.2408  30.3559  30.3559  30.7427
    30.9452  32.6485  36.6426  37.7742  37.8477  38.7878  38.7878  42.3578
    43.5001  44.4669  47.0174  47.0175  47.8791  49.0803  50.1971  50.1971
    50.6924  53.0140  53.0745  55.6528

          k = 0.0476-0.0476-0.1427 (  3232 PWs)   bands (ev):

     8.8530   8.8531  10.8651  10.8651  10.9231  10.9231  11.1663  11.1663
    11.5800  11.5801  12.0721  12.0721  12.5420  12.5420  12.9129  12.9129
    13.4882  13.4882  13.5947  13.5947  13.7167  13.7167  19.5195  19.5195
    21.1436  21.1436  28.2051  28.2052  28.4439  28.4439  28.9247  28.9247
    34.9359  34.9359  35.4131  35.4131  38.0920  38.0921  42.2017  42.2017
    44.7531  44.7531  45.3664  45.3664  49.4775  49.4776  50.8963  50.8963
    52.1815  52.1816  53.6778  53.6779

          k = 0.0952-0.0476 0.0952 (  3231 PWs)   bands (ev):

     8.3195  10.2188  10.2188  10.5049  11.1101  11.1561  11.1561  11.5575
    11.7700  11.7700  11.9032  12.1279  12.2538  12.7321  12.7321  12.7485
    13.0512  13.6061  13.6754  13.6906  13.6906  15.8113  15.8114  18.6226
    20.8013  23.9014  23.9014  27.9415  28.0506  31.1320  31.1320  32.1180
    32.1180  34.0146  35.2391  36.9064  39.3220  39.3220  40.1522  43.0342
    43.7324  44.7817  46.4601  46.4601  49.1888  49.1888  50.4147  50.5921
    50.9214  51.6142  52.2979  52.9231

          k =-0.0952 0.0476 0.0952 (  3231 PWs)   bands (ev):

     8.3195  10.2188  10.2188  10.5049  11.1101  11.1561  11.1561  11.5575
    11.7700  11.7700  11.9032  12.1279  12.2538  12.7321  12.7321  12.7485
    13.0512  13.6061  13.6754  13.6906  13.6906  15.8113  15.8114  18.6226
    20.8013  23.9014  23.9014  27.9415  28.0506  31.1320  31.1320  32.1180
    32.1180  34.0146  35.2390  36.9064  39.3220  39.3220  40.1522  43.0343
    43.7324  44.7817  46.4601  46.4601  49.1888  49.1888  50.4147  50.5922
    50.9214  51.6142  52.2979  52.9231

          k = 0.0952-0.0476-0.1427 (  3234 PWs)   bands (ev):

     9.4027   9.4027  10.4400  10.4400  11.3235  11.3236  11.4717  11.4717
    11.7769  11.7769  11.8976  11.8976  12.4031  12.4031  12.6138  12.6138
    13.3484  13.3484  13.5760  13.5760  14.2682  14.2682  17.1889  17.1889
    21.8171  21.8171  25.6620  25.6620  29.4333  29.4333  33.0372  33.0372
    33.2507  33.2508  36.9024  36.9024  40.1351  40.1351  40.4434  40.4434
    45.1898  45.1898  45.6816  45.6816  47.7012  47.7012  50.5693  50.5693
    51.7876  51.7876  53.8998  53.8998

          k = 0.0952-0.0952 0.0952 (  3253 PWs)   bands (ev):

     8.8634  10.0538  10.0538  10.0538  11.5146  11.5146  11.5146  12.0285
    12.0893  12.0893  12.0894  12.0947  12.0947  12.3779  12.3779  12.3779
    13.4540  13.4540  13.8188  13.8188  13.8188  16.1897  16.1897  16.1897
    21.4086  21.4086  21.4086  25.1485  32.4978  32.4978  32.4978  35.2419
    35.2419  35.2419  37.2717  37.2717  37.2717  37.7901  39.9490  39.9491
    44.4424  44.4424  47.7709  48.0631  48.0632  48.0632  48.1371  48.1371
    48.1371  52.4459  52.4460  52.4460

          k = 0.0952-0.0952-0.1427 (  3238 PWs)   bands (ev):

     9.4894   9.4894   9.9852   9.9853  11.6343  11.6343  11.9208  11.9208
    12.1375  12.1375  12.2578  12.2578  12.2726  12.2726  12.3725  12.3725
    13.7393  13.7393  13.7472  13.7472  14.1582  14.1582  16.4740  16.4740
    20.3796  20.3796  22.9663  22.9663  33.4135  33.4135  34.6252  34.6252
    36.3285  36.3286  37.2441  37.2441  38.9925  38.9925  39.4378  39.4378
    44.6493  44.6493  44.9005  44.9005  46.0142  46.0142  48.5482  48.5482
    49.6034  49.6034  52.9754  52.9755

 ------ SPIN DOWN ----------


          k = 0.0000 0.0000 0.0000 (  3239 PWs)   bands (ev):

     5.3752  10.1756  10.1757  10.1757  10.8850  10.8850  10.8850  12.8260
    12.8260  12.8260  13.9043  13.9043  14.6560  14.6561  14.6561  14.9413
    14.9413  14.9413  14.9413  14.9413  14.9413  16.9916  16.9916  16.9916
    24.1135  24.1136  24.1136  29.5522  29.5522  29.5522  29.5523  29.5523
    29.5523  34.8071  34.8071  34.8071  38.1314  38.1316  38.1316  38.2883
    42.4402  42.4402  42.4402  46.1385  46.1385  46.1385  48.0122  55.3535
    55.3535  55.3535  58.1277  59.5468

          k = 0.0000 0.0000 0.0476 (  3227 PWs)   bands (ev):

     5.7414  10.1513  10.3699  10.3699  11.0043  11.0088  11.0088  12.6840
    12.9324  12.9324  13.7768  13.9531  14.0980  14.0980  14.4890  14.4891
    14.6041  14.7487  14.7487  14.9416  14.9416  15.5396  18.1357  18.1357
    24.1944  24.1944  26.2590  27.8827  27.8827  28.4697  28.4697  30.1288
    30.1288  34.9107  36.8967  36.8967  37.7192  38.2610  40.0659  40.0660
    40.2892  40.2892  40.8444  47.5068  48.0976  48.0976  49.2177  51.5455
    56.4712  56.4712  56.5971  56.5971

          k = 0.0000 0.0000 0.0952 (  3234 PWs)   bands (ev):

     6.7949   9.7145  10.8313  10.8313  11.3374  11.3865  11.3865  12.3057
    12.9516  12.9516  13.2421  13.2421  13.4561  13.6759  14.0772  14.0772
    14.0877  14.2738  14.2738  14.4634  14.9422  14.9422  20.1763  20.1763
    24.4674  24.4674  25.1814  25.1814  26.7723  26.7723  30.4524  31.7422
    31.7422  35.2363  36.6901  37.0981  37.0981  38.2566  38.8179  40.8653
    40.8653  44.2087  44.2088  44.3595  50.8779  50.9500  50.9500  50.9741
    50.9741  54.9282  56.1765  56.1765

          k =-0.0000-0.0000-0.1427 (  3218 PWs)   bands (ev):

     8.3380   8.3381  11.1230  11.1230  11.8103  11.8103  12.0320  12.0320
    12.0321  12.0321  13.1893  13.1894  13.7183  13.7183  13.7183  13.7183
    13.8075  13.8076  14.2740  14.2740  14.9425  14.9425  22.5582  22.5582
    22.5583  22.5583  24.7912  24.7912  25.8859  25.8860  34.1480  34.1480
    34.1480  34.1480  34.8866  34.8867  35.8215  35.8215  40.4574  40.4575
    45.6166  45.6166  45.6167  45.6167  47.6891  47.6892  52.4757  52.4757
    54.0627  54.0627  54.0628  54.0628

          k = 0.0000 0.0476 0.0476 (  3227 PWs)   bands (ev):

     6.0999  10.3622  10.3622  10.5519  11.1082  11.1186  11.1186  12.6103
    12.9828  12.9872  13.6970  13.7384  13.7384  13.7503  13.9533  14.3506
    14.4767  14.4767  14.7476  14.7476  14.8182  16.7160  16.7160  18.9642
    24.1568  25.2266  26.4331  26.4332  28.3747  28.3748  28.9756  28.9756
    30.6648  36.1081  36.1363  37.0948  37.0949  37.3476  40.2308  40.2310
    41.1879  42.6881  43.4976  45.1725  46.4199  49.9425  50.3777  53.2619
    53.6317  55.3088  55.3088  56.2408

          k = 0.0000 0.0476 0.0952 (  3245 PWs)   bands (ev):

     7.1295   9.9650  10.8784  10.9967  11.3916  11.4242  11.4657  12.2979
    12.6751  12.8442  13.0378  13.0781  13.2583  13.5792  14.0011  14.0866
    14.1566  14.2428  14.2722  14.7447  14.7538  15.1440  18.3542  20.7853
    22.2776  24.8343  25.6537  26.6660  27.5240  29.7135  29.9621  30.0235
    31.1103  33.7993  34.5070  37.7185  38.6672  40.3390  40.5137  40.8648
    41.1153  44.1190  45.2332  47.1214  47.7050  48.5669  49.8742  51.2575
    52.8926  53.1677  55.0333  56.4511

          k =-0.0000 0.0476-0.1427 (  3240 PWs)   bands (ev):

     8.6316   8.6316  11.2666  11.2666  11.8547  11.8547  11.8672  11.8672
    12.0493  12.0493  12.9089  12.9090  13.7218  13.7218  13.7963  13.7964
    13.7967  13.7967  14.4995  14.4995  14.7431  14.7431  20.1655  20.1655
    23.0689  23.0689  25.5815  25.5815  28.4241  28.4242  31.6086  31.6086
    32.0760  32.0761  35.8515  35.8516  38.8269  38.8269  42.3623  42.3624
    43.1048  43.1049  45.8892  45.8892  50.1441  50.1442  50.2843  50.2844
    52.5263  52.5264  53.3675  53.3675

          k = 0.0000 0.0952 0.0952 (  3227 PWs)   bands (ev):

     8.0795  10.6031  10.6031  11.3602  11.4424  11.6802  11.6802  12.2000
    12.3464  12.3464  12.5200  12.9173  13.4024  13.4755  13.7737  13.9127
    13.9127  14.2763  14.2763  14.4661  14.5430  16.2860  16.2860  19.6062
    22.3269  25.3554  26.9416  26.9417  27.9952  27.9952  31.1134  31.7272
    31.7272  31.8017  33.6542  36.8713  41.4615  41.8595  41.8595  43.1070
    43.2928  43.8113  43.8114  47.3074  47.3556  48.5168  48.5168  51.7301
    52.0654  52.1291  53.3998  55.2506

          k =-0.0000 0.0952-0.1427 (  3252 PWs)   bands (ev):

     9.4299   9.4299  11.2204  11.2204  11.8462  11.8462  11.9616  11.9616
    12.0765  12.0766  12.5991  12.5991  13.5685  13.5685  13.6422  13.6423
    13.7685  13.7685  14.3188  14.3188  15.1681  15.1681  17.6761  17.6761
    24.4367  24.4367  26.3767  26.3767  28.8125  28.8125  29.6259  29.6259
    33.0187  33.0187  36.8162  36.8162  40.3611  40.3612  42.9931  42.9931
    43.2324  43.2325  46.6758  46.6759  48.0033  48.0034  50.3719  50.3720
    51.8791  51.8791  53.4749  53.4749

          k =-0.0000-0.1427-0.1427 (  3216 PWs)   bands (ev):

    10.4410  10.4411  10.4411  10.4411  12.0559  12.0559  12.0559  12.0559
    12.2963  12.2963  12.2963  12.2963  13.4257  13.4257  13.4257  13.4257
    13.9511  13.9511  13.9511  13.9512  16.1141  16.1141  16.1141  16.1141
    26.4008  26.4008  26.4008  26.4008  27.7001  27.7002  27.7002  27.7002
    37.9646  37.9646  37.9646  37.9646  38.4636  38.4638  38.4638  38.4638
    47.0564  47.0564  47.0565  47.0565  49.1762  49.1762  49.1762  49.1763
    51.9162  51.9162  51.9163  51.9163

          k = 0.0476 0.0476 0.0476 (  3224 PWs)   bands (ev):

     6.4485  10.5500  10.5501  10.5501  11.2098  11.2098  11.2098  12.5554
    13.0078  13.0078  13.3971  13.3971  13.3971  13.8657  13.8657  14.1576
    14.1576  14.1576  14.8186  14.8186  14.8186  17.3696  17.3696  17.3696
    25.4552  25.4552  25.4552  26.7628  26.7628  26.7628  31.1909  31.1909
    31.1909  33.5465  36.2585  36.2586  36.2586  39.0954  41.1876  41.1876
    42.8921  42.8922  42.8922  46.5027  47.6023  47.6023  51.8054  51.8054
    55.1784  55.1784  55.1784  55.4425

          k = 0.0476 0.0476 0.0952 (  3245 PWs)   bands (ev):

     7.4457  10.1637  11.0096  11.0096  11.4513  11.4513  11.5071  12.3082
    12.6765  12.6765  12.8418  13.0393  13.1294  13.7706  13.8050  13.8676
    13.8676  14.1412  14.7066  14.7363  14.7363  15.4270  18.6977  18.6977
    22.9150  22.9150  26.7614  27.3898  27.3899  30.4308  30.4308  30.8569
    31.0326  32.6949  36.7172  37.6802  37.9249  38.8181  38.8182  42.3654
    43.5805  44.4843  47.0616  47.0617  47.9212  49.0261  50.1860  50.1860
    50.6994  52.9434  53.0347  55.7677

          k = 0.0476 0.0476-0.1427 (  3232 PWs)   bands (ev):

     8.8876   8.8876  11.4372  11.4373  11.5046  11.5046  11.9174  11.9174
    12.2942  12.2942  12.8219  12.8220  13.3928  13.3928  13.6767  13.6768
    14.2931  14.2931  14.4561  14.4561  14.6887  14.6887  19.7768  19.7769
    21.4475  21.4476  28.3201  28.3201  28.5859  28.5859  29.0393  29.0394
    35.0052  35.0052  35.3864  35.3865  38.1693  38.1693  42.1830  42.1831
    44.8399  44.8400  45.3555  45.3555  49.3981  49.3981  50.8506  50.8506
    52.2150  52.2151  53.8574  53.8574

          k = 0.0476 0.0952 0.0952 (  3231 PWs)   bands (ev):

     8.3315  10.6116  10.6116  11.1234  11.6173  11.7581  11.7581  12.2843
    12.4903  12.4903  12.6152  12.9288  13.0782  13.5317  13.5317  13.5339
    13.8948  14.4553  14.6041  14.6041  14.6208  16.3648  16.3648  18.8974
    21.1452  24.1184  24.1185  28.1035  28.1784  31.1958  31.1958  32.2106
    32.2106  34.0693  35.2646  36.9317  39.3368  39.3368  40.0758  43.1478
    43.7242  44.7275  46.4541  46.4541  49.2436  49.2436  50.3464  50.5758
    50.8978  51.6868  52.3635  52.8501

          k = 0.0476 0.0952-0.1427 (  3234 PWs)   bands (ev):

     9.5522   9.5522  10.9751  10.9751  11.8780  11.8780  12.1179  12.1179
    12.4708  12.4708  12.6581  12.6581  13.2074  13.2074  13.3885  13.3885
    14.2139  14.2139  14.5120  14.5120  15.0614  15.0614  17.6000  17.6000
    22.1172  22.1173  25.8620  25.8621  29.5339  29.5339  33.0939  33.0940
    33.3197  33.3198  36.9154  36.9154  40.1193  40.1194  40.4660  40.4660
    45.1770  45.1771  45.6734  45.6735  47.6821  47.6821  50.6076  50.6076
    51.7271  51.7271  53.9754  53.9769

          k = 0.0476-0.1427-0.1427 (  3228 PWs)   bands (ev):

    10.3290  10.3290  10.3290  10.3291  12.2851  12.2852  12.2852  12.2852
    12.5050  12.5050  12.5050  12.5050  13.1519  13.1519  13.1519  13.1519
    14.2432  14.2432  14.2432  14.2432  15.9888  15.9888  15.9888  15.9888
    23.7085  23.7085  23.7085  23.7086  31.0536  31.0537  31.0537  31.0537
    38.2432  38.2432  38.2432  38.2432  38.2922  38.2923  38.2924  38.2924
    46.5847  46.5847  46.5848  46.5848  46.7805  46.7805  46.7805  46.7805
    54.8710  54.8710  54.8710  55.0835

          k = 0.0952 0.0952 0.0952 (  3253 PWs)   bands (ev):

     8.9965  10.5636  10.5636  10.5637  12.0737  12.0737  12.0737  12.5514
    12.7691  12.7691  12.7691  12.8959  12.8959  13.1692  13.1692  13.1692
    14.3351  14.3351  14.7467  14.7467  14.7467  16.6163  16.6163  16.6163
    21.7472  21.7472  21.7472  25.3740  32.5442  32.5443  32.5443  35.3033
    35.3034  35.3034  37.2844  37.2844  37.2844  37.6192  40.0351  40.0351
    44.4517  44.4517  47.7862  48.0116  48.0117  48.0117  48.1385  48.1386
    48.1386  52.4772  52.4773  52.4773

          k = 0.0952 0.0952-0.1427 (  3238 PWs)   bands (ev):

     9.8218   9.8218  10.5234  10.5235  12.2661  12.2661  12.5796  12.5797
    12.8269  12.8269  12.9297  12.9298  12.9725  12.9725  13.0367  13.0367
    14.6484  14.6484  14.6759  14.6759  14.8741  14.8741  16.8055  16.8056
    20.8167  20.8167  23.2558  23.2558  33.4214  33.4214  34.7112  34.7112
    36.2199  36.2200  37.3165  37.3165  39.0727  39.0728  39.4123  39.4124
    44.6759  44.6759  44.8778  44.8779  46.0226  46.0226  48.5081  48.5081
    49.6569  49.6569  53.0845  53.0845

          k = 0.0952-0.1427-0.1427 (  3224 PWs)   bands (ev):

    10.1358  10.1358  10.1358  10.1358  12.6134  12.6134  12.6134  12.6134
    12.8460  12.8460  12.8460  12.8460  13.2599  13.2600  13.2600  13.2600
    14.5857  14.5857  14.5857  14.5857  15.4980  15.4981  15.4981  15.4981
    21.4858  21.4858  21.4858  21.4859  35.1272  35.1274  35.1274  35.1274
    38.1865  38.1865  38.1865  38.1866  39.0070  39.0070  39.0070  39.0070
    44.1234  44.1234  44.1234  44.1235  45.1473  45.1473  45.1474  45.1474
    50.5080  50.5080  50.5080  50.5080

          k =-0.1427-0.1427-0.1427 (  3184 PWs)   bands (ev):

    10.0505  10.0505  10.0505  10.0505  12.7316  12.7316  12.7316  12.7316
    12.7316  12.7316  12.7316  12.7316  14.1922  14.1923  14.1923  14.1923
    14.7184  14.7184  14.7184  14.7184  14.7184  14.7184  14.7184  14.7184
    20.6943  20.6943  20.6943  20.6943  36.7648  36.7651  36.7651  36.7651
    39.6444  39.6444  39.6444  39.6444  39.6444  39.6444  39.6444  39.6445
    42.8305  42.8305  42.8305  42.8306  42.8306  42.8306  42.8306  42.8306
    48.8855  48.8855  48.8855  48.8855

          k =-0.0476-0.0000 0.0476 (  3227 PWs)   bands (ev):

     6.0999  10.3622  10.3622  10.5519  11.1082  11.1186  11.1186  12.6103
    12.9828  12.9872  13.6971  13.7384  13.7384  13.7503  13.9533  14.3506
    14.4767  14.4767  14.7476  14.7476  14.8182  16.7160  16.7160  18.9642
    24.1568  25.2266  26.4331  26.4332  28.3747  28.3748  28.9756  28.9756
    30.6648  36.1081  36.1363  37.0948  37.0948  37.3475  40.2308  40.2309
    41.1880  42.6880  43.4976  45.1725  46.4199  49.9425  50.3777  53.2619
    53.6317  55.3088  55.3088  56.2408

          k =-0.0476 0.0000 0.0952 (  3245 PWs)   bands (ev):

     7.1295   9.9650  10.8784  10.9967  11.3916  11.4242  11.4657  12.2979
    12.6751  12.8442  13.0379  13.0781  13.2583  13.5792  14.0011  14.0866
    14.1566  14.2428  14.2722  14.7447  14.7538  15.1440  18.3542  20.7853
    22.2776  24.8343  25.6537  26.6660  27.5240  29.7135  29.9621  30.0235
    31.1103  33.7993  34.5070  37.7185  38.6672  40.3390  40.5137  40.8648
    41.1153  44.1190  45.2333  47.1214  47.7050  48.5669  49.8742  51.2575
    52.8926  53.1677  55.0333  56.4511

          k =-0.0952-0.0000 0.0952 (  3227 PWs)   bands (ev):

     8.0794  10.6031  10.6031  11.3602  11.4424  11.6802  11.6802  12.2000
    12.3464  12.3464  12.5200  12.9173  13.4024  13.4755  13.7737  13.9127
    13.9127  14.2763  14.2763  14.4661  14.5430  16.2860  16.2860  19.6062
    22.3269  25.3554  26.9416  26.9417  27.9952  27.9952  31.1134  31.7272
    31.7272  31.8017  33.6542  36.8713  41.4615  41.8595  41.8595  43.1070
    43.2928  43.8113  43.8114  47.3074  47.3556  48.5167  48.5168  51.7300
    52.0654  52.1291  53.3998  55.2506

          k = 0.0476-0.0476 0.0476 (  3224 PWs)   bands (ev):

     6.4485  10.5500  10.5500  10.5501  11.2098  11.2098  11.2098  12.5554
    13.0078  13.0078  13.3971  13.3971  13.3971  13.8657  13.8657  14.1576
    14.1576  14.1576  14.8186  14.8186  14.8186  17.3696  17.3696  17.3696
    25.4552  25.4552  25.4552  26.7628  26.7628  26.7628  31.1909  31.1909
    31.1910  33.5465  36.2585  36.2586  36.2586  39.0954  41.1876  41.1876
    42.8921  42.8922  42.8922  46.5027  47.6023  47.6023  51.8054  51.8054
    55.1784  55.1784  55.1784  55.4425

          k = 0.0476-0.0476 0.0952 (  3245 PWs)   bands (ev):

     7.4457  10.1637  11.0096  11.0096  11.4513  11.4513  11.5071  12.3082
    12.6765  12.6765  12.8418  13.0393  13.1294  13.7706  13.8050  13.8676
    13.8676  14.1412  14.7066  14.7363  14.7363  15.4270  18.6977  18.6977
    22.9150  22.9150  26.7614  27.3898  27.3899  30.4308  30.4308  30.8569
    31.0326  32.6950  36.7172  37.6802  37.9249  38.8181  38.8182  42.3654
    43.5804  44.4843  47.0616  47.0617  47.9212  49.0261  50.1860  50.1860
    50.6994  52.9434  53.0347  55.7678

          k =-0.0952 0.0476 0.0476 (  3245 PWs)   bands (ev):

     7.4457  10.1637  11.0096  11.0096  11.4513  11.4513  11.5071  12.3082
    12.6765  12.6765  12.8418  13.0393  13.1294  13.7706  13.8050  13.8676
    13.8676  14.1412  14.7066  14.7363  14.7363  15.4270  18.6977  18.6977
    22.9150  22.9150  26.7614  27.3898  27.3899  30.4308  30.4308  30.8569
    31.0326  32.6949  36.7172  37.6802  37.9249  38.8181  38.8182  42.3654
    43.5805  44.4843  47.0616  47.0617  47.9212  49.0261  50.1860  50.1860
    50.6994  52.9434  53.0346  55.7677

          k = 0.0476-0.0476-0.1427 (  3232 PWs)   bands (ev):

     8.8876   8.8876  11.4372  11.4373  11.5046  11.5046  11.9174  11.9174
    12.2942  12.2942  12.8219  12.8220  13.3928  13.3928  13.6767  13.6768
    14.2931  14.2931  14.4561  14.4561  14.6887  14.6887  19.7768  19.7769
    21.4475  21.4476  28.3201  28.3201  28.5859  28.5859  29.0393  29.0394
    35.0052  35.0053  35.3864  35.3865  38.1693  38.1694  42.1830  42.1831
    44.8399  44.8400  45.3555  45.3555  49.3981  49.3981  50.8506  50.8506
    52.2150  52.2151  53.8574  53.8574

          k = 0.0952-0.0476 0.0952 (  3231 PWs)   bands (ev):

     8.3315  10.6116  10.6116  11.1234  11.6173  11.7581  11.7581  12.2843
    12.4903  12.4903  12.6152  12.9288  13.0782  13.5317  13.5317  13.5339
    13.8948  14.4553  14.6041  14.6041  14.6208  16.3648  16.3648  18.8974
    21.1452  24.1184  24.1185  28.1035  28.1783  31.1958  31.1958  32.2106
    32.2106  34.0693  35.2647  36.9317  39.3368  39.3368  40.0758  43.1478
    43.7242  44.7275  46.4541  46.4541  49.2436  49.2436  50.3464  50.5758
    50.8978  51.6868  52.3635  52.8501

          k =-0.0952 0.0476 0.0952 (  3231 PWs)   bands (ev):

     8.3315  10.6116  10.6116  11.1234  11.6173  11.7581  11.7581  12.2843
    12.4903  12.4903  12.6152  12.9288  13.0782  13.5317  13.5317  13.5339
    13.8948  14.4553  14.6041  14.6041  14.6208  16.3648  16.3648  18.8974
    21.1452  24.1184  24.1185  28.1035  28.1784  31.1958  31.1958  32.2106
    32.2106  34.0693  35.2646  36.9317  39.3368  39.3368  40.0759  43.1478
    43.7242  44.7275  46.4541  46.4541  49.2436  49.2436  50.3464  50.5758
    50.8978  51.6868  52.3635  52.8501

          k = 0.0952-0.0476-0.1427 (  3234 PWs)   bands (ev):

     9.5522   9.5522  10.9751  10.9751  11.8780  11.8780  12.1179  12.1180
    12.4708  12.4708  12.6581  12.6581  13.2074  13.2074  13.3885  13.3885
    14.2139  14.2139  14.5120  14.5120  15.0614  15.0614  17.6000  17.6000
    22.1173  22.1173  25.8620  25.8621  29.5339  29.5339  33.0939  33.0940
    33.3197  33.3198  36.9154  36.9154  40.1193  40.1194  40.4660  40.4660
    45.1770  45.1771  45.6734  45.6735  47.6821  47.6821  50.6075  50.6076
    51.7271  51.7271  53.9754  53.9769

          k = 0.0952-0.0952 0.0952 (  3253 PWs)   bands (ev):

     8.9965  10.5636  10.5636  10.5637  12.0737  12.0737  12.0737  12.5514
    12.7691  12.7691  12.7691  12.8959  12.8959  13.1692  13.1692  13.1692
    14.3352  14.3352  14.7467  14.7467  14.7467  16.6163  16.6163  16.6163
    21.7472  21.7472  21.7472  25.3739  32.5442  32.5443  32.5443  35.3033
    35.3034  35.3034  37.2844  37.2844  37.2844  37.6192  40.0351  40.0352
    44.4517  44.4517  47.7862  48.0116  48.0117  48.0117  48.1385  48.1385
    48.1386  52.4772  52.4772  52.4772

          k = 0.0952-0.0952-0.1427 (  3238 PWs)   bands (ev):

     9.8218   9.8218  10.5234  10.5235  12.2661  12.2661  12.5796  12.5797
    12.8269  12.8269  12.9297  12.9298  12.9725  12.9725  13.0367  13.0367
    14.6484  14.6484  14.6759  14.6759  14.8741  14.8742  16.8055  16.8056
    20.8167  20.8167  23.2558  23.2558  33.4214  33.4214  34.7112  34.7112
    36.2199  36.2200  37.3165  37.3165  39.0727  39.0728  39.4123  39.4124
    44.6759  44.6759  44.8778  44.8779  46.0226  46.0226  48.5081  48.5081
    49.6569  49.6569  53.0845  53.0845

     the Fermi energy is    14.4914 ev

!    total energy              =    -343.63025846 Ry
     Harris-Foulkes estimate   =    -343.63025846 Ry
     estimated scf accuracy    <          5.1E-12 Ry

     The total energy is the sum of the following terms:

     one-electron contribution =      -6.38959299 Ry
     hartree contribution      =      60.35073794 Ry
     xc contribution           =    -120.51399577 Ry
     ewald contribution        =    -277.02899485 Ry
     Dispersion Correction     =      -0.04784014 Ry
     smearing contrib. (-TS)   =      -0.00057264 Ry

     total magnetization       =     2.84 Bohr mag/cell
     absolute magnetization    =     3.25 Bohr mag/cell

     convergence has been achieved in  11 iterations

     Forces acting on atoms (Ry/au):

     atom    1 type  1   force =     0.00000415    0.00000415   -0.00000429
     atom    2 type  1   force =    -0.00000401   -0.00000401   -0.00000401
     atom    3 type  1   force =     0.00000415   -0.00000429    0.00000415
     atom    4 type  1   force =    -0.00000429    0.00000415    0.00000415

     Total force =     0.000014     Total SCF correction =     0.000005
     SCF correction compared to forces is large: reduce conv_thr to get better values


     entering subroutine stress ...

          total   stress  (Ry/bohr**3)                   (kbar)     P=   -0.02
  -0.00000012   0.00000005   0.00000005         -0.02      0.01      0.01
   0.00000005  -0.00000012   0.00000005          0.01     -0.02      0.01
   0.00000005   0.00000005  -0.00000012          0.01      0.01     -0.02


     bfgs converged in   5 scf cycles and   4 bfgs steps
     (criteria: energy <  1.0E-04, force <  1.0E-03, cell <  5.0E-01)

     End of BFGS Geometry Optimization

     Final enthalpy =    -343.6302584562 Ry
Begin final coordinates
     new unit-cell volume =    290.12364 a.u.^3 (    42.99189 Ang^3 )

CELL_PARAMETERS (alat=  1.88972590)
   3.503178163  -0.000000636  -0.000000636
  -0.000000636   3.503178163  -0.000000636
  -0.000000636  -0.000000636   3.503178163

ATOMIC_POSITIONS (alat)
Ni1      1.755478818   1.755478818   0.003886537
Ni1      0.003885935   0.003885935   0.003885935
Ni1      1.755478818   0.003886537   1.755478818
Ni1      0.003886537   1.755478818   1.755478818
End final coordinates



     A final scf calculation at the relaxed structure.
     The G-vectors are recalculated for the final unit cell
     Results may differ from those at the preceding step.

     G-vector sticks info
     --------------------
     sticks:   dense  smooth     PW     G-vecs:    dense   smooth      PW
     Sum        1389    1049    305                39127    25533    4139

     Generating pointlists ...

     Title: 
     Ni-ferro-mag                                                               


     bravais-lattice index     =            0
     lattice parameter (alat)  =       1.8897  a.u.
     unit-cell volume          =     290.1236 (a.u.)^3
     number of atoms/cell      =            4
     number of atomic types    =            1
     number of electrons       =        40.00
     number of Kohn-Sham states=           52
     kinetic-energy cutoff     =      75.0000  Ry
     charge density cutoff     =     400.0000  Ry
     convergence threshold     =      1.0E-10
     mixing beta               =       0.2000
     number of iterations used =            8  plain     mixing
     Exchange-correlation      =  SLA  PW   PBE  PBE ( 1  4  3  4 0 0)

     celldm(1)=   1.889726  celldm(2)=   0.000000  celldm(3)=   0.000000
     celldm(4)=   0.000000  celldm(5)=   0.000000  celldm(6)=   0.000000

     crystal axes: (cart. coord. in units of alat)
               a(1) = (   3.503178  -0.000001  -0.000001 )  
               a(2) = (  -0.000001   3.503178  -0.000001 )  
               a(3) = (  -0.000001  -0.000001   3.503178 )  

     reciprocal axes: (cart. coord. in units 2 pi/alat)
               b(1) = (  0.285455  0.000000  0.000000 )  
               b(2) = (  0.000000  0.285455  0.000000 )  
               b(3) = (  0.000000  0.000000  0.285455 )  


     PseudoPot. # 1 for Ni read from file:
     /home/eliot/pseudo/Ni.pbe-nd-rrkjus.UPF
     MD5 check sum: 8081f0a005c9a5470caab1a58e82ecb2
     Pseudo is Ultrasoft + core correction, Zval = 10.0
     Generated by new atomic code, or converted to UPF format
     Using radial grid of 1203 points,  6 beta functions with: 
                l(1) =   0
                l(2) =   0
                l(3) =   1
                l(4) =   1
                l(5) =   2
                l(6) =   2
     Q(r) pseudized with 0 coefficients 


     atomic species   valence    mass     pseudopotential
        Ni1           10.00    58.69340     Ni( 1.00)

     Starting magnetic structure 
     atomic species   magnetization
        Ni1          0.500

      6 Sym. Ops. (no inversion) found



   Cartesian axes

     site n.     atom                  positions (alat units)
         1           Ni1 tau(   1) = (   1.7554788   1.7554788   0.0038865  )
         2           Ni1 tau(   2) = (   0.0038859   0.0038859   0.0038859  )
         3           Ni1 tau(   3) = (   1.7554788   0.0038865   1.7554788  )
         4           Ni1 tau(   4) = (   0.0038865   1.7554788   1.7554788  )

     number of k points=    32  Methfessel-Paxton smearing, width (Ry)=  0.0500
                       cart. coord. in units 2pi/alat
        k(    1) = (   0.0000000   0.0000000   0.0000000), wk =   0.0046296
        k(    2) = (   0.0000000   0.0000000   0.0475758), wk =   0.0277778
        k(    3) = (   0.0000000   0.0000000   0.0951517), wk =   0.0277778
        k(    4) = (  -0.0000000  -0.0000000  -0.1427275), wk =   0.0138889
        k(    5) = (   0.0000000   0.0475759   0.0475759), wk =   0.0277778
        k(    6) = (   0.0000000   0.0475759   0.0951517), wk =   0.0555556
        k(    7) = (  -0.0000000   0.0475758  -0.1427275), wk =   0.0555556
        k(    8) = (   0.0000000   0.0951517   0.0951517), wk =   0.0277778
        k(    9) = (  -0.0000000   0.0951517  -0.1427275), wk =   0.0555556
        k(   10) = (  -0.0000001  -0.1427276  -0.1427276), wk =   0.0138889
        k(   11) = (   0.0475759   0.0475759   0.0475759), wk =   0.0092593
        k(   12) = (   0.0475759   0.0475759   0.0951517), wk =   0.0277778
        k(   13) = (   0.0475758   0.0475758  -0.1427275), wk =   0.0277778
        k(   14) = (   0.0475759   0.0951517   0.0951517), wk =   0.0277778
        k(   15) = (   0.0475758   0.0951517  -0.1427275), wk =   0.0555556
        k(   16) = (   0.0475758  -0.1427276  -0.1427276), wk =   0.0277778
        k(   17) = (   0.0951517   0.0951517   0.0951517), wk =   0.0092593
        k(   18) = (   0.0951517   0.0951517  -0.1427275), wk =   0.0277778
        k(   19) = (   0.0951516  -0.1427275  -0.1427275), wk =   0.0277778
        k(   20) = (  -0.1427276  -0.1427276  -0.1427276), wk =   0.0046296
        k(   21) = (  -0.0475758  -0.0000000   0.0475758), wk =   0.0277778
        k(   22) = (  -0.0475758   0.0000000   0.0951517), wk =   0.0555556
        k(   23) = (  -0.0951517  -0.0000000   0.0951517), wk =   0.0277778
        k(   24) = (   0.0475758  -0.0475758   0.0475758), wk =   0.0277778
        k(   25) = (   0.0475759  -0.0475758   0.0951517), wk =   0.0555556
        k(   26) = (  -0.0951517   0.0475758   0.0475758), wk =   0.0277778
        k(   27) = (   0.0475758  -0.0475759  -0.1427275), wk =   0.0277778
        k(   28) = (   0.0951517  -0.0475758   0.0951517), wk =   0.0277778
        k(   29) = (  -0.0951517   0.0475758   0.0951517), wk =   0.0555556
        k(   30) = (   0.0951517  -0.0475759  -0.1427275), wk =   0.0555556
        k(   31) = (   0.0951517  -0.0951517   0.0951517), wk =   0.0277778
        k(   32) = (   0.0951516  -0.0951517  -0.1427275), wk =   0.0277778

     Dense  grid:    39127 G-vectors     FFT dimensions: (  45,  45,  45)

     Smooth grid:    25533 G-vectors     FFT dimensions: (  40,  40,  40)

     Largest allocated arrays     est. size (Mb)     dimensions
        Kohn-Sham Wavefunctions         2.55 Mb     (    3218,   52)
        NL pseudopotentials             3.54 Mb     (    3218,   72)
        Each V/rho on FFT grid          2.78 Mb     (   91125,   2)
        Each G-vector array             0.30 Mb     (   39127)
        G-vector shells                 0.02 Mb     (    2639)
     Largest temporary arrays     est. size (Mb)     dimensions
        Auxiliary wavefunctions        10.21 Mb     (    3218,  208)
        Each subspace H/S matrix        0.66 Mb     (     208,  208)
        Each <psi_i|beta_j> matrix      0.06 Mb     (      72,   52)
        Arrays for rho mixing          11.12 Mb     (   91125,    8)

     Check: negative/imaginary core charge=   -0.000005    0.000000

     Initial potential from superposition of free atoms

     starting charge   39.99816, renormalised to   40.00000
     Starting wfc are   24 randomized atomic wfcs +   28 random wfc

     Writing output data file Ni-ferromag.save

     total cpu time spent up to now is     3446.2 secs

     Self-consistent Calculation

     iteration #  1     ecut=    75.00 Ry     beta=0.20
     Davidson diagonalization with overlap
     c_bands:  1 eigenvalues not converged
     c_bands:  2 eigenvalues not converged
     c_bands:  2 eigenvalues not converged
     c_bands:  1 eigenvalues not converged
     c_bands:  2 eigenvalues not converged
     c_bands:  2 eigenvalues not converged
     c_bands:  1 eigenvalues not converged
     c_bands:  2 eigenvalues not converged
     ethr =  1.00E-06,  avg # of iterations = 13.6

     total cpu time spent up to now is     3662.7 secs

     total energy              =    -342.90494157 Ry
     Harris-Foulkes estimate   =    -343.17857604 Ry
     estimated scf accuracy    <       2.41854655 Ry

     total magnetization       =     6.87 Bohr mag/cell
     absolute magnetization    =     6.88 Bohr mag/cell

     iteration #  2     ecut=    75.00 Ry     beta=0.20
     Davidson diagonalization with overlap
     ethr =  6.05E-03,  avg # of iterations =  1.0

     total cpu time spent up to now is     3710.4 secs

     total energy              =    -343.20671357 Ry
     Harris-Foulkes estimate   =    -343.03988680 Ry
     estimated scf accuracy    <       0.78015009 Ry

     total magnetization       =     5.74 Bohr mag/cell
     absolute magnetization    =     5.83 Bohr mag/cell

     iteration #  3     ecut=    75.00 Ry     beta=0.20
     Davidson diagonalization with overlap
     ethr =  1.95E-03,  avg # of iterations =  1.3

     total cpu time spent up to now is     3758.6 secs

     total energy              =    -343.53956991 Ry
     Harris-Foulkes estimate   =    -343.28061114 Ry
     estimated scf accuracy    <       0.35891991 Ry

     total magnetization       =     4.50 Bohr mag/cell
     absolute magnetization    =     4.82 Bohr mag/cell

     iteration #  4     ecut=    75.00 Ry     beta=0.20
     Davidson diagonalization with overlap
     ethr =  8.97E-04,  avg # of iterations =  1.3

     total cpu time spent up to now is     3806.7 secs

     total energy              =    -343.62420407 Ry
     Harris-Foulkes estimate   =    -343.65330583 Ry
     estimated scf accuracy    <       0.11946807 Ry

     total magnetization       =     2.58 Bohr mag/cell
     absolute magnetization    =     3.20 Bohr mag/cell

     iteration #  5     ecut=    75.00 Ry     beta=0.20
     Davidson diagonalization with overlap
     ethr =  2.99E-04,  avg # of iterations =  1.0

     total cpu time spent up to now is     3854.6 secs

     total energy              =    -343.62397297 Ry
     Harris-Foulkes estimate   =    -343.63107354 Ry
     estimated scf accuracy    <       0.02392979 Ry

     total magnetization       =     2.62 Bohr mag/cell
     absolute magnetization    =     3.23 Bohr mag/cell

     iteration #  6     ecut=    75.00 Ry     beta=0.20
     Davidson diagonalization with overlap
     ethr =  5.98E-05,  avg # of iterations =  2.2

     total cpu time spent up to now is     3904.0 secs

     total energy              =    -343.62665761 Ry
     Harris-Foulkes estimate   =    -343.62747276 Ry
     estimated scf accuracy    <       0.00100816 Ry

     total magnetization       =     2.69 Bohr mag/cell
     absolute magnetization    =     3.28 Bohr mag/cell

     iteration #  7     ecut=    75.00 Ry     beta=0.20
     Davidson diagonalization with overlap
     ethr =  2.52E-06,  avg # of iterations =  4.1

     total cpu time spent up to now is     3958.6 secs

     total energy              =    -343.62987131 Ry
     Harris-Foulkes estimate   =    -343.62863162 Ry
     estimated scf accuracy    <       0.00185341 Ry

     total magnetization       =     3.01 Bohr mag/cell
     absolute magnetization    =     3.48 Bohr mag/cell

     iteration #  8     ecut=    75.00 Ry     beta=0.20
     Davidson diagonalization with overlap
     ethr =  2.52E-06,  avg # of iterations =  1.0

     total cpu time spent up to now is     4006.3 secs

     total energy              =    -343.63020457 Ry
     Harris-Foulkes estimate   =    -343.63017401 Ry
     estimated scf accuracy    <       0.00014230 Ry

     total magnetization       =     2.90 Bohr mag/cell
     absolute magnetization    =     3.35 Bohr mag/cell

     iteration #  9     ecut=    75.00 Ry     beta=0.20
     Davidson diagonalization with overlap
     ethr =  3.56E-07,  avg # of iterations =  1.0

     total cpu time spent up to now is     4054.1 secs

     total energy              =    -343.63022849 Ry
     Harris-Foulkes estimate   =    -343.63020638 Ry
     estimated scf accuracy    <       0.00009965 Ry

     total magnetization       =     2.89 Bohr mag/cell
     absolute magnetization    =     3.34 Bohr mag/cell

     iteration # 10     ecut=    75.00 Ry     beta=0.20
     Davidson diagonalization with overlap
     ethr =  2.49E-07,  avg # of iterations =  1.1

     total cpu time spent up to now is     4102.0 secs

     total energy              =    -343.63030558 Ry
     Harris-Foulkes estimate   =    -343.63030546 Ry
     estimated scf accuracy    <       0.00000172 Ry

     total magnetization       =     2.84 Bohr mag/cell
     absolute magnetization    =     3.26 Bohr mag/cell

     iteration # 11     ecut=    75.00 Ry     beta=0.20
     Davidson diagonalization with overlap
     ethr =  4.31E-09,  avg # of iterations =  1.4

     total cpu time spent up to now is     4150.4 secs

     total energy              =    -343.63030528 Ry
     Harris-Foulkes estimate   =    -343.63030577 Ry
     estimated scf accuracy    <       0.00000054 Ry

     total magnetization       =     2.84 Bohr mag/cell
     absolute magnetization    =     3.26 Bohr mag/cell

     iteration # 12     ecut=    75.00 Ry     beta=0.20
     Davidson diagonalization with overlap
     ethr =  1.35E-09,  avg # of iterations =  1.0

     total cpu time spent up to now is     4198.1 secs

     total energy              =    -343.63030530 Ry
     Harris-Foulkes estimate   =    -343.63030542 Ry
     estimated scf accuracy    <       0.00000083 Ry

     total magnetization       =     2.84 Bohr mag/cell
     absolute magnetization    =     3.26 Bohr mag/cell

     iteration # 13     ecut=    75.00 Ry     beta=0.20
     Davidson diagonalization with overlap
     ethr =  1.35E-09,  avg # of iterations =  2.0

     total cpu time spent up to now is     4248.8 secs

     total energy              =    -343.63030610 Ry
     Harris-Foulkes estimate   =    -343.63030628 Ry
     estimated scf accuracy    <          8.3E-09 Ry

     total magnetization       =     2.84 Bohr mag/cell
     absolute magnetization    =     3.25 Bohr mag/cell

     iteration # 14     ecut=    75.00 Ry     beta=0.20
     Davidson diagonalization with overlap
     ethr =  2.08E-11,  avg # of iterations =  2.0

     total cpu time spent up to now is     4306.6 secs

     total energy              =    -343.63030619 Ry
     Harris-Foulkes estimate   =    -343.63030618 Ry
     estimated scf accuracy    <       0.00000008 Ry

     total magnetization       =     2.83 Bohr mag/cell
     absolute magnetization    =     3.25 Bohr mag/cell

     iteration # 15     ecut=    75.00 Ry     beta=0.20
     Davidson diagonalization with overlap
     ethr =  2.08E-11,  avg # of iterations =  2.0

     total cpu time spent up to now is     4364.3 secs

     total energy              =    -343.63030629 Ry
     Harris-Foulkes estimate   =    -343.63030629 Ry
     estimated scf accuracy    <          3.8E-10 Ry

     total magnetization       =     2.84 Bohr mag/cell
     absolute magnetization    =     3.25 Bohr mag/cell

     iteration # 16     ecut=    75.00 Ry     beta=0.20
     Davidson diagonalization with overlap
     ethr =  9.46E-13,  avg # of iterations =  2.2

     total cpu time spent up to now is     4418.6 secs

     total energy              =    -343.63030629 Ry
     Harris-Foulkes estimate   =    -343.63030629 Ry
     estimated scf accuracy    <          2.0E-09 Ry

     total magnetization       =     2.84 Bohr mag/cell
     absolute magnetization    =     3.25 Bohr mag/cell

     iteration # 17     ecut=    75.00 Ry     beta=0.20
     Davidson diagonalization with overlap
     ethr =  9.46E-13,  avg # of iterations =  2.1

     Magnetic moment per site:
     atom:    1    charge:    3.0536    magn:    0.3402    constr:    0.0000
     atom:    2    charge:    3.0514    magn:    0.3400    constr:    0.0000
     atom:    3    charge:    3.0536    magn:    0.3402    constr:    0.0000
     atom:    4    charge:    3.0536    magn:    0.3402    constr:    0.0000

     total cpu time spent up to now is     4472.8 secs

     End of self-consistent calculation

 ------ SPIN UP ------------


          k = 0.0000 0.0000 0.0000 (  3191 PWs)   bands (ev):

     5.4299   9.7135   9.7135   9.7135  10.1666  10.1666  10.1666  11.9453
    11.9453  11.9453  13.1240  13.1240  13.8417  13.8417  13.8417  13.9316
    13.9317  13.9317  13.9317  13.9317  13.9317  17.0704  17.0704  17.0704
    23.8078  23.8079  23.8079  29.5660  29.5660  29.5660  29.5660  29.5660
    29.5660  34.6428  34.6428  34.6428  37.9880  37.9881  37.9881  38.4938
    42.4694  42.4694  42.4695  46.0661  46.0661  46.0661  48.1716  55.1645
    55.1645  55.1646  57.6077  59.0297

          k = 0.0000 0.0000 0.0476 (  3170 PWs)   bands (ev):

     5.7961   9.7356   9.8977   9.8977  10.2770  10.2929  10.2929  11.8166
    12.0477  12.0477  13.0061  13.1707  13.2778  13.2778  13.6883  13.6883
    13.7557  13.7557  13.7922  13.9319  13.9319  15.4695  18.0289  18.0289
    23.9038  23.9038  26.0571  27.8141  27.8141  28.4424  28.4424  30.1262
    30.1262  34.7589  36.8157  36.8157  37.8578  38.1200  39.9454  39.9455
    40.2473  40.2473  40.9143  47.4863  48.1237  48.1237  49.1460  51.5548
    56.2600  56.2600  56.6706  56.6706

          k = 0.0000 0.0000 0.0952 (  3174 PWs)   bands (ev):

     6.8453   9.5063  10.3346  10.3346  10.5847  10.6761  10.6761  11.4726
    12.2221  12.2221  12.3443  12.3443  12.7183  13.2993  13.3053  13.3099
    13.3099  13.3170  13.3170  13.6581  13.9325  13.9325  19.9912  19.9912
    24.2211  24.2212  25.0407  25.0407  26.6742  26.6742  30.3567  31.7053
    31.7053  35.1223  36.7248  37.0267  37.0267  38.3469  38.6719  40.8599
    40.8599  44.1094  44.1095  44.1414  50.9223  51.0449  51.0449  51.0476
    51.0476  55.0325  55.9357  55.9358

          k =-0.0000-0.0000-0.1427 (  3218 PWs)   bands (ev):

     8.3446   8.3446  10.6107  10.6107  11.0196  11.0196  11.3226  11.3226
    11.3226  11.3226  12.5412  12.5412  12.7963  12.7963  12.7964  12.7964
    13.0614  13.0614  13.4773  13.4773  13.9327  13.9327  22.3766  22.3766
    22.3766  22.3766  24.5944  24.5945  25.7286  25.7287  34.0829  34.0829
    34.0829  34.0830  34.9064  34.9065  35.7700  35.7700  40.2655  40.2656
    45.6610  45.6610  45.6611  45.6611  47.6152  47.6152  52.2866  52.2866
    54.1730  54.1730  54.1731  54.1731

          k = 0.0000 0.0476 0.0476 (  3167 PWs)   bands (ev):

     6.1536   9.9339   9.9339  10.0608  10.3944  10.3944  10.4083  11.7567
    12.0927  12.1097  12.9318  12.9815  12.9901  12.9901  13.1659  13.5597
    13.6842  13.6842  13.7544  13.7544  13.8159  16.4015  16.4015  18.7986
    23.8981  25.0970  26.2444  26.2444  28.2918  28.2918  28.9346  28.9346
    30.6538  36.0322  36.1163  37.0242  37.0242  37.3300  40.1130  40.1131
    41.2688  42.6007  43.5285  45.2290  46.3593  49.7839  50.4522  53.0893
    53.6662  55.3469  55.3469  56.3006

          k = 0.0000 0.0476 0.0952 (  3181 PWs)   bands (ev):

     7.1752   9.7424  10.4159  10.4645  10.6762  10.7294  10.7485  11.4757
    11.9835  12.1232  12.2385  12.3560  12.3814  12.8145  13.2359  13.3145
    13.3213  13.3449  13.4973  13.7511  13.7571  14.4347  18.0156  20.5812
    22.0791  24.6063  25.5020  26.5312  27.3988  29.6050  29.9003  29.9530
    31.0129  33.7212  34.4645  37.6765  38.6292  40.3874  40.5661  40.7450
    41.1157  44.0369  45.0288  47.0550  47.7826  48.5845  49.8902  51.3322
    52.9371  53.2583  54.8136  56.1988

          k =-0.0000 0.0476-0.1427 (  3188 PWs)   bands (ev):

     8.6260   8.6261  10.7632  10.7632  11.0713  11.0713  11.1903  11.1903
    11.3371  11.3371  12.1678  12.1678  12.7972  12.7972  13.0266  13.0266
    13.0464  13.0464  13.6607  13.6608  13.7487  13.7487  19.8840  19.8840
    22.8758  22.8758  25.4099  25.4100  28.3071  28.3072  31.4945  31.4946
    32.0182  32.0182  35.8263  35.8263  38.8256  38.8256  42.2097  42.2098
    43.1118  43.1118  45.9371  45.9372  50.0787  50.0787  50.3520  50.3520
    52.6099  52.6099  53.1997  53.1997

          k = 0.0000 0.0952 0.0952 (  3203 PWs)   bands (ev):

     8.1016  10.3299  10.3299  10.6957  10.9443  10.9443  10.9580  11.4058
    11.6529  11.6530  11.8076  12.1259  12.4868  12.7284  13.0200  13.1751
    13.1751  13.3151  13.3151  13.4851  13.7004  15.6806  15.6806  19.2985
    22.1076  25.1570  26.7747  26.7748  27.8940  27.8941  30.9824  31.6384
    31.6384  31.7342  33.6017  36.8355  41.5250  41.8776  41.8776  43.0723
    43.4101  43.7690  43.7690  47.1861  47.3263  48.4719  48.4719  51.6706
    52.1744  52.1885  53.1965  55.3478

          k =-0.0000 0.0952-0.1427 (  3176 PWs)   bands (ev):

     9.3686   9.3686  10.8006  10.8006  11.1985  11.1985  11.2060  11.2061
    11.3557  11.3558  11.8620  11.8620  12.8339  12.8339  12.8346  12.8346
    12.9007  12.9007  13.3500  13.3501  14.3619  14.3619  17.2118  17.2119
    24.2316  24.2316  26.2249  26.2250  28.6502  28.6502  29.5358  29.5358
    32.9469  32.9470  36.7885  36.7885  40.3622  40.3623  43.0472  43.0472
    43.2141  43.2142  46.7376  46.7376  47.9211  47.9211  50.4247  50.4247
    51.7582  51.7583  53.5602  53.5603

          k =-0.0000-0.1427-0.1427 (  3168 PWs)   bands (ev):

    10.2216  10.2216  10.2216  10.2216  11.3177  11.3177  11.3177  11.3177
    11.6269  11.6269  11.6269  11.6269  12.6878  12.6878  12.6878  12.6878
    13.0018  13.0018  13.0018  13.0018  15.4320  15.4321  15.4321  15.4321
    26.2057  26.2057  26.2057  26.2057  27.5766  27.5766  27.5766  27.5767
    37.8904  37.8904  37.8904  37.8905  38.4976  38.4977  38.4977  38.4977
    47.1763  47.1763  47.1763  47.1763  49.1870  49.1870  49.1870  49.1870
    51.8150  51.8151  51.8151  51.8151

          k = 0.0476 0.0476 0.0476 (  3164 PWs)   bands (ev):

     6.4994  10.0948  10.0948  10.0948  10.5090  10.5090  10.5090  11.7218
    12.1294  12.1294  12.6862  12.6862  12.6862  13.0792  13.0792  13.3263
    13.3263  13.3263  13.8700  13.8700  13.8700  17.0286  17.0286  17.0286
    25.3237  25.3237  25.3237  26.5895  26.5895  26.5895  31.1690  31.1691
    31.1691  33.4799  36.1635  36.1635  36.1635  39.2507  41.1350  41.1350
    42.8080  42.8081  42.8081  46.5901  47.6451  47.6451  51.6387  51.6387
    55.1053  55.2252  55.2252  55.2252

          k = 0.0476 0.0476 0.0952 (  3185 PWs)   bands (ev):

     7.4808   9.9010  10.4779  10.4779  10.7946  10.8227  10.8227  11.5124
    11.9739  11.9739  12.1692  12.2086  12.2688  12.9242  12.9948  13.0805
    13.0805  13.3187  13.7728  13.7728  13.8051  14.7966  18.3707  18.3707
    22.7048  22.7048  26.6172  27.2408  27.2408  30.3559  30.3559  30.7428
    30.9452  32.6485  36.6426  37.7742  37.8477  38.7878  38.7878  42.3578
    43.5002  44.4669  47.0175  47.0175  47.8791  49.0803  50.1971  50.1972
    50.6924  53.0140  53.0745  55.6528

          k = 0.0476 0.0476-0.1427 (  3190 PWs)   bands (ev):

     8.8530   8.8531  10.8651  10.8651  10.9230  10.9231  11.1663  11.1663
    11.5800  11.5800  12.0721  12.0721  12.5420  12.5420  12.9129  12.9129
    13.4882  13.4882  13.5947  13.5947  13.7167  13.7167  19.5195  19.5195
    21.1436  21.1436  28.2052  28.2052  28.4439  28.4440  28.9247  28.9247
    34.9359  34.9359  35.4131  35.4131  38.0920  38.0921  42.2017  42.2017
    44.7531  44.7531  45.3664  45.3664  49.4775  49.4776  50.8963  50.8963
    52.1816  52.1816  54.0132  54.0132

          k = 0.0476 0.0952 0.0952 (  3187 PWs)   bands (ev):

     8.3195  10.2188  10.2188  10.5049  11.1101  11.1561  11.1561  11.5575
    11.7700  11.7700  11.9032  12.1279  12.2538  12.7321  12.7321  12.7485
    13.0512  13.6061  13.6754  13.6906  13.6906  15.8113  15.8114  18.6226
    20.8013  23.9014  23.9014  27.9416  28.0507  31.1320  31.1320  32.1180
    32.1180  34.0146  35.2390  36.9064  39.3220  39.3220  40.1522  43.0342
    43.7324  44.7817  46.4601  46.4601  49.1889  49.1889  50.4148  50.5922
    50.9214  51.6142  52.2980  52.9231

          k = 0.0476 0.0952-0.1427 (  3188 PWs)   bands (ev):

     9.4027   9.4027  10.4400  10.4400  11.3235  11.3236  11.4717  11.4717
    11.7769  11.7769  11.8976  11.8976  12.4031  12.4031  12.6138  12.6138
    13.3484  13.3484  13.5760  13.5760  14.2682  14.2682  17.1889  17.1889
    21.8171  21.8171  25.6620  25.6620  29.4333  29.4333  33.0372  33.0372
    33.2508  33.2508  36.9024  36.9024  40.1351  40.1351  40.4434  40.4434
    45.1898  45.1898  45.6816  45.6816  47.7012  47.7012  50.5693  50.5693
    51.7876  51.7876  53.8998  53.8998

          k = 0.0476-0.1427-0.1427 (  3200 PWs)   bands (ev):

     9.9721   9.9721   9.9721   9.9721  11.7146  11.7146  11.7146  11.7146
    11.8017  11.8017  11.8017  11.8017  12.3745  12.3745  12.3745  12.3746
    13.3309  13.3309  13.3309  13.3310  15.3430  15.3430  15.3430  15.3430
    23.4508  23.4508  23.4508  23.4508  30.9709  30.9709  30.9710  30.9710
    38.1709  38.1709  38.1709  38.1709  38.3414  38.3415  38.3415  38.3415
    46.6529  46.6529  46.6529  46.6530  46.7548  46.7548  46.7548  46.7548
    54.8066  54.8067  54.8067  54.8067

          k = 0.0952 0.0952 0.0952 (  3181 PWs)   bands (ev):

     8.8634  10.0538  10.0538  10.0538  11.5146  11.5146  11.5146  12.0285
    12.0893  12.0893  12.0893  12.0947  12.0947  12.3779  12.3779  12.3779
    13.4540  13.4540  13.8188  13.8188  13.8188  16.1897  16.1897  16.1897
    21.4086  21.4086  21.4086  25.1485  32.4978  32.4979  32.4979  35.2419
    35.2419  35.2419  37.2717  37.2717  37.2717  37.7901  39.9490  39.9490
    44.4424  44.4424  47.7710  48.0632  48.0632  48.0632  48.1371  48.1371
    48.1371  52.4460  52.4460  52.4460

          k = 0.0952 0.0952-0.1427 (  3190 PWs)   bands (ev):

     9.4894   9.4894   9.9852   9.9852  11.6343  11.6343  11.9208  11.9208
    12.1375  12.1375  12.2578  12.2578  12.2726  12.2726  12.3725  12.3725
    13.7393  13.7393  13.7472  13.7472  14.1582  14.1582  16.4740  16.4740
    20.3796  20.3796  22.9663  22.9664  33.4135  33.4136  34.6252  34.6252
    36.3285  36.3286  37.2441  37.2441  38.9925  38.9925  39.4378  39.4378
    44.6494  44.6494  44.9005  44.9006  46.0142  46.0142  48.5482  48.5483
    49.6034  49.6034  52.9755  52.9755

          k = 0.0952-0.1427-0.1427 (  3172 PWs)   bands (ev):

     9.6650   9.6650   9.6650   9.6650  11.8803  11.8803  11.8803  11.8803
    12.0700  12.0700  12.0700  12.0700  12.8195  12.8195  12.8195  12.8195
    13.6673  13.6673  13.6673  13.6673  14.9665  14.9665  14.9665  14.9665
    21.0931  21.0931  21.0931  21.0931  35.1531  35.1532  35.1532  35.1532
    38.2175  38.2175  38.2175  38.2175  38.9378  38.9379  38.9379  38.9379
    44.0913  44.0913  44.0913  44.0913  45.1546  45.1546  45.1546  45.1546
    50.4175  50.4175  50.4175  50.4175

          k =-0.1427-0.1427-0.1427 (  3184 PWs)   bands (ev):

     9.5490   9.5490   9.5490   9.5490  11.9585  11.9585  11.9585  11.9585
    11.9585  11.9585  11.9585  11.9585  13.7948  13.7948  13.7948  13.7948
    13.7948  13.7948  13.7948  13.7948  14.2915  14.2916  14.2916  14.2916
    20.2119  20.2119  20.2119  20.2120  36.9489  36.9491  36.9491  36.9491
    39.5743  39.5743  39.5743  39.5744  39.5744  39.5744  39.5744  39.5744
    42.8001  42.8001  42.8001  42.8001  42.8001  42.8001  42.8001  42.8001
    48.7714  48.7714  48.7714  48.7714

          k =-0.0476-0.0000 0.0476 (  3167 PWs)   bands (ev):

     6.1536   9.9339   9.9339  10.0608  10.3944  10.3944  10.4083  11.7567
    12.0927  12.1097  12.9318  12.9815  12.9901  12.9901  13.1659  13.5597
    13.6842  13.6842  13.7544  13.7544  13.8159  16.4015  16.4015  18.7986
    23.8981  25.0969  26.2444  26.2444  28.2918  28.2918  28.9346  28.9346
    30.6538  36.0322  36.1163  37.0242  37.0242  37.3300  40.1130  40.1131
    41.2688  42.6007  43.5285  45.2290  46.3593  49.7839  50.4522  53.0893
    53.6662  55.3468  55.3469  56.3006

          k =-0.0476 0.0000 0.0952 (  3181 PWs)   bands (ev):

     7.1752   9.7424  10.4159  10.4645  10.6762  10.7294  10.7485  11.4757
    11.9835  12.1232  12.2385  12.3560  12.3814  12.8145  13.2359  13.3145
    13.3213  13.3449  13.4973  13.7511  13.7571  14.4347  18.0156  20.5812
    22.0791  24.6063  25.5020  26.5312  27.3988  29.6050  29.9003  29.9530
    31.0129  33.7212  34.4645  37.6765  38.6292  40.3874  40.5661  40.7450
    41.1157  44.0369  45.0288  47.0550  47.7826  48.5845  49.8901  51.3322
    52.9370  53.2583  54.8136  56.1987

          k =-0.0952-0.0000 0.0952 (  3203 PWs)   bands (ev):

     8.1016  10.3299  10.3299  10.6957  10.9443  10.9443  10.9580  11.4058
    11.6530  11.6530  11.8076  12.1259  12.4868  12.7284  13.0200  13.1751
    13.1751  13.3151  13.3151  13.4851  13.7004  15.6806  15.6806  19.2985
    22.1076  25.1570  26.7747  26.7748  27.8940  27.8941  30.9824  31.6384
    31.6384  31.7342  33.6017  36.8355  41.5251  41.8776  41.8776  43.0723
    43.4101  43.7689  43.7690  47.1861  47.3263  48.4719  48.4719  51.6706
    52.1744  52.1885  53.1966  55.3478

          k = 0.0476-0.0476 0.0476 (  3164 PWs)   bands (ev):

     6.4994  10.0948  10.0948  10.0948  10.5090  10.5090  10.5090  11.7218
    12.1294  12.1294  12.6862  12.6862  12.6862  13.0792  13.0792  13.3263
    13.3263  13.3263  13.8700  13.8700  13.8700  17.0286  17.0286  17.0286
    25.3237  25.3237  25.3237  26.5895  26.5895  26.5895  31.1691  31.1691
    31.1691  33.4799  36.1635  36.1635  36.1636  39.2507  41.1350  41.1350
    42.8080  42.8081  42.8081  46.5901  47.6451  47.6451  51.6387  51.6387
    55.1053  55.2252  55.2252  55.2252

          k = 0.0476-0.0476 0.0952 (  3185 PWs)   bands (ev):

     7.4808   9.9010  10.4779  10.4779  10.7946  10.8227  10.8227  11.5124
    11.9739  11.9739  12.1692  12.2086  12.2688  12.9242  12.9948  13.0805
    13.0805  13.3187  13.7728  13.7728  13.8051  14.7966  18.3707  18.3707
    22.7048  22.7048  26.6172  27.2408  27.2408  30.3559  30.3559  30.7427
    30.9452  32.6485  36.6426  37.7743  37.8478  38.7878  38.7878  42.3578
    43.5001  44.4669  47.0175  47.0175  47.8791  49.0803  50.1971  50.1972
    50.6924  53.0140  53.0745  55.6528

          k =-0.0952 0.0476 0.0476 (  3185 PWs)   bands (ev):

     7.4808   9.9010  10.4779  10.4779  10.7946  10.8227  10.8227  11.5124
    11.9739  11.9739  12.1692  12.2086  12.2688  12.9242  12.9948  13.0805
    13.0805  13.3187  13.7728  13.7728  13.8051  14.7966  18.3707  18.3707
    22.7048  22.7048  26.6172  27.2408  27.2408  30.3559  30.3559  30.7427
    30.9452  32.6485  36.6426  37.7742  37.8477  38.7878  38.7878  42.3578
    43.5002  44.4669  47.0175  47.0175  47.8791  49.0803  50.1971  50.1971
    50.6924  53.0140  53.0745  55.6528

          k = 0.0476-0.0476-0.1427 (  3190 PWs)   bands (ev):

     8.8530   8.8531  10.8651  10.8651  10.9230  10.9231  11.1663  11.1663
    11.5800  11.5800  12.0721  12.0721  12.5420  12.5420  12.9129  12.9129
    13.4882  13.4882  13.5947  13.5947  13.7167  13.7167  19.5195  19.5195
    21.1436  21.1436  28.2051  28.2052  28.4439  28.4439  28.9247  28.9247
    34.9359  34.9359  35.4131  35.4132  38.0921  38.0921  42.2017  42.2017
    44.7531  44.7531  45.3664  45.3664  49.4775  49.4776  50.8963  50.8963
    52.1816  52.1816  54.0132  54.0132

          k = 0.0952-0.0476 0.0952 (  3187 PWs)   bands (ev):

     8.3195  10.2188  10.2188  10.5049  11.1101  11.1561  11.1561  11.5575
    11.7700  11.7700  11.9032  12.1279  12.2538  12.7321  12.7321  12.7485
    13.0512  13.6061  13.6754  13.6906  13.6906  15.8113  15.8114  18.6226
    20.8013  23.9014  23.9014  27.9415  28.0507  31.1320  31.1320  32.1180
    32.1180  34.0146  35.2391  36.9064  39.3220  39.3220  40.1522  43.0343
    43.7324  44.7817  46.4601  46.4601  49.1888  49.1889  50.4147  50.5922
    50.9214  51.6142  52.2979  52.9231

          k =-0.0952 0.0476 0.0952 (  3187 PWs)   bands (ev):

     8.3195  10.2188  10.2188  10.5049  11.1101  11.1561  11.1561  11.5575
    11.7700  11.7700  11.9032  12.1279  12.2538  12.7321  12.7321  12.7485
    13.0512  13.6061  13.6754  13.6906  13.6906  15.8113  15.8114  18.6226
    20.8013  23.9014  23.9014  27.9415  28.0507  31.1320  31.1320  32.1180
    32.1180  34.0147  35.2391  36.9065  39.3220  39.3220  40.1522  43.0343
    43.7324  44.7817  46.4601  46.4601  49.1888  49.1889  50.4147  50.5922
    50.9214  51.6143  52.2979  52.9231

          k = 0.0952-0.0476-0.1427 (  3188 PWs)   bands (ev):

     9.4027   9.4027  10.4400  10.4400  11.3235  11.3236  11.4717  11.4717
    11.7769  11.7769  11.8976  11.8976  12.4031  12.4031  12.6138  12.6138
    13.3484  13.3484  13.5760  13.5760  14.2682  14.2682  17.1889  17.1889
    21.8171  21.8171  25.6620  25.6620  29.4333  29.4333  33.0372  33.0372
    33.2508  33.2508  36.9024  36.9024  40.1351  40.1351  40.4434  40.4434
    45.1898  45.1898  45.6816  45.6816  47.7012  47.7012  50.5693  50.5693
    51.7876  51.7876  53.8998  53.8998

          k = 0.0952-0.0952 0.0952 (  3181 PWs)   bands (ev):

     8.8634  10.0538  10.0538  10.0538  11.5146  11.5146  11.5146  12.0285
    12.0893  12.0893  12.0893  12.0947  12.0947  12.3779  12.3779  12.3779
    13.4540  13.4540  13.8188  13.8188  13.8188  16.1897  16.1897  16.1897
    21.4086  21.4086  21.4086  25.1485  32.4978  32.4978  32.4978  35.2419
    35.2419  35.2419  37.2717  37.2717  37.2717  37.7901  39.9491  39.9491
    44.4424  44.4424  47.7710  48.0631  48.0632  48.0632  48.1371  48.1371
    48.1371  52.4460  52.4460  52.4460

          k = 0.0952-0.0952-0.1427 (  3190 PWs)   bands (ev):

     9.4894   9.4894   9.9852   9.9852  11.6343  11.6343  11.9208  11.9208
    12.1375  12.1375  12.2578  12.2578  12.2726  12.2726  12.3725  12.3725
    13.7393  13.7393  13.7472  13.7472  14.1582  14.1582  16.4740  16.4740
    20.3796  20.3796  22.9663  22.9664  33.4135  33.4136  34.6252  34.6252
    36.3285  36.3286  37.2441  37.2441  38.9925  38.9925  39.4378  39.4378
    44.6494  44.6494  44.9005  44.9006  46.0142  46.0142  48.5482  48.5482
    49.6034  49.6034  52.9755  52.9755

 ------ SPIN DOWN ----------


          k = 0.0000 0.0000 0.0000 (  3191 PWs)   bands (ev):

     5.3752  10.1756  10.1757  10.1757  10.8850  10.8850  10.8850  12.8260
    12.8260  12.8260  13.9043  13.9043  14.6560  14.6561  14.6561  14.9413
    14.9413  14.9413  14.9413  14.9413  14.9413  16.9916  16.9916  16.9916
    24.1136  24.1136  24.1136  29.5522  29.5522  29.5522  29.5523  29.5523
    29.5523  34.8071  34.8071  34.8071  38.1315  38.1317  38.1317  38.2883
    42.4402  42.4402  42.4402  46.1386  46.1386  46.1386  48.0122  55.3535
    55.3535  55.3535  58.1279  59.5923

          k = 0.0000 0.0000 0.0476 (  3170 PWs)   bands (ev):

     5.7414  10.1513  10.3699  10.3699  11.0043  11.0088  11.0088  12.6840
    12.9324  12.9324  13.7768  13.9531  14.0980  14.0980  14.4891  14.4891
    14.6041  14.7487  14.7487  14.9416  14.9416  15.5396  18.1357  18.1357
    24.1944  24.1944  26.2590  27.8827  27.8827  28.4697  28.4697  30.1288
    30.1288  34.9107  36.8967  36.8967  37.7192  38.2611  40.0659  40.0660
    40.2892  40.2892  40.8444  47.5068  48.0976  48.0976  49.2177  51.5455
    56.4712  56.4712  56.5971  56.5971

          k = 0.0000 0.0000 0.0952 (  3174 PWs)   bands (ev):

     6.7949   9.7145  10.8313  10.8313  11.3374  11.3865  11.3865  12.3057
    12.9516  12.9516  13.2422  13.2422  13.4561  13.6759  14.0772  14.0772
    14.0877  14.2738  14.2738  14.4634  14.9422  14.9422  20.1763  20.1763
    24.4674  24.4674  25.1815  25.1815  26.7723  26.7724  30.4524  31.7422
    31.7422  35.2363  36.6901  37.0981  37.0981  38.2566  38.8179  40.8654
    40.8654  44.2087  44.2088  44.3595  50.8779  50.9500  50.9500  50.9741
    50.9741  54.9282  56.1765  56.1766

          k =-0.0000-0.0000-0.1427 (  3218 PWs)   bands (ev):

     8.3380   8.3381  11.1230  11.1230  11.8103  11.8103  12.0321  12.0321
    12.0321  12.0321  13.1893  13.1894  13.7183  13.7183  13.7183  13.7183
    13.8075  13.8076  14.2740  14.2740  14.9425  14.9425  22.5582  22.5582
    22.5583  22.5583  24.7912  24.7912  25.8859  25.8860  34.1480  34.1480
    34.1480  34.1480  34.8866  34.8867  35.8215  35.8215  40.4575  40.4575
    45.6166  45.6166  45.6167  45.6167  47.6891  47.6893  52.4757  52.4757
    54.0627  54.0627  54.0628  54.0628

          k = 0.0000 0.0476 0.0476 (  3167 PWs)   bands (ev):

     6.0999  10.3622  10.3622  10.5519  11.1082  11.1187  11.1187  12.6104
    12.9828  12.9872  13.6971  13.7384  13.7384  13.7503  13.9533  14.3506
    14.4767  14.4767  14.7476  14.7476  14.8182  16.7160  16.7160  18.9642
    24.1568  25.2266  26.4331  26.4332  28.3747  28.3748  28.9756  28.9756
    30.6648  36.1081  36.1363  37.0948  37.0949  37.3476  40.2309  40.2310
    41.1879  42.6881  43.4976  45.1725  46.4200  49.9425  50.3777  53.2619
    53.6317  55.3088  55.3088  56.2408

          k = 0.0000 0.0476 0.0952 (  3181 PWs)   bands (ev):

     7.1295   9.9650  10.8784  10.9967  11.3916  11.4243  11.4657  12.2979
    12.6751  12.8443  13.0379  13.0781  13.2583  13.5792  14.0011  14.0866
    14.1566  14.2429  14.2722  14.7447  14.7538  15.1440  18.3543  20.7853
    22.2776  24.8343  25.6537  26.6660  27.5240  29.7135  29.9621  30.0235
    31.1103  33.7993  34.5070  37.7185  38.6672  40.3390  40.5137  40.8648
    41.1153  44.1191  45.2333  47.1214  47.7050  48.5669  49.8742  51.2575
    52.8926  53.1677  55.0333  56.9878

          k =-0.0000 0.0476-0.1427 (  3188 PWs)   bands (ev):

     8.6316   8.6316  11.2666  11.2666  11.8547  11.8548  11.8672  11.8672
    12.0493  12.0493  12.9090  12.9090  13.7218  13.7218  13.7963  13.7964
    13.7967  13.7967  14.4995  14.4995  14.7431  14.7431  20.1655  20.1655
    23.0689  23.0689  25.5815  25.5815  28.4241  28.4242  31.6086  31.6086
    32.0761  32.0761  35.8515  35.8516  38.8269  38.8269  42.3624  42.3624
    43.1048  43.1049  45.8892  45.8893  50.1441  50.1442  50.2843  50.2844
    52.5263  52.5264  53.3675  53.3676

          k = 0.0000 0.0952 0.0952 (  3203 PWs)   bands (ev):

     8.0795  10.6031  10.6031  11.3602  11.4424  11.6802  11.6802  12.2000
    12.3464  12.3464  12.5200  12.9173  13.4024  13.4755  13.7737  13.9127
    13.9127  14.2763  14.2763  14.4661  14.5430  16.2860  16.2860  19.6062
    22.3269  25.3555  26.9416  26.9417  27.9952  27.9952  31.1134  31.7272
    31.7272  31.8017  33.6542  36.8713  41.4615  41.8595  41.8595  43.1070
    43.2928  43.8113  43.8114  47.3074  47.3556  48.5168  48.5168  51.7301
    52.0654  52.1291  53.3999  55.2506

          k =-0.0000 0.0952-0.1427 (  3176 PWs)   bands (ev):

     9.4299   9.4299  11.2204  11.2204  11.8462  11.8462  11.9616  11.9616
    12.0766  12.0766  12.5991  12.5991  13.5685  13.5685  13.6422  13.6423
    13.7685  13.7685  14.3188  14.3188  15.1681  15.1681  17.6761  17.6761
    24.4367  24.4367  26.3767  26.3768  28.8125  28.8125  29.6259  29.6259
    33.0187  33.0188  36.8162  36.8162  40.3611  40.3612  42.9931  42.9931
    43.2324  43.2325  46.6759  46.6759  48.0033  48.0034  50.3720  50.3720
    51.8791  51.8791  53.4749  53.4749

          k =-0.0000-0.1427-0.1427 (  3168 PWs)   bands (ev):

    10.4410  10.4411  10.4411  10.4411  12.0559  12.0559  12.0559  12.0559
    12.2963  12.2963  12.2963  12.2963  13.4257  13.4257  13.4257  13.4257
    13.9511  13.9512  13.9512  13.9512  16.1141  16.1141  16.1141  16.1141
    26.4008  26.4008  26.4008  26.4009  27.7001  27.7002  27.7002  27.7002
    37.9646  37.9646  37.9646  37.9646  38.4637  38.4638  38.4638  38.4639
    47.0564  47.0564  47.0565  47.0565  49.1762  49.1762  49.1763  49.1763
    51.9162  51.9162  51.9163  51.9163

          k = 0.0476 0.0476 0.0476 (  3164 PWs)   bands (ev):

     6.4485  10.5500  10.5501  10.5501  11.2098  11.2098  11.2098  12.5555
    13.0078  13.0078  13.3971  13.3971  13.3971  13.8657  13.8657  14.1576
    14.1576  14.1576  14.8187  14.8187  14.8187  17.3696  17.3696  17.3696
    25.4552  25.4552  25.4553  26.7628  26.7628  26.7628  31.1909  31.1909
    31.1909  33.5465  36.2585  36.2586  36.2586  39.0954  41.1876  41.1876
    42.8921  42.8922  42.8922  46.5027  47.6023  47.6023  51.8054  51.8054
    55.1784  55.1784  55.1784  56.0487

          k = 0.0476 0.0476 0.0952 (  3185 PWs)   bands (ev):

     7.4457  10.1637  11.0096  11.0096  11.4513  11.4513  11.5072  12.3082
    12.6765  12.6765  12.8418  13.0394  13.1294  13.7706  13.8050  13.8676
    13.8676  14.1412  14.7066  14.7363  14.7363  15.4270  18.6977  18.6977
    22.9150  22.9150  26.7614  27.3899  27.3899  30.4308  30.4308  30.8569
    31.0326  32.6949  36.7172  37.6802  37.9249  38.8181  38.8182  42.3654
    43.5805  44.4843  47.0617  47.0617  47.9212  49.0261  50.1860  50.1860
    50.6994  52.9434  53.0347  55.7677

          k = 0.0476 0.0476-0.1427 (  3190 PWs)   bands (ev):

     8.8876   8.8876  11.4372  11.4373  11.5046  11.5046  11.9174  11.9174
    12.2942  12.2942  12.8220  12.8220  13.3928  13.3928  13.6767  13.6768
    14.2931  14.2931  14.4561  14.4561  14.6887  14.6887  19.7769  19.7769
    21.4476  21.4476  28.3201  28.3201  28.5859  28.5859  29.0394  29.0394
    35.0052  35.0053  35.3864  35.3865  38.1693  38.1694  42.1830  42.1831
    44.8400  44.8400  45.3555  45.3555  49.3981  49.3982  50.8506  50.8506
    52.2150  52.2151  54.0585  54.0585

          k = 0.0476 0.0952 0.0952 (  3187 PWs)   bands (ev):

     8.3315  10.6116  10.6116  11.1234  11.6173  11.7581  11.7581  12.2844
    12.4903  12.4903  12.6153  12.9288  13.0782  13.5317  13.5317  13.5339
    13.8948  14.4553  14.6041  14.6041  14.6209  16.3648  16.3648  18.8974
    21.1452  24.1185  24.1185  28.1035  28.1784  31.1958  31.1958  32.2106
    32.2106  34.0693  35.2646  36.9317  39.3368  39.3368  40.0758  43.1478
    43.7242  44.7275  46.4541  46.4541  49.2436  49.2436  50.3465  50.5758
    50.8978  51.6868  52.3635  52.8501

          k = 0.0476 0.0952-0.1427 (  3188 PWs)   bands (ev):

     9.5522   9.5522  10.9751  10.9751  11.8780  11.8780  12.1179  12.1180
    12.4708  12.4708  12.6581  12.6581  13.2074  13.2074  13.3885  13.3885
    14.2139  14.2139  14.5120  14.5121  15.0614  15.0614  17.6000  17.6000
    22.1173  22.1173  25.8621  25.8621  29.5339  29.5339  33.0939  33.0940
    33.3198  33.3198  36.9154  36.9155  40.1193  40.1194  40.4660  40.4660
    45.1770  45.1771  45.6734  45.6735  47.6821  47.6821  50.6076  50.6076
    51.7271  51.7271  53.9961  53.9963

          k = 0.0476-0.1427-0.1427 (  3200 PWs)   bands (ev):

    10.3290  10.3291  10.3291  10.3291  12.2852  12.2852  12.2852  12.2852
    12.5050  12.5050  12.5050  12.5050  13.1519  13.1519  13.1519  13.1519
    14.2432  14.2432  14.2432  14.2432  15.9888  15.9888  15.9888  15.9888
    23.7085  23.7085  23.7085  23.7086  31.0536  31.0537  31.0537  31.0537
    38.2432  38.2432  38.2432  38.2432  38.2922  38.2924  38.2924  38.2924
    46.5847  46.5848  46.5848  46.5848  46.7805  46.7805  46.7805  46.7805
    54.8710  54.8710  54.8710  54.8711

          k = 0.0952 0.0952 0.0952 (  3181 PWs)   bands (ev):

     8.9965  10.5637  10.5637  10.5637  12.0737  12.0737  12.0737  12.5514
    12.7691  12.7691  12.7691  12.8960  12.8960  13.1692  13.1692  13.1692
    14.3352  14.3352  14.7467  14.7467  14.7467  16.6163  16.6163  16.6163
    21.7472  21.7472  21.7473  25.3740  32.5443  32.5443  32.5443  35.3033
    35.3034  35.3034  37.2844  37.2844  37.2844  37.6192  40.0351  40.0351
    44.4517  44.4517  47.7862  48.0116  48.0117  48.0117  48.1385  48.1386
    48.1386  52.4772  52.4773  52.4773

          k = 0.0952 0.0952-0.1427 (  3190 PWs)   bands (ev):

     9.8218   9.8218  10.5235  10.5235  12.2661  12.2661  12.5796  12.5797
    12.8269  12.8269  12.9298  12.9298  12.9725  12.9725  13.0367  13.0367
    14.6484  14.6484  14.6759  14.6759  14.8741  14.8742  16.8055  16.8056
    20.8167  20.8168  23.2558  23.2558  33.4214  33.4214  34.7112  34.7112
    36.2199  36.2200  37.3165  37.3165  39.0727  39.0728  39.4123  39.4124
    44.6759  44.6760  44.8778  44.8779  46.0226  46.0226  48.5081  48.5081
    49.6569  49.6569  53.0845  53.0845

          k = 0.0952-0.1427-0.1427 (  3172 PWs)   bands (ev):

    10.1358  10.1358  10.1358  10.1358  12.6134  12.6134  12.6134  12.6134
    12.8460  12.8460  12.8460  12.8460  13.2599  13.2600  13.2600  13.2600
    14.5857  14.5857  14.5857  14.5857  15.4981  15.4981  15.4981  15.4981
    21.4858  21.4859  21.4859  21.4859  35.1272  35.1274  35.1274  35.1274
    38.1865  38.1865  38.1865  38.1866  39.0070  39.0070  39.0070  39.0070
    44.1234  44.1234  44.1234  44.1235  45.1474  45.1474  45.1474  45.1474
    50.5080  50.5080  50.5080  50.5080

          k =-0.1427-0.1427-0.1427 (  3184 PWs)   bands (ev):

    10.0505  10.0505  10.0505  10.0505  12.7316  12.7316  12.7316  12.7316
    12.7316  12.7316  12.7316  12.7316  14.1922  14.1923  14.1923  14.1923
    14.7184  14.7184  14.7184  14.7184  14.7184  14.7184  14.7184  14.7184
    20.6943  20.6943  20.6943  20.6943  36.7648  36.7651  36.7651  36.7651
    39.6444  39.6444  39.6444  39.6444  39.6444  39.6444  39.6444  39.6445
    42.8305  42.8305  42.8305  42.8306  42.8306  42.8306  42.8306  42.8306
    48.8855  48.8855  48.8855  48.8855

          k =-0.0476-0.0000 0.0476 (  3167 PWs)   bands (ev):

     6.0999  10.3622  10.3622  10.5519  11.1082  11.1187  11.1187  12.6104
    12.9828  12.9872  13.6971  13.7384  13.7384  13.7503  13.9533  14.3506
    14.4767  14.4767  14.7476  14.7476  14.8182  16.7160  16.7160  18.9642
    24.1568  25.2266  26.4331  26.4332  28.3747  28.3748  28.9756  28.9756
    30.6648  36.1081  36.1363  37.0948  37.0949  37.3475  40.2308  40.2310
    41.1880  42.6881  43.4976  45.1725  46.4200  49.9425  50.3777  53.2619
    53.6317  55.3088  55.3088  56.2408

          k =-0.0476 0.0000 0.0952 (  3181 PWs)   bands (ev):

     7.1295   9.9650  10.8784  10.9967  11.3916  11.4243  11.4657  12.2979
    12.6751  12.8443  13.0379  13.0781  13.2583  13.5792  14.0011  14.0866
    14.1566  14.2429  14.2722  14.7447  14.7538  15.1440  18.3543  20.7853
    22.2776  24.8343  25.6537  26.6660  27.5240  29.7135  29.9621  30.0235
    31.1103  33.7993  34.5070  37.7185  38.6672  40.3390  40.5137  40.8648
    41.1153  44.1191  45.2333  47.1214  47.7050  48.5670  49.8742  51.2575
    52.8926  53.1677  55.0333  56.9877

          k =-0.0952-0.0000 0.0952 (  3203 PWs)   bands (ev):

     8.0795  10.6031  10.6031  11.3602  11.4424  11.6802  11.6802  12.2000
    12.3464  12.3464  12.5200  12.9173  13.4024  13.4755  13.7737  13.9127
    13.9127  14.2763  14.2763  14.4661  14.5430  16.2860  16.2860  19.6062
    22.3269  25.3555  26.9416  26.9417  27.9952  27.9952  31.1134  31.7272
    31.7272  31.8017  33.6542  36.8713  41.4615  41.8595  41.8595  43.1070
    43.2928  43.8113  43.8114  47.3074  47.3556  48.5168  48.5168  51.7301
    52.0654  52.1291  53.3999  55.2505

          k = 0.0476-0.0476 0.0476 (  3164 PWs)   bands (ev):

     6.4485  10.5500  10.5501  10.5501  11.2098  11.2098  11.2098  12.5555
    13.0078  13.0078  13.3971  13.3971  13.3971  13.8657  13.8657  14.1576
    14.1576  14.1576  14.8187  14.8187  14.8187  17.3696  17.3696  17.3696
    25.4552  25.4552  25.4553  26.7628  26.7628  26.7628  31.1909  31.1909
    31.1910  33.5465  36.2585  36.2586  36.2586  39.0954  41.1876  41.1876
    42.8921  42.8922  42.8922  46.5027  47.6023  47.6023  51.8054  51.8054
    55.1784  55.1784  55.1784  56.0487

          k = 0.0476-0.0476 0.0952 (  3185 PWs)   bands (ev):

     7.4457  10.1637  11.0096  11.0096  11.4513  11.4513  11.5072  12.3082
    12.6765  12.6765  12.8418  13.0393  13.1294  13.7706  13.8050  13.8676
    13.8676  14.1412  14.7066  14.7363  14.7363  15.4270  18.6977  18.6977
    22.9150  22.9150  26.7614  27.3899  27.3899  30.4308  30.4308  30.8569
    31.0326  32.6950  36.7172  37.6802  37.9249  38.8181  38.8182  42.3654
    43.5805  44.4843  47.0616  47.0617  47.9212  49.0261  50.1860  50.1860
    50.6994  52.9434  53.0347  55.7677

          k =-0.0952 0.0476 0.0476 (  3185 PWs)   bands (ev):

     7.4457  10.1637  11.0096  11.0096  11.4513  11.4513  11.5071  12.3082
    12.6765  12.6765  12.8418  13.0393  13.1294  13.7706  13.8050  13.8676
    13.8676  14.1412  14.7066  14.7363  14.7363  15.4270  18.6977  18.6977
    22.9150  22.9150  26.7614  27.3899  27.3899  30.4308  30.4308  30.8569
    31.0326  32.6949  36.7172  37.6802  37.9249  38.8181  38.8182  42.3655
    43.5805  44.4843  47.0616  47.0617  47.9212  49.0261  50.1860  50.1860
    50.6994  52.9434  53.0346  55.7677

          k = 0.0476-0.0476-0.1427 (  3190 PWs)   bands (ev):

     8.8876   8.8876  11.4372  11.4373  11.5046  11.5046  11.9174  11.9174
    12.2942  12.2942  12.8220  12.8220  13.3928  13.3928  13.6767  13.6768
    14.2931  14.2931  14.4561  14.4561  14.6887  14.6887  19.7769  19.7769
    21.4476  21.4476  28.3201  28.3201  28.5859  28.5859  29.0394  29.0394
    35.0052  35.0053  35.3864  35.3865  38.1693  38.1694  42.1830  42.1831
    44.8399  44.8400  45.3555  45.3555  49.3981  49.3981  50.8506  50.8506
    52.2150  52.2151  54.0585  54.0585

          k = 0.0952-0.0476 0.0952 (  3187 PWs)   bands (ev):

     8.3315  10.6116  10.6116  11.1234  11.6173  11.7581  11.7582  12.2844
    12.4903  12.4903  12.6153  12.9288  13.0782  13.5317  13.5317  13.5339
    13.8948  14.4553  14.6041  14.6041  14.6209  16.3648  16.3648  18.8974
    21.1452  24.1184  24.1185  28.1035  28.1784  31.1958  31.1958  32.2106
    32.2106  34.0693  35.2647  36.9317  39.3368  39.3368  40.0758  43.1478
    43.7242  44.7275  46.4541  46.4541  49.2436  49.2436  50.3464  50.5758
    50.8978  51.6868  52.3635  52.8501

          k =-0.0952 0.0476 0.0952 (  3187 PWs)   bands (ev):

     8.3315  10.6116  10.6116  11.1234  11.6173  11.7581  11.7582  12.2844
    12.4903  12.4903  12.6153  12.9288  13.0782  13.5317  13.5317  13.5339
    13.8948  14.4553  14.6041  14.6041  14.6209  16.3648  16.3648  18.8974
    21.1452  24.1185  24.1185  28.1035  28.1784  31.1958  31.1958  32.2106
    32.2106  34.0693  35.2646  36.9317  39.3368  39.3368  40.0759  43.1478
    43.7242  44.7275  46.4541  46.4541  49.2436  49.2436  50.3464  50.5758
    50.8978  51.6868  52.3635  52.8501

          k = 0.0952-0.0476-0.1427 (  3188 PWs)   bands (ev):

     9.5522   9.5522  10.9751  10.9751  11.8780  11.8780  12.1179  12.1180
    12.4708  12.4708  12.6581  12.6581  13.2074  13.2074  13.3885  13.3885
    14.2139  14.2139  14.5120  14.5121  15.0614  15.0614  17.6000  17.6000
    22.1173  22.1173  25.8620  25.8621  29.5339  29.5339  33.0940  33.0940
    33.3198  33.3198  36.9154  36.9155  40.1193  40.1194  40.4660  40.4660
    45.1770  45.1771  45.6734  45.6735  47.6821  47.6821  50.6076  50.6076
    51.7271  51.7271  53.9961  53.9962

          k = 0.0952-0.0952 0.0952 (  3181 PWs)   bands (ev):

     8.9965  10.5637  10.5637  10.5637  12.0737  12.0737  12.0737  12.5514
    12.7691  12.7691  12.7691  12.8959  12.8959  13.1692  13.1692  13.1692
    14.3352  14.3352  14.7467  14.7467  14.7467  16.6163  16.6163  16.6163
    21.7472  21.7472  21.7473  25.3740  32.5442  32.5443  32.5443  35.3033
    35.3034  35.3034  37.2844  37.2844  37.2845  37.6192  40.0352  40.0352
    44.4517  44.4518  47.7862  48.0116  48.0117  48.0117  48.1385  48.1386
    48.1386  52.4772  52.4772  52.4772

          k = 0.0952-0.0952-0.1427 (  3190 PWs)   bands (ev):

     9.8218   9.8218  10.5235  10.5235  12.2661  12.2661  12.5796  12.5797
    12.8269  12.8269  12.9298  12.9298  12.9725  12.9725  13.0367  13.0367
    14.6484  14.6484  14.6759  14.6759  14.8741  14.8742  16.8056  16.8056
    20.8167  20.8168  23.2558  23.2558  33.4214  33.4214  34.7112  34.7112
    36.2199  36.2200  37.3165  37.3165  39.0727  39.0728  39.4123  39.4124
    44.6759  44.6760  44.8778  44.8779  46.0226  46.0226  48.5081  48.5081
    49.6569  49.6569  53.0845  53.0845

     the Fermi energy is    14.4914 ev

!    total energy              =    -343.63030629 Ry
     Harris-Foulkes estimate   =    -343.63030629 Ry
     estimated scf accuracy    <          1.9E-11 Ry

     The total energy is the sum of the following terms:

     one-electron contribution =      -6.38964888 Ry
     hartree contribution      =      60.35076351 Ry
     xc contribution           =    -120.51401349 Ry
     ewald contribution        =    -277.02899485 Ry
     Dispersion Correction     =      -0.04784014 Ry
     smearing contrib. (-TS)   =      -0.00057245 Ry

     total magnetization       =     2.84 Bohr mag/cell
     absolute magnetization    =     3.25 Bohr mag/cell

     convergence has been achieved in  17 iterations

     Forces acting on atoms (Ry/au):

     atom    1 type  1   force =     0.00001166    0.00001166   -0.00001107
     atom    2 type  1   force =    -0.00001224   -0.00001224   -0.00001224
     atom    3 type  1   force =     0.00001166   -0.00001107    0.00001166
     atom    4 type  1   force =    -0.00001107    0.00001166    0.00001166

     Total force =     0.000040     Total SCF correction =     0.000003


     entering subroutine stress ...

          total   stress  (Ry/bohr**3)                   (kbar)     P=   -0.03
  -0.00000018   0.00000005   0.00000005         -0.03      0.01      0.01
   0.00000005  -0.00000018   0.00000005          0.01     -0.03      0.01
   0.00000005   0.00000005  -0.00000018          0.01      0.01     -0.03


     Writing output data file Ni-ferromag.save

     init_run     :     40.84s CPU     42.02s WALL (       2 calls)
     electrons    :   4119.13s CPU   4247.99s WALL (       6 calls)
     update_pot   :     22.05s CPU     22.13s WALL (       4 calls)
     forces       :     63.43s CPU     63.82s WALL (       6 calls)
     stress       :    114.83s CPU    116.63s WALL (       6 calls)

     Called by init_run:
     wfcinit      :     34.34s CPU     35.42s WALL (       2 calls)
     potinit      :      1.80s CPU      1.84s WALL (       2 calls)

     Called by electrons:
     c_bands      :   3573.14s CPU   3680.38s WALL (      77 calls)
     sum_band     :    504.15s CPU    522.42s WALL (      77 calls)
     v_of_rho     :     23.16s CPU     24.05s WALL (      82 calls)
     newd         :     18.94s CPU     20.90s WALL (      82 calls)
     mix_rho      :      1.82s CPU      2.32s WALL (      77 calls)

     Called by c_bands:
     init_us_2    :     26.71s CPU     30.07s WALL (   10752 calls)
     cegterg      :   3479.06s CPU   3584.34s WALL (    4928 calls)

     Called by sum_band:
     sum_band:bec :      0.78s CPU      0.82s WALL (    4928 calls)
     addusdens    :     26.13s CPU     28.02s WALL (      77 calls)

     Called by *egterg:
     h_psi        :   1926.98s CPU   1994.19s WALL (   14161 calls)
     s_psi        :    266.44s CPU    266.73s WALL (   14161 calls)
     g_psi        :     11.63s CPU     11.66s WALL (    9105 calls)
     cdiaghg      :    137.27s CPU    137.40s WALL (   13713 calls)

     Called by h_psi:
     add_vuspsi   :    266.77s CPU    266.96s WALL (   14161 calls)

     General routines
     calbec       :    471.17s CPU    471.42s WALL (   21009 calls)
     fft          :      7.95s CPU      8.70s WALL (    2754 calls)
     ffts         :      0.56s CPU      0.62s WALL (     318 calls)
     fftw         :   1506.90s CPU   1588.58s WALL ( 1402008 calls)
     interpolate  :      1.58s CPU      1.98s WALL (     318 calls)

     Parallel routines
     fft_scatter  :    112.37s CPU    132.03s WALL ( 1405080 calls)

     PWSCF        :     1h12m CPU        1h14m WALL


   This run was terminated on:   7:44:50  27May2016            

=------------------------------------------------------------------------------=
   JOB DONE.
=------------------------------------------------------------------------------=
