
     Program PWSCF v.5.3.0 (svn rev. 11974) starts on 27May2016 at  7:44:50 

     This program is part of the open-source Quantum ESPRESSO suite
     for quantum simulation of materials; please cite
         "P. Giannozzi et al., J. Phys.:Condens. Matter 21 395502 (2009);
          URL http://www.quantum-espresso.org", 
     in publications or presentations arising from this work. More details at
     http://www.quantum-espresso.org/quote

     Parallel version (MPI), running on     1 processors
     Waiting for input...
     Reading input from standard input
     Message from routine read_cards :
     DEPRECATED: no units specified in CELL_PARAMETERS card

     Current dimensions of program PWSCF are:
     Max number of different atomic species (ntypx) = 10
     Max number of k-points (npk) =  40000
     Max angular momentum in pseudopotentials (lmaxx) =  3
               file Ni.pbe-nd-rrkjus.UPF: wavefunction(s)  4S renormalized

     -------------------------------------
     Parameters for Dispersion Correction:
     -------------------------------------
       atom      VdW radius       C_6     

        Ni1        3.014        159.927

     Subspace diagonalization in iterative solution of the eigenvalue problem:
     a serial algorithm will be used


     G-vector sticks info
     --------------------
     sticks:   dense  smooth     PW     G-vecs:    dense   smooth      PW
     Sum        1413    1117    341                39847    28425    4625

     Generating pointlists ...
     new r_m :   0.4125 (alat units)  0.7795 (a.u.) for type    1

     Title: 
     Ni-ferro-mag                                                               


     bravais-lattice index     =            0
     lattice parameter (alat)  =       1.8897  a.u.
     unit-cell volume          =     295.0010 (a.u.)^3
     number of atoms/cell      =            4
     number of atomic types    =            1
     number of electrons       =        40.00
     number of Kohn-Sham states=           52
     kinetic-energy cutoff     =      80.0000  Ry
     charge density cutoff     =     400.0000  Ry
     convergence threshold     =      1.0E-08
     mixing beta               =       0.2000
     number of iterations used =            8  plain     mixing
     Exchange-correlation      =  SLA  PW   PBE  PBE ( 1  4  3  4 0 0)
     nstep                     =           50


     celldm(1)=   1.889726  celldm(2)=   0.000000  celldm(3)=   0.000000
     celldm(4)=   0.000000  celldm(5)=   0.000000  celldm(6)=   0.000000

     crystal axes: (cart. coord. in units of alat)
               a(1) = (   3.522700   0.000000   0.000000 )  
               a(2) = (   0.000000   3.522700   0.000000 )  
               a(3) = (   0.000000   0.000000   3.522700 )  

     reciprocal axes: (cart. coord. in units 2 pi/alat)
               b(1) = (  0.283873  0.000000  0.000000 )  
               b(2) = (  0.000000  0.283873  0.000000 )  
               b(3) = (  0.000000  0.000000  0.283873 )  


     PseudoPot. # 1 for Ni read from file:
     /home/eliot/pseudo/Ni.pbe-nd-rrkjus.UPF
     MD5 check sum: 8081f0a005c9a5470caab1a58e82ecb2
     Pseudo is Ultrasoft + core correction, Zval = 10.0
     Generated by new atomic code, or converted to UPF format
     Using radial grid of 1203 points,  6 beta functions with: 
                l(1) =   0
                l(2) =   0
                l(3) =   1
                l(4) =   1
                l(5) =   2
                l(6) =   2
     Q(r) pseudized with 0 coefficients 


     atomic species   valence    mass     pseudopotential
        Ni1           10.00    58.69340     Ni( 1.00)

     Starting magnetic structure 
     atomic species   magnetization
        Ni1          0.500

      6 Sym. Ops. (no inversion) found



   Cartesian axes

     site n.     atom                  positions (alat units)
         1           Ni1 tau(   1) = (   1.7691699   1.7691699   0.0000000  )
         2           Ni1 tau(   2) = (   0.0000000   0.0000000   0.0000000  )
         3           Ni1 tau(   3) = (   1.7691699   0.0000000   1.7691699  )
         4           Ni1 tau(   4) = (   0.0000000   1.7691699   1.7691699  )

     number of k points=    32  Methfessel-Paxton smearing, width (Ry)=  0.0500
                       cart. coord. in units 2pi/alat
        k(    1) = (   0.0000000   0.0000000   0.0000000), wk =   0.0046296
        k(    2) = (   0.0000000   0.0000000   0.0473122), wk =   0.0277778
        k(    3) = (   0.0000000   0.0000000   0.0946244), wk =   0.0277778
        k(    4) = (   0.0000000   0.0000000  -0.1419366), wk =   0.0138889
        k(    5) = (   0.0000000   0.0473122   0.0473122), wk =   0.0277778
        k(    6) = (   0.0000000   0.0473122   0.0946244), wk =   0.0555556
        k(    7) = (   0.0000000   0.0473122  -0.1419366), wk =   0.0555556
        k(    8) = (   0.0000000   0.0946244   0.0946244), wk =   0.0277778
        k(    9) = (   0.0000000   0.0946244  -0.1419366), wk =   0.0555556
        k(   10) = (   0.0000000  -0.1419366  -0.1419366), wk =   0.0138889
        k(   11) = (   0.0473122   0.0473122   0.0473122), wk =   0.0092593
        k(   12) = (   0.0473122   0.0473122   0.0946244), wk =   0.0277778
        k(   13) = (   0.0473122   0.0473122  -0.1419366), wk =   0.0277778
        k(   14) = (   0.0473122   0.0946244   0.0946244), wk =   0.0277778
        k(   15) = (   0.0473122   0.0946244  -0.1419366), wk =   0.0555556
        k(   16) = (   0.0473122  -0.1419366  -0.1419366), wk =   0.0277778
        k(   17) = (   0.0946244   0.0946244   0.0946244), wk =   0.0092593
        k(   18) = (   0.0946244   0.0946244  -0.1419366), wk =   0.0277778
        k(   19) = (   0.0946244  -0.1419366  -0.1419366), wk =   0.0277778
        k(   20) = (  -0.1419366  -0.1419366  -0.1419366), wk =   0.0046296
        k(   21) = (  -0.0473122   0.0000000   0.0473122), wk =   0.0277778
        k(   22) = (  -0.0473122   0.0000000   0.0946244), wk =   0.0555556
        k(   23) = (  -0.0946244   0.0000000   0.0946244), wk =   0.0277778
        k(   24) = (   0.0473122  -0.0473122   0.0473122), wk =   0.0277778
        k(   25) = (   0.0473122  -0.0473122   0.0946244), wk =   0.0555556
        k(   26) = (  -0.0946244   0.0473122   0.0473122), wk =   0.0277778
        k(   27) = (   0.0473122  -0.0473122  -0.1419366), wk =   0.0277778
        k(   28) = (   0.0946244  -0.0473122   0.0946244), wk =   0.0277778
        k(   29) = (  -0.0946244   0.0473122   0.0946244), wk =   0.0555556
        k(   30) = (   0.0946244  -0.0473122  -0.1419366), wk =   0.0555556
        k(   31) = (   0.0946244  -0.0946244   0.0946244), wk =   0.0277778
        k(   32) = (   0.0946244  -0.0946244  -0.1419366), wk =   0.0277778

     Dense  grid:    39847 G-vectors     FFT dimensions: (  45,  45,  45)

     Smooth grid:    28425 G-vectors     FFT dimensions: (  40,  40,  40)

     Largest allocated arrays     est. size (Mb)     dimensions
        Kohn-Sham Wavefunctions         2.85 Mb     (    3596,   52)
        NL pseudopotentials             3.95 Mb     (    3596,   72)
        Each V/rho on FFT grid          2.78 Mb     (   91125,   2)
        Each G-vector array             0.30 Mb     (   39847)
        G-vector shells                 0.30 Mb     (   39847)
     Largest temporary arrays     est. size (Mb)     dimensions
        Auxiliary wavefunctions        11.41 Mb     (    3596,  208)
        Each subspace H/S matrix        0.66 Mb     (     208,  208)
        Each <psi_i|beta_j> matrix      0.06 Mb     (      72,   52)
        Arrays for rho mixing          11.12 Mb     (   91125,    8)

     Check: negative/imaginary core charge=   -0.000005    0.000000

     Initial potential from superposition of free atoms

     starting charge   39.99816, renormalised to   40.00000
     Starting wfc are   24 randomized atomic wfcs +   28 random wfc

     total cpu time spent up to now is       24.5 secs

     Self-consistent Calculation

     iteration #  1     ecut=    80.00 Ry     beta=0.20
     Davidson diagonalization with overlap
     ethr =  1.00E-02,  avg # of iterations =  6.5

     total cpu time spent up to now is      152.9 secs

     total energy              =    -342.90143578 Ry
     Harris-Foulkes estimate   =    -343.18553578 Ry
     estimated scf accuracy    <       2.43753980 Ry

     total magnetization       =     6.91 Bohr mag/cell
     absolute magnetization    =     6.92 Bohr mag/cell

     iteration #  2     ecut=    80.00 Ry     beta=0.20
     Davidson diagonalization with overlap
     ethr =  6.09E-03,  avg # of iterations =  1.0

     total cpu time spent up to now is      205.2 secs

     total energy              =    -343.20642697 Ry
     Harris-Foulkes estimate   =    -343.04089564 Ry
     estimated scf accuracy    <       0.77204641 Ry

     total magnetization       =     5.77 Bohr mag/cell
     absolute magnetization    =     5.87 Bohr mag/cell

     iteration #  3     ecut=    80.00 Ry     beta=0.20
     Davidson diagonalization with overlap
     ethr =  1.93E-03,  avg # of iterations =  1.7

     total cpu time spent up to now is      258.4 secs

     total energy              =    -343.53591777 Ry
     Harris-Foulkes estimate   =    -343.27851225 Ry
     estimated scf accuracy    <       0.36092371 Ry

     total magnetization       =     4.53 Bohr mag/cell
     absolute magnetization    =     4.85 Bohr mag/cell

     iteration #  4     ecut=    80.00 Ry     beta=0.20
     Davidson diagonalization with overlap
     ethr =  9.02E-04,  avg # of iterations =  1.8

     total cpu time spent up to now is      311.7 secs

     total energy              =    -343.61665839 Ry
     Harris-Foulkes estimate   =    -343.65308913 Ry
     estimated scf accuracy    <       0.12735221 Ry

     total magnetization       =     2.54 Bohr mag/cell
     absolute magnetization    =     3.17 Bohr mag/cell

     iteration #  5     ecut=    80.00 Ry     beta=0.20
     Davidson diagonalization with overlap
     ethr =  3.18E-04,  avg # of iterations =  1.5

     total cpu time spent up to now is      364.6 secs

     total energy              =    -343.62347796 Ry
     Harris-Foulkes estimate   =    -343.62756213 Ry
     estimated scf accuracy    <       0.01406836 Ry

     total magnetization       =     2.62 Bohr mag/cell
     absolute magnetization    =     3.23 Bohr mag/cell

     iteration #  6     ecut=    80.00 Ry     beta=0.20
     Davidson diagonalization with overlap
     ethr =  3.52E-05,  avg # of iterations =  3.9

     total cpu time spent up to now is      422.6 secs

     total energy              =    -343.62634385 Ry
     Harris-Foulkes estimate   =    -343.62746461 Ry
     estimated scf accuracy    <       0.00228424 Ry

     total magnetization       =     2.72 Bohr mag/cell
     absolute magnetization    =     3.31 Bohr mag/cell

     iteration #  7     ecut=    80.00 Ry     beta=0.20
     Davidson diagonalization with overlap
     ethr =  5.71E-06,  avg # of iterations =  3.3

     total cpu time spent up to now is      478.6 secs

     total energy              =    -343.62923520 Ry
     Harris-Foulkes estimate   =    -343.62817526 Ry
     estimated scf accuracy    <       0.00168195 Ry

     total magnetization       =     3.02 Bohr mag/cell
     absolute magnetization    =     3.52 Bohr mag/cell

     iteration #  8     ecut=    80.00 Ry     beta=0.20
     Davidson diagonalization with overlap
     ethr =  4.20E-06,  avg # of iterations =  1.5

     total cpu time spent up to now is      531.4 secs

     total energy              =    -343.62960753 Ry
     Harris-Foulkes estimate   =    -343.62958021 Ry
     estimated scf accuracy    <       0.00007229 Ry

     total magnetization       =     2.91 Bohr mag/cell
     absolute magnetization    =     3.37 Bohr mag/cell

     iteration #  9     ecut=    80.00 Ry     beta=0.20
     Davidson diagonalization with overlap
     ethr =  1.81E-07,  avg # of iterations =  1.6

     total cpu time spent up to now is      584.5 secs

     total energy              =    -343.62962147 Ry
     Harris-Foulkes estimate   =    -343.62964205 Ry
     estimated scf accuracy    <       0.00004254 Ry

     total magnetization       =     2.87 Bohr mag/cell
     absolute magnetization    =     3.32 Bohr mag/cell

     iteration # 10     ecut=    80.00 Ry     beta=0.20
     Davidson diagonalization with overlap
     ethr =  1.06E-07,  avg # of iterations =  1.0

     total cpu time spent up to now is      636.7 secs

     total energy              =    -343.62964615 Ry
     Harris-Foulkes estimate   =    -343.62963643 Ry
     estimated scf accuracy    <       0.00001596 Ry

     total magnetization       =     2.89 Bohr mag/cell
     absolute magnetization    =     3.33 Bohr mag/cell

     iteration # 11     ecut=    80.00 Ry     beta=0.20
     Davidson diagonalization with overlap
     ethr =  3.99E-08,  avg # of iterations =  1.0

     total cpu time spent up to now is      688.8 secs

     total energy              =    -343.62965355 Ry
     Harris-Foulkes estimate   =    -343.62965253 Ry
     estimated scf accuracy    <       0.00000239 Ry

     total magnetization       =     2.88 Bohr mag/cell
     absolute magnetization    =     3.31 Bohr mag/cell

     iteration # 12     ecut=    80.00 Ry     beta=0.20
     Davidson diagonalization with overlap
     ethr =  5.97E-09,  avg # of iterations =  1.0

     total cpu time spent up to now is      741.1 secs

     total energy              =    -343.62965493 Ry
     Harris-Foulkes estimate   =    -343.62965497 Ry
     estimated scf accuracy    <       0.00000034 Ry

     total magnetization       =     2.87 Bohr mag/cell
     absolute magnetization    =     3.30 Bohr mag/cell

     iteration # 13     ecut=    80.00 Ry     beta=0.20
     Davidson diagonalization with overlap
     ethr =  8.46E-10,  avg # of iterations =  1.6

     Magnetic moment per site:
     atom:    1    charge:    3.0543    magn:    0.3439    constr:    0.0000
     atom:    2    charge:    3.0526    magn:    0.3438    constr:    0.0000
     atom:    3    charge:    3.0543    magn:    0.3439    constr:    0.0000
     atom:    4    charge:    3.0543    magn:    0.3439    constr:    0.0000

     total cpu time spent up to now is      794.1 secs

     End of self-consistent calculation

 ------ SPIN UP ------------


          k = 0.0000 0.0000 0.0000 (  3575 PWs)   bands (ev):

     5.2288   9.4935   9.4936   9.4936   9.9340   9.9346   9.9346  11.6677
    11.6677  11.6677  12.8174  12.8174  13.5172  13.5172  13.5172  13.6028
    13.6028  13.6028  13.6031  13.6031  13.6031  16.7428  16.7430  16.7430
    23.3387  23.3387  23.3387  29.0912  29.0912  29.0912  29.0914  29.0914
    29.0915  34.1012  34.1012  34.1015  37.3457  37.3458  37.3458  38.0319
    41.8749  41.8749  41.8749  45.3825  45.3825  45.3825  47.5696  54.3399
    54.3399  54.3399  57.2496  58.5576

          k = 0.0000 0.0000 0.0473 (  3579 PWs)   bands (ev):

     5.5905   9.5129   9.6739   9.6739  10.0421  10.0573  10.0577  11.5426
    11.7675  11.7675  12.7021  12.8623  12.9701  12.9702  13.3675  13.3675
    13.4324  13.4324  13.4690  13.6033  13.6034  15.1468  17.6790  17.6792
    23.4377  23.4377  25.5825  27.3492  27.3494  27.9634  27.9634  29.6428
    29.6428  34.2196  36.2630  36.2633  37.3767  37.4763  39.2923  39.2924
    39.6483  39.6483  40.3559  46.8114  47.4724  47.4724  48.4054  50.8784
    55.3990  55.3990  55.9777  55.9783

          k = 0.0000 0.0000 0.0946 (  3567 PWs)   bands (ev):

     6.6279   9.2770  10.1018  10.1018  10.3421  10.4305  10.4312  11.2082
    11.9398  11.9405  12.0565  12.0565  12.4232  12.9884  12.9902  12.9902
    13.0032  13.0149  13.0149  13.3384  13.6039  13.6039  19.6088  19.6090
    23.7661  23.7661  24.5995  24.5996  26.1889  26.1889  29.8632  31.1976
    31.1976  34.5896  36.2198  36.4511  36.4511  37.8319  38.0182  40.2796
    40.2799  43.3962  43.4272  43.4273  50.2415  50.3919  50.3919  50.4105
    50.4105  54.3345  55.2810  55.2811

          k = 0.0000 0.0000-0.1419 (  3546 PWs)   bands (ev):

     8.1032   8.1259  10.3721  10.3721  10.7498  10.7816  11.0465  11.0468
    11.0782  11.0784  12.2292  12.2737  12.4847  12.4847  12.5086  12.5086
    12.7597  12.7597  13.1533  13.1708  13.6041  13.6041  21.9354  21.9356
    21.9916  21.9918  24.1629  24.1630  25.2226  25.2226  33.5223  33.5223
    33.5624  33.5624  34.3674  34.4496  35.2393  35.2578  39.5035  39.6341
    44.9890  44.9893  45.1022  45.1025  46.9027  46.9027  51.5751  51.5751
    53.4702  53.4702  53.5753  53.5753

          k = 0.0000 0.0473 0.0473 (  3595 PWs)   bands (ev):

     5.9438   9.7074   9.7074   9.8334  10.1562  10.1567  10.1701  11.4845
    11.8113  11.8280  12.6325  12.6667  12.6891  12.7014  12.8588  13.2432
    13.3640  13.3640  13.4308  13.4310  13.4908  16.0553  16.0553  18.4342
    23.4480  24.6341  25.7734  25.7737  27.8187  27.8188  28.4463  28.4470
    30.1617  35.4700  35.5988  36.4717  36.4722  36.7718  39.4614  39.4619
    40.7142  41.9443  42.9234  44.6222  45.6793  49.0059  49.8068  52.2826
    53.0103  54.6579  54.6590  55.6126

          k = 0.0000 0.0473 0.0946 (  3565 PWs)   bands (ev):

     6.9541   9.5094  10.1800  10.2277  10.4312  10.4835  10.5015  11.2115
    11.7068  11.8429  11.9545  12.0678  12.0954  12.5172  12.9283  12.9942
    13.0174  13.0346  13.1833  13.4266  13.4344  14.1031  17.6423  20.1895
    21.6669  24.1308  25.0540  26.0844  26.8875  29.1156  29.4122  29.4653
    30.4852  33.2000  33.9301  37.1241  38.0543  39.8308  40.0102  40.0860
    40.5345  43.3644  44.2793  46.3625  47.1620  47.9204  49.2224  50.6744
    52.2580  52.6002  54.0630  55.5547

          k = 0.0000 0.0473-0.1419 (  3574 PWs)   bands (ev):

     8.3824   8.4037  10.5201  10.5216  10.7998  10.8305  10.9204  10.9463
    11.0612  11.0920  11.8703  11.9032  12.4852  12.5095  12.7169  12.7275
    12.7449  12.7463  13.3410  13.3412  13.4228  13.4277  19.4746  19.5032
    22.4301  22.4807  24.9248  24.9618  27.8056  27.8172  30.9767  30.9944
    31.5012  31.5140  35.2388  35.3342  38.2670  38.2749  41.4783  41.5580
    42.4878  42.5165  45.2666  45.3737  49.3001  49.3975  49.6794  49.7248
    51.9260  51.9609  52.4861  52.5159

          k = 0.0000 0.0946 0.0946 (  3564 PWs)   bands (ev):

     7.8713  10.0871  10.0873  10.4489  10.6915  10.6928  10.7103  11.1441
    11.3844  11.3846  11.5355  11.8463  12.1950  12.4333  12.7182  12.8680
    12.8685  13.0036  13.0040  13.1692  13.3797  15.3278  15.3278  18.9091
    21.6945  24.6818  26.3092  26.3093  27.4155  27.4161  30.4792  31.1092
    31.1155  31.2274  33.0655  36.2828  40.9616  41.2934  41.2937  42.4380
    42.8504  43.1210  43.1210  46.4562  46.6540  47.7833  47.7842  50.9476
    51.5029  51.5320  52.4679  54.6532

          k = 0.0000 0.0946-0.1419 (  3558 PWs)   bands (ev):

     9.1196   9.1371  10.5388  10.5588  10.9220  10.9413  10.9568  10.9640
    11.0809  11.1096  11.5790  11.6005  12.5193  12.5354  12.5369  12.5431
    12.6036  12.6068  13.0301  13.0448  14.0249  14.0287  16.8296  16.8520
    23.7737  23.8124  25.7332  25.7631  28.1573  28.1764  29.0384  29.0414
    32.4123  32.4194  36.1861  36.2787  39.7702  39.7894  42.4546  42.4729
    42.5824  42.5911  46.0736  46.1609  47.1852  47.2377  49.7375  49.7859
    50.9646  51.0451  52.8754  52.8969

          k = 0.0000-0.1419-0.1419 (  3556 PWs)   bands (ev):

     9.9595   9.9746   9.9746   9.9891  11.0298  11.0571  11.0571  11.0841
    11.3544  11.3623  11.3623  11.3698  12.3908  12.3933  12.3933  12.3963
    12.6759  12.6985  12.6985  12.7208  15.0691  15.0797  15.0798  15.0905
    25.7167  25.7440  25.7440  25.7707  27.0758  27.0933  27.0934  27.1118
    37.2708  37.2966  37.2966  37.3236  37.9210  37.9541  37.9541  37.9828
    46.5750  46.5750  46.5763  46.5767  48.4716  48.5203  48.5203  48.5686
    51.0305  51.0338  51.0339  51.0365

          k = 0.0473 0.0473 0.0473 (  3596 PWs)   bands (ev):

     6.2857   9.8647   9.8648   9.8648  10.2680  10.2687  10.2687  11.4509
    11.8470  11.8470  12.3929  12.3929  12.3930  12.7740  12.7740  13.0151
    13.0156  13.0156  13.5437  13.5437  13.5438  16.6709  16.6710  16.6710
    24.8800  24.8802  24.8802  26.1043  26.1043  26.1046  30.6688  30.6692
    30.6692  32.9595  35.6020  35.6020  35.6023  38.7560  40.5179  40.5179
    42.1509  42.1509  42.1509  45.9790  47.0113  47.0113  50.8219  50.8219
    54.4865  54.5251  54.5261  54.5262

          k = 0.0473 0.0473 0.0946 (  3551 PWs)   bands (ev):

     7.2569   9.6657  10.2382  10.2385  10.5467  10.5759  10.5761  11.2474
    11.6972  11.6973  11.8832  11.9301  11.9839  12.6226  12.6905  12.7760
    12.7781  13.0080  13.4488  13.4489  13.4809  14.4605  17.9948  17.9949
    22.2748  22.2748  26.1510  26.7610  26.7611  29.8501  29.8504  30.2387
    30.4432  32.1270  36.0782  37.2592  37.2724  38.2136  38.2136  41.7452
    42.8373  43.8279  46.3351  46.3352  47.1843  48.4366  49.5250  49.5252
    50.0020  52.3479  52.3811  54.8099

          k = 0.0473 0.0473-0.1419 (  3546 PWs)   bands (ev):

     8.6091   8.6280  10.6121  10.6134  10.6768  10.6771  10.8956  10.9243
    11.3139  11.3140  11.7774  11.8096  12.2444  12.2554  12.6127  12.6132
    13.1629  13.1856  13.2738  13.2787  13.3944  13.3944  19.1395  19.1396
    20.7158  20.7159  27.7369  27.7414  27.9497  27.9658  28.4072  28.4139
    34.3663  34.4000  34.8807  34.9457  37.4624  37.5304  41.6078  41.6079
    44.0541  44.0893  44.7337  44.7341  48.8113  48.8618  50.2180  50.2357
    51.4391  51.4393  52.9807  52.9912

          k = 0.0473 0.0946 0.0946 (  3561 PWs)   bands (ev):

     8.0889   9.9780   9.9784  10.2610  10.8588  10.9015  10.9019  11.2917
    11.4979  11.4982  11.6288  11.8480  11.9695  12.4356  12.4360  12.4527
    12.7478  13.2878  13.3524  13.3695  13.3715  15.4602  15.4603  18.2541
    20.3727  23.4548  23.4549  27.4481  27.5766  30.6435  30.6437  31.5788
    31.5793  33.4733  34.7088  36.3563  38.7458  38.7461  39.6112  42.3601
    43.1180  44.1742  45.8092  45.8092  48.4876  48.4880  49.7489  49.9104
    50.2273  50.8617  51.5905  52.2445

          k = 0.0473 0.0946-0.1419 (  3562 PWs)   bands (ev):

     9.1597   9.1716  10.1937  10.1972  11.0661  11.0672  11.1969  11.2201
    11.5011  11.5108  11.6137  11.6348  12.1111  12.1191  12.3188  12.3239
    13.0323  13.0413  13.2531  13.2624  13.9348  13.9382  16.8165  16.8349
    21.3767  21.3914  25.1921  25.2029  28.9391  28.9467  32.5177  32.5227
    32.7131  32.7200  36.3137  36.3901  39.5531  39.5704  39.8410  39.8539
    44.5548  44.5614  45.0251  45.0605  47.0320  47.0504  49.8437  49.8739
    51.0999  51.1181  53.1377  53.1663

          k = 0.0473-0.1419-0.1419 (  3556 PWs)   bands (ev):

     9.7272   9.7327   9.7327   9.7373  11.4376  11.4454  11.4454  11.4524
    11.5175  11.5329  11.5329  11.5487  12.0800  12.0878  12.0878  12.0957
    13.0051  13.0192  13.0192  13.0334  14.9845  14.9961  14.9961  15.0079
    22.9923  23.0038  23.0038  23.0152  30.4660  30.4682  30.4682  30.4710
    37.5514  37.5721  37.5721  37.5980  37.7770  37.8080  37.8081  37.8311
    46.0258  46.0258  46.0300  46.0337  46.0614  46.0927  46.0927  46.1125
    54.0015  54.0192  54.0198  54.0440

          k = 0.0946 0.0946 0.0946 (  3554 PWs)   bands (ev):

     8.6326   9.8164   9.8170   9.8170  11.2524  11.2530  11.2530  11.7522
    11.8036  11.8036  11.8136  11.8225  11.8225  12.0908  12.0908  12.0914
    13.1392  13.1392  13.4939  13.4939  13.4941  15.8439  15.8440  15.8440
    20.9741  20.9741  20.9743  24.6860  31.9916  31.9916  31.9919  34.6846
    34.6849  34.6849  36.7183  36.7183  36.7188  37.3226  39.3286  39.3286
    43.8076  43.8076  47.0931  47.4184  47.4184  47.4201  47.4656  47.4658
    47.4659  51.6981  51.6989  51.6989

          k = 0.0946 0.0946-0.1419 (  3562 PWs)   bands (ev):

     9.2557   9.2591   9.7496   9.7499  11.3682  11.3685  11.6375  11.6552
    11.8551  11.8576  11.9694  11.9742  11.9869  12.0044  12.0910  12.0916
    13.4152  13.4171  13.4240  13.4255  13.8340  13.8354  16.1346  16.1347
    19.9441  19.9442  22.5144  22.5254  32.9193  32.9194  34.0585  34.0591
    35.8356  35.8670  36.6516  36.6698  38.3527  38.4067  38.8754  38.8756
    44.0025  44.0028  44.2643  44.2907  45.3586  45.3645  47.8922  47.8922
    48.8838  48.8954  52.2396  52.2414

          k = 0.0946-0.1419-0.1419 (  3544 PWs)   bands (ev):

     9.4335   9.4342   9.4342   9.4342  11.6017  11.6066  11.6066  11.6108
    11.7859  11.7908  11.7908  11.7959  12.5209  12.5309  12.5309  12.5410
    13.3389  13.3466  13.3466  13.3544  14.6262  14.6395  14.6395  14.6527
    20.6463  20.6555  20.6555  20.6649  34.6421  34.6453  34.6453  34.6488
    37.6578  37.6718  37.6718  37.6867  38.3181  38.3340  38.3340  38.3471
    43.4382  43.4499  43.4499  43.4610  44.5161  44.5188  44.5188  44.5210
    49.6866  49.6915  49.6916  49.6977

          k =-0.1419-0.1419-0.1419 (  3544 PWs)   bands (ev):

     9.3208   9.3214   9.3214   9.3214  11.6817  11.6817  11.6817  11.6819
    11.6819  11.6825  11.6825  11.6825  13.4696  13.4696  13.4696  13.4706
    13.4706  13.4707  13.4707  13.4707  14.0047  14.0055  14.0055  14.0055
    19.7737  19.7737  19.7737  19.7739  36.4960  36.4962  36.4962  36.4962
    38.9593  38.9593  38.9595  38.9595  38.9595  38.9604  38.9604  38.9604
    42.1749  42.1749  42.1752  42.1752  42.1752  42.1756  42.1756  42.1756
    48.0448  48.0448  48.0448  48.0451

          k =-0.0473 0.0000 0.0473 (  3595 PWs)   bands (ev):

     5.9438   9.7074   9.7074   9.8334  10.1562  10.1567  10.1701  11.4845
    11.8113  11.8280  12.6325  12.6667  12.6891  12.7013  12.8588  13.2432
    13.3640  13.3640  13.4308  13.4310  13.4908  16.0553  16.0553  18.4342
    23.4480  24.6341  25.7734  25.7737  27.8187  27.8188  28.4463  28.4470
    30.1617  35.4700  35.5988  36.4718  36.4722  36.7718  39.4613  39.4620
    40.7142  41.9443  42.9234  44.6222  45.6793  49.0059  49.8068  52.2826
    53.0103  54.6579  54.6590  55.6127

          k =-0.0473 0.0000 0.0946 (  3565 PWs)   bands (ev):

     6.9541   9.5094  10.1800  10.2277  10.4312  10.4835  10.5015  11.2115
    11.7068  11.8429  11.9545  12.0678  12.0954  12.5172  12.9283  12.9942
    13.0174  13.0346  13.1833  13.4266  13.4344  14.1031  17.6423  20.1895
    21.6669  24.1308  25.0540  26.0844  26.8875  29.1156  29.4122  29.4653
    30.4852  33.2000  33.9301  37.1241  38.0543  39.8308  40.0102  40.0860
    40.5345  43.3644  44.2793  46.3625  47.1620  47.9204  49.2224  50.6744
    52.2580  52.6002  54.0630  55.5547

          k =-0.0946 0.0000 0.0946 (  3564 PWs)   bands (ev):

     7.8713  10.0871  10.0873  10.4489  10.6915  10.6928  10.7103  11.1441
    11.3844  11.3846  11.5355  11.8463  12.1950  12.4333  12.7182  12.8680
    12.8685  13.0036  13.0040  13.1692  13.3797  15.3278  15.3278  18.9091
    21.6945  24.6818  26.3092  26.3093  27.4154  27.4161  30.4792  31.1092
    31.1155  31.2274  33.0655  36.2828  40.9616  41.2934  41.2937  42.4380
    42.8504  43.1210  43.1210  46.4562  46.6540  47.7834  47.7842  50.9476
    51.5029  51.5320  52.4679  54.6577

          k = 0.0473-0.0473 0.0473 (  3596 PWs)   bands (ev):

     6.2857   9.8647   9.8648   9.8648  10.2680  10.2687  10.2687  11.4509
    11.8470  11.8470  12.3929  12.3929  12.3930  12.7740  12.7740  13.0151
    13.0156  13.0157  13.5437  13.5437  13.5438  16.6709  16.6710  16.6710
    24.8800  24.8802  24.8802  26.1043  26.1043  26.1047  30.6688  30.6692
    30.6692  32.9595  35.6019  35.6020  35.6024  38.7560  40.5179  40.5179
    42.1509  42.1509  42.1509  45.9790  47.0113  47.0113  50.8219  50.8219
    54.4864  54.5251  54.5260  54.5262

          k = 0.0473-0.0473 0.0946 (  3551 PWs)   bands (ev):

     7.2569   9.6657  10.2382  10.2385  10.5467  10.5759  10.5761  11.2474
    11.6972  11.6974  11.8832  11.9301  11.9839  12.6226  12.6905  12.7760
    12.7781  13.0080  13.4488  13.4488  13.4810  14.4605  17.9948  17.9949
    22.2748  22.2748  26.1510  26.7610  26.7611  29.8501  29.8504  30.2387
    30.4432  32.1270  36.0782  37.2592  37.2724  38.2136  38.2137  41.7452
    42.8373  43.8279  46.3351  46.3352  47.1843  48.4366  49.5250  49.5252
    50.0020  52.3479  52.3811  54.8099

          k =-0.0946 0.0473 0.0473 (  3551 PWs)   bands (ev):

     7.2569   9.6657  10.2382  10.2385  10.5467  10.5759  10.5761  11.2474
    11.6972  11.6973  11.8832  11.9301  11.9839  12.6226  12.6905  12.7760
    12.7781  13.0080  13.4488  13.4489  13.4810  14.4605  17.9948  17.9949
    22.2748  22.2748  26.1510  26.7610  26.7611  29.8501  29.8504  30.2387
    30.4432  32.1270  36.0782  37.2592  37.2724  38.2136  38.2136  41.7452
    42.8373  43.8279  46.3351  46.3352  47.1843  48.4366  49.5250  49.5252
    50.0020  52.3479  52.3811  54.8099

          k = 0.0473-0.0473-0.1419 (  3546 PWs)   bands (ev):

     8.6091   8.6280  10.6120  10.6134  10.6768  10.6771  10.8956  10.9243
    11.3139  11.3140  11.7774  11.8096  12.2444  12.2554  12.6127  12.6132
    13.1629  13.1856  13.2738  13.2787  13.3944  13.3945  19.1395  19.1395
    20.7158  20.7159  27.7370  27.7414  27.9496  27.9658  28.4072  28.4139
    34.3663  34.4000  34.8807  34.9457  37.4624  37.5304  41.6078  41.6079
    44.0541  44.0893  44.7337  44.7341  48.8113  48.8618  50.2179  50.2357
    51.4391  51.4394  52.9808  52.9913

          k = 0.0946-0.0473 0.0946 (  3561 PWs)   bands (ev):

     8.0889   9.9780   9.9784  10.2610  10.8588  10.9015  10.9019  11.2917
    11.4979  11.4982  11.6288  11.8480  11.9695  12.4356  12.4360  12.4527
    12.7478  13.2878  13.3524  13.3695  13.3715  15.4602  15.4603  18.2541
    20.3727  23.4548  23.4549  27.4481  27.5766  30.6435  30.6437  31.5788
    31.5793  33.4733  34.7088  36.3563  38.7458  38.7461  39.6112  42.3601
    43.1180  44.1742  45.8092  45.8092  48.4876  48.4880  49.7489  49.9104
    50.2273  50.8617  51.5905  52.2445

          k =-0.0946 0.0473 0.0946 (  3561 PWs)   bands (ev):

     8.0889   9.9780   9.9784  10.2610  10.8588  10.9015  10.9019  11.2917
    11.4979  11.4982  11.6288  11.8480  11.9695  12.4356  12.4360  12.4527
    12.7478  13.2878  13.3524  13.3696  13.3715  15.4602  15.4603  18.2541
    20.3727  23.4548  23.4549  27.4481  27.5766  30.6435  30.6437  31.5788
    31.5793  33.4733  34.7088  36.3563  38.7457  38.7461  39.6112  42.3601
    43.1180  44.1742  45.8092  45.8092  48.4876  48.4880  49.7489  49.9104
    50.2274  50.8617  51.5905  52.2445

          k = 0.0946-0.0473-0.1419 (  3562 PWs)   bands (ev):

     9.1597   9.1716  10.1937  10.1972  11.0661  11.0672  11.1969  11.2201
    11.5011  11.5108  11.6137  11.6348  12.1111  12.1191  12.3188  12.3239
    13.0323  13.0413  13.2531  13.2624  13.9348  13.9382  16.8165  16.8349
    21.3767  21.3914  25.1921  25.2029  28.9391  28.9467  32.5177  32.5227
    32.7131  32.7200  36.3137  36.3901  39.5531  39.5704  39.8410  39.8539
    44.5548  44.5614  45.0251  45.0605  47.0320  47.0504  49.8437  49.8739
    51.0999  51.1181  53.1371  53.1660

          k = 0.0946-0.0946 0.0946 (  3554 PWs)   bands (ev):

     8.6326   9.8164   9.8170   9.8170  11.2524  11.2530  11.2530  11.7522
    11.8036  11.8036  11.8136  11.8225  11.8225  12.0908  12.0909  12.0914
    13.1392  13.1392  13.4939  13.4939  13.4941  15.8439  15.8440  15.8440
    20.9741  20.9742  20.9742  24.6860  31.9915  31.9916  31.9920  34.6846
    34.6849  34.6849  36.7182  36.7183  36.7189  37.3226  39.3286  39.3286
    43.8076  43.8076  47.0931  47.4184  47.4184  47.4202  47.4656  47.4658
    47.4658  51.6981  51.6988  51.6989

          k = 0.0946-0.0946-0.1419 (  3562 PWs)   bands (ev):

     9.2557   9.2591   9.7496   9.7499  11.3682  11.3685  11.6375  11.6552
    11.8551  11.8576  11.9694  11.9742  11.9869  12.0044  12.0910  12.0916
    13.4152  13.4171  13.4240  13.4255  13.8340  13.8354  16.1347  16.1347
    19.9441  19.9442  22.5144  22.5254  32.9193  32.9194  34.0585  34.0591
    35.8356  35.8670  36.6516  36.6698  38.3527  38.4067  38.8754  38.8756
    44.0025  44.0028  44.2643  44.2907  45.3586  45.3645  47.8922  47.8922
    48.8838  48.8954  52.2395  52.2414

 ------ SPIN DOWN ----------


          k = 0.0000 0.0000 0.0000 (  3575 PWs)   bands (ev):

     5.1725   9.9641   9.9641   9.9641  10.6611  10.6619  10.6619  12.5574
    12.5574  12.5574  13.6081  13.6081  14.3422  14.3423  14.3423  14.6214
    14.6214  14.6214  14.6218  14.6218  14.6218  16.6615  16.6618  16.6618
    23.6460  23.6460  23.6460  29.0762  29.0763  29.0763  29.0766  29.0766
    29.0767  34.2631  34.2631  34.2634  37.4879  37.4881  37.4881  37.8217
    41.8475  41.8475  41.8475  45.4536  45.4536  45.4536  47.4057  54.5234
    54.5234  54.5234  57.7731  58.5859

          k = 0.0000 0.0000 0.0473 (  3579 PWs)   bands (ev):

     5.5341   9.9356  10.1548  10.1548  10.7783  10.7819  10.7825  12.4191
    12.6612  12.6612  13.4832  13.6549  13.8006  13.8011  14.1794  14.1794
    14.2916  14.4340  14.4340  14.6221  14.6221  15.2180  17.7821  17.7823
    23.7296  23.7297  25.7841  27.4165  27.4168  27.9899  27.9900  29.6442
    29.6442  34.3690  36.3418  36.3420  37.2350  37.6160  39.4104  39.4105
    39.6919  39.6919  40.2867  46.8288  47.4445  47.4445  48.4825  50.8545
    55.6059  55.6059  55.9012  55.9018

          k = 0.0000 0.0000 0.0946 (  3567 PWs)   bands (ev):

     6.5757   9.4861  10.6077  10.6077  11.1038  11.1497  11.1505  12.0505
    12.6784  12.6792  12.9634  12.9634  13.1698  13.3834  13.7774  13.7774
    13.7873  13.9716  13.9716  14.1545  14.6227  14.6227  19.7914  19.7917
    24.0130  24.0130  24.7386  24.7387  26.2866  26.2867  29.9584  31.2335
    31.2335  34.7011  36.1827  36.5223  36.5223  37.7403  38.1618  40.2830
    40.2834  43.5248  43.5249  43.6136  50.1933  50.3123  50.3123  50.3162
    50.3162  54.2234  55.5005  55.5006

          k = 0.0000 0.0000-0.1419 (  3546 PWs)   bands (ev):

     8.0945   8.1180  10.8940  10.8940  11.5479  11.5820  11.7643  11.7650
    11.7968  11.7975  12.8859  12.9346  13.4135  13.4135  13.4383  13.4383
    13.5202  13.5202  13.9603  13.9785  14.6230  14.6230  22.1145  22.1147
    22.1720  22.1722  24.3585  24.3585  25.3811  25.3811  33.5866  33.5866
    33.6265  33.6265  34.3450  34.4295  35.2863  35.3087  39.6933  39.8262
    44.9412  44.9415  45.0573  45.0576  46.9758  46.9759  51.7532  51.7532
    53.3562  53.3562  53.4614  53.4614

          k = 0.0000 0.0473 0.0473 (  3595 PWs)   bands (ev):

     5.8884  10.1429  10.1430  10.3334  10.8786  10.8893  10.8899  12.3473
    12.7105  12.7146  13.4075  13.4313  13.4471  13.4740  13.6568  14.0448
    14.1676  14.1676  14.4327  14.4328  14.5022  16.3699  16.3699  18.5966
    23.7094  24.7611  25.9618  25.9622  27.9002  27.9002  28.4865  28.4873
    30.1716  35.5716  35.5916  36.5403  36.5407  36.7903  39.5776  39.5781
    40.6300  42.0294  42.8946  44.5611  45.7384  49.1610  49.7286  52.4579
    52.9594  54.6141  54.6153  55.5499

          k = 0.0000 0.0473 0.0946 (  3565 PWs)   bands (ev):

     6.9068   9.7333  10.6506  10.7697  11.1537  11.1882  11.2274  12.0429
    12.4071  12.5734  12.7562  12.8081  12.9792  13.2923  13.7042  13.7859
    13.8547  13.9403  13.9700  14.4292  14.4400  14.8198  17.9813  20.3911
    21.8642  24.3596  25.2040  26.2177  27.0131  29.2225  29.4740  29.5332
    30.5829  33.2769  33.9730  37.1642  38.0909  39.7807  39.9551  40.2033
    40.5322  43.4454  44.4845  46.4263  47.0808  47.9001  49.2033  50.5974
    52.2102  52.5056  54.2673  55.7842

          k = 0.0000 0.0473-0.1419 (  3574 PWs)   bands (ev):

     8.3858   8.4080  11.0319  11.0348  11.5833  11.6136  11.6140  11.6414
    11.7820  11.8138  12.6191  12.6569  13.4166  13.4410  13.4962  13.5023
    13.5104  13.5132  14.1894  14.1905  14.4260  14.4314  19.7555  19.7846
    22.6210  22.6721  25.0945  25.1345  27.9209  27.9348  31.0899  31.1058
    31.5596  31.5708  35.2631  35.3584  38.2677  38.2736  41.6275  41.7100
    42.4781  42.5100  45.2155  45.3251  49.3645  49.4602  49.6092  49.6549
    51.8387  51.8750  52.6417  52.6712

          k = 0.0000 0.0946 0.0946 (  3564 PWs)   bands (ev):

     7.8475  10.3633  10.3635  11.1215  11.2036  11.4361  11.4376  11.9474
    12.0874  12.0875  12.2570  12.6475  13.1194  13.1911  13.4829  13.6168
    13.6173  13.9734  13.9737  14.1593  14.2323  15.9385  15.9387  19.2169
    21.9115  24.8805  26.4740  26.4741  27.5160  27.5167  30.6085  31.1966
    31.2037  31.2956  33.1171  36.3172  40.8948  41.2736  41.2739  42.4750
    42.7306  43.1629  43.1629  46.5742  46.6815  47.8243  47.8252  51.0025
    51.4071  51.4552  52.6576  54.5573

          k = 0.0000 0.0946-0.1419 (  3558 PWs)   bands (ev):

     9.1791   9.1982  10.9649  10.9847  11.5984  11.6000  11.6984  11.7285
    11.8105  11.8405  12.3248  12.3487  13.2810  13.2817  13.3503  13.3537
    13.4668  13.4925  14.0073  14.0232  14.8399  14.8447  17.2966  17.3186
    23.9772  24.0151  25.8831  25.9159  28.3187  28.3357  29.1273  29.1318
    32.4822  32.4915  36.2131  36.3060  39.7688  39.7859  42.3996  42.4166
    42.6003  42.6081  46.0092  46.0983  47.2629  47.3179  49.6814  49.7310
    51.0806  51.1607  52.7878  52.8082

          k = 0.0000-0.1419-0.1419 (  3556 PWs)   bands (ev):

    10.1783  10.1952  10.1952  10.2118  11.7746  11.8038  11.8038  11.8326
    12.0328  12.0419  12.0419  12.0508  13.1393  13.1421  13.1421  13.1455
    13.6329  13.6566  13.6566  13.6803  15.7597  15.7688  15.7688  15.7776
    25.9113  25.9369  25.9369  25.9619  27.1968  27.2165  27.2165  27.2373
    37.3453  37.3701  37.3701  37.3969  37.8871  37.9187  37.9187  37.9450
    46.4528  46.4529  46.4529  46.4560  48.4575  48.5074  48.5074  48.5571
    51.1282  51.1342  51.1343  51.1394

          k = 0.0473 0.0473 0.0473 (  3596 PWs)   bands (ev):

     6.2331  10.3276  10.3277  10.3277  10.9773  10.9784  10.9784  12.2938
    12.7344  12.7344  13.1132  13.1132  13.1132  13.5712  13.5712  13.8567
    13.8573  13.8573  14.5017  14.5017  14.5020  17.0124  17.0126  17.0126
    25.0098  25.0100  25.0100  26.2777  26.2777  26.2781  30.6895  30.6900
    30.6900  33.0255  35.6955  35.6955  35.6958  38.5974  40.5715  40.5715
    42.2327  42.2328  42.2328  45.8877  46.9651  46.9651  50.9882  50.9882
    54.4763  54.4774  54.4775  54.8089

          k = 0.0473 0.0473 0.0946 (  3551 PWs)   bands (ev):

     7.2200   9.9301  10.7788  10.7790  11.2119  11.2128  11.2687  12.0525
    12.4088  12.4089  12.5684  12.7672  12.8539  13.4789  13.5097  13.5735
    13.5767  13.8410  14.3919  14.4215  14.4221  15.0978  18.3220  18.3221
    22.4838  22.4839  26.2938  26.9095  26.9096  29.9240  29.9244  30.3516
    30.5302  32.1725  36.1513  37.1766  37.3360  38.2427  38.2427  41.7553
    42.9151  43.8417  46.3778  46.3778  47.2242  48.3809  49.5103  49.5106
    50.0036  52.2722  52.3402  54.9236

          k = 0.0473 0.0473-0.1419 (  3546 PWs)   bands (ev):

     8.6412   8.6617  11.2000  11.2002  11.2599  11.2612  11.6543  11.6857
    12.0369  12.0373  12.5354  12.5713  13.1059  13.1149  13.3871  13.3876
    13.9767  14.0009  14.1466  14.1491  14.3755  14.3756  19.3956  19.3957
    21.0199  21.0200  27.8506  27.8547  28.0902  28.1054  28.5218  28.5292
    34.4351  34.4683  34.8512  34.9184  37.5397  37.6082  41.5879  41.5880
    44.1366  44.1749  44.7215  44.7219  48.7284  48.7790  50.1713  50.1892
    51.4710  51.4711  53.1386  53.1558

          k = 0.0473 0.0946 0.0946 (  3561 PWs)   bands (ev):

     8.0989  10.3743  10.3746  10.8871  11.3753  11.5122  11.5131  12.0279
    12.2277  12.2280  12.3500  12.6586  12.8037  13.2441  13.2457  13.2497
    13.6012  14.1470  14.2905  14.2926  14.3114  16.0183  16.0185  18.5278
    20.7172  23.6705  23.6705  27.6046  27.7076  30.7059  30.7061  31.6712
    31.6717  33.5271  34.7351  36.3800  38.7592  38.7595  39.5301  42.4756
    43.1073  44.1186  45.8023  45.8023  48.5383  48.5387  49.6797  49.8930
    50.2032  50.9320  51.6473  52.1687

          k = 0.0473 0.0946-0.1419 (  3562 PWs)   bands (ev):

     9.3061   9.3217  10.7330  10.7399  11.6294  11.6326  11.8507  11.8773
    12.2030  12.2151  12.3823  12.4060  12.9264  12.9325  13.1041  13.1084
    13.9055  13.9186  14.1980  14.2085  14.7363  14.7410  17.2297  17.2473
    21.6769  21.6901  25.3915  25.4006  29.0378  29.0476  32.5755  32.5781
    32.7802  32.7891  36.3264  36.4020  39.5366  39.5525  39.8615  39.8756
    44.5411  44.5467  45.0147  45.0522  47.0099  47.0311  49.8785  49.9087
    51.0380  51.0554  53.2148  53.2471

          k = 0.0473-0.1419-0.1419 (  3556 PWs)   bands (ev):

    10.0817  10.0915  10.0915  10.1006  12.0138  12.0269  12.0269  12.0397
    12.2282  12.2439  12.2439  12.2595  12.8685  12.8753  12.8753  12.8824
    13.9246  13.9409  13.9409  13.9574  15.6382  15.6480  15.6480  15.6576
    23.2505  23.2602  23.2603  23.2699  30.5460  30.5503  30.5503  30.5552
    37.6242  37.6401  37.6401  37.6694  37.7274  37.7607  37.7608  37.7780
    45.9589  45.9589  45.9606  45.9628  46.0843  46.1142  46.1142  46.1393
    54.0621  54.0809  54.0809  54.1080

          k = 0.0946 0.0946 0.0946 (  3554 PWs)   bands (ev):

     8.7638  10.3315  10.3321  10.3321  11.8212  11.8218  11.8218  12.2852
    12.4991  12.4991  12.5010  12.6266  12.6266  12.8921  12.8921  12.8926
    14.0302  14.0302  14.4313  14.4313  14.4317  16.2723  16.2726  16.2726
    21.3125  21.3125  21.3126  24.9100  32.0379  32.0379  32.0383  34.7453
    34.7458  34.7458  36.7288  36.7288  36.7294  37.1477  39.4146  39.4146
    43.8161  43.8161  47.1068  47.3640  47.3640  47.3660  47.4663  47.4667
    47.4667  51.7275  51.7282  51.7282

          k = 0.0946 0.0946-0.1419 (  3562 PWs)   bands (ev):

     9.5871   9.5946  10.2938  10.2942  12.0104  12.0108  12.3065  12.3240
    12.5450  12.5670  12.6573  12.6591  12.7000  12.7000  12.7630  12.7632
    14.3340  14.3368  14.3620  14.3631  14.5558  14.5596  16.4645  16.4646
    20.3833  20.3833  22.8036  22.8131  32.9263  32.9264  34.1443  34.1450
    35.7238  35.7571  36.7242  36.7412  38.4330  38.4866  38.8478  38.8480
    44.0280  44.0284  44.2386  44.2653  45.3657  45.3731  47.8497  47.8498
    48.9357  48.9470  52.3404  52.3422

          k = 0.0946-0.1419-0.1419 (  3544 PWs)   bands (ev):

     9.9069   9.9095   9.9095   9.9113  12.3453  12.3499  12.3499  12.3542
    12.5722  12.5767  12.5767  12.5817  12.9687  12.9805  12.9805  12.9923
    14.2659  14.2745  14.2745  14.2834  15.1611  15.1720  15.1720  15.1825
    21.0409  21.0488  21.0488  21.0566  34.6157  34.6214  34.6214  34.6273
    37.6230  37.6356  37.6356  37.6491  38.3881  38.4031  38.4031  38.4155
    43.4678  43.4809  43.4810  43.4935  44.5063  44.5097  44.5097  44.5127
    49.7731  49.7781  49.7781  49.7845

          k =-0.1419-0.1419-0.1419 (  3544 PWs)   bands (ev):

     9.8276   9.8283   9.8283   9.8283  12.4647  12.4647  12.4647  12.4652
    12.4652  12.4655  12.4655  12.4655  13.9019  13.9019  13.9019  13.9029
    14.4037  14.4037  14.4041  14.4041  14.4041  14.4045  14.4045  14.4045
    20.2588  20.2588  20.2588  20.2588  36.3077  36.3079  36.3079  36.3080
    39.0297  39.0297  39.0298  39.0298  39.0298  39.0308  39.0308  39.0308
    42.2041  42.2041  42.2043  42.2043  42.2043  42.2048  42.2048  42.2048
    48.1557  48.1557  48.1557  48.1561

          k =-0.0473 0.0000 0.0473 (  3595 PWs)   bands (ev):

     5.8884  10.1429  10.1430  10.3334  10.8786  10.8893  10.8899  12.3473
    12.7105  12.7146  13.4075  13.4313  13.4471  13.4740  13.6568  14.0448
    14.1676  14.1676  14.4327  14.4328  14.5022  16.3699  16.3699  18.5966
    23.7094  24.7611  25.9618  25.9622  27.9001  27.9003  28.4865  28.4873
    30.1716  35.5716  35.5916  36.5403  36.5407  36.7903  39.5774  39.5782
    40.6300  42.0294  42.8946  44.5611  45.7384  49.1610  49.7286  52.4579
    52.9594  54.6141  54.6153  55.5499

          k =-0.0473 0.0000 0.0946 (  3565 PWs)   bands (ev):

     6.9068   9.7333  10.6506  10.7697  11.1537  11.1882  11.2274  12.0429
    12.4071  12.5734  12.7562  12.8081  12.9792  13.2923  13.7042  13.7859
    13.8547  13.9403  13.9700  14.4292  14.4400  14.8198  17.9813  20.3911
    21.8642  24.3596  25.2040  26.2177  27.0131  29.2225  29.4740  29.5332
    30.5829  33.2769  33.9730  37.1642  38.0909  39.7807  39.9551  40.2033
    40.5322  43.4454  44.4845  46.4263  47.0808  47.9001  49.2033  50.5974
    52.2102  52.5056  54.2673  55.7839

          k =-0.0946 0.0000 0.0946 (  3564 PWs)   bands (ev):

     7.8475  10.3633  10.3635  11.1215  11.2036  11.4361  11.4376  11.9474
    12.0874  12.0875  12.2570  12.6475  13.1194  13.1911  13.4829  13.6167
    13.6173  13.9734  13.9737  14.1593  14.2323  15.9385  15.9386  19.2169
    21.9115  24.8805  26.4740  26.4742  27.5160  27.5167  30.6085  31.1966
    31.2037  31.2956  33.1171  36.3172  40.8948  41.2736  41.2739  42.4750
    42.7306  43.1628  43.1629  46.5742  46.6815  47.8243  47.8252  51.0025
    51.4071  51.4552  52.6576  54.5616

          k = 0.0473-0.0473 0.0473 (  3596 PWs)   bands (ev):

     6.2331  10.3276  10.3277  10.3277  10.9773  10.9784  10.9784  12.2938
    12.7344  12.7344  13.1132  13.1132  13.1132  13.5712  13.5712  13.8567
    13.8572  13.8573  14.5016  14.5017  14.5020  17.0124  17.0126  17.0126
    25.0098  25.0100  25.0100  26.2777  26.2777  26.2781  30.6896  30.6900
    30.6900  33.0255  35.6955  35.6955  35.6959  38.5974  40.5715  40.5715
    42.2327  42.2328  42.2328  45.8877  46.9651  46.9651  50.9882  50.9882
    54.4763  54.4774  54.4774  54.8090

          k = 0.0473-0.0473 0.0946 (  3551 PWs)   bands (ev):

     7.2200   9.9301  10.7788  10.7790  11.2119  11.2128  11.2687  12.0525
    12.4088  12.4089  12.5684  12.7672  12.8539  13.4789  13.5097  13.5736
    13.5766  13.8410  14.3919  14.4215  14.4221  15.0978  18.3220  18.3221
    22.4839  22.4839  26.2938  26.9095  26.9096  29.9240  29.9243  30.3516
    30.5302  32.1725  36.1513  37.1766  37.3360  38.2426  38.2427  41.7553
    42.9151  43.8417  46.3777  46.3779  47.2242  48.3809  49.5103  49.5106
    50.0036  52.2722  52.3402  54.9237

          k =-0.0946 0.0473 0.0473 (  3551 PWs)   bands (ev):

     7.2200   9.9301  10.7788  10.7790  11.2119  11.2128  11.2687  12.0525
    12.4088  12.4089  12.5684  12.7672  12.8539  13.4789  13.5097  13.5735
    13.5767  13.8410  14.3919  14.4215  14.4221  15.0978  18.3220  18.3221
    22.4838  22.4839  26.2938  26.9095  26.9096  29.9240  29.9244  30.3516
    30.5302  32.1725  36.1513  37.1766  37.3360  38.2427  38.2427  41.7553
    42.9151  43.8417  46.3778  46.3778  47.2242  48.3809  49.5103  49.5106
    50.0036  52.2722  52.3402  54.9238

          k = 0.0473-0.0473-0.1419 (  3546 PWs)   bands (ev):

     8.6412   8.6617  11.2000  11.2001  11.2599  11.2612  11.6543  11.6857
    12.0369  12.0373  12.5354  12.5713  13.1059  13.1149  13.3871  13.3876
    13.9767  14.0009  14.1466  14.1491  14.3755  14.3756  19.3956  19.3957
    21.0199  21.0199  27.8506  27.8547  28.0902  28.1055  28.5218  28.5291
    34.4351  34.4683  34.8512  34.9184  37.5397  37.6082  41.5878  41.5880
    44.1366  44.1749  44.7215  44.7219  48.7284  48.7790  50.1713  50.1892
    51.4709  51.4712  53.1387  53.1558

          k = 0.0946-0.0473 0.0946 (  3561 PWs)   bands (ev):

     8.0989  10.3743  10.3746  10.8871  11.3753  11.5122  11.5131  12.0279
    12.2277  12.2280  12.3500  12.6586  12.8037  13.2441  13.2457  13.2497
    13.6012  14.1470  14.2905  14.2926  14.3114  16.0183  16.0185  18.5278
    20.7172  23.6705  23.6705  27.6046  27.7076  30.7059  30.7061  31.6712
    31.6717  33.5271  34.7351  36.3800  38.7592  38.7595  39.5301  42.4756
    43.1073  44.1186  45.8023  45.8023  48.5383  48.5387  49.6797  49.8930
    50.2032  50.9320  51.6473  52.1690

          k =-0.0946 0.0473 0.0946 (  3561 PWs)   bands (ev):

     8.0989  10.3743  10.3746  10.8871  11.3753  11.5122  11.5131  12.0279
    12.2277  12.2280  12.3500  12.6586  12.8037  13.2441  13.2457  13.2497
    13.6012  14.1470  14.2905  14.2926  14.3114  16.0183  16.0185  18.5278
    20.7172  23.6705  23.6706  27.6046  27.7076  30.7059  30.7061  31.6712
    31.6716  33.5271  34.7351  36.3800  38.7592  38.7595  39.5301  42.4756
    43.1073  44.1186  45.8023  45.8023  48.5382  48.5387  49.6797  49.8930
    50.2032  50.9320  51.6473  52.1691

          k = 0.0946-0.0473-0.1419 (  3562 PWs)   bands (ev):

     9.3061   9.3217  10.7330  10.7399  11.6294  11.6326  11.8507  11.8773
    12.2030  12.2151  12.3823  12.4060  12.9264  12.9325  13.1041  13.1084
    13.9055  13.9186  14.1980  14.2085  14.7363  14.7410  17.2297  17.2473
    21.6769  21.6901  25.3915  25.4006  29.0378  29.0476  32.5755  32.5781
    32.7802  32.7891  36.3264  36.4020  39.5366  39.5525  39.8615  39.8756
    44.5411  44.5467  45.0147  45.0522  47.0099  47.0311  49.8785  49.9087
    51.0380  51.0554  53.2148  53.2471

          k = 0.0946-0.0946 0.0946 (  3554 PWs)   bands (ev):

     8.7638  10.3315  10.3321  10.3321  11.8212  11.8218  11.8218  12.2852
    12.4991  12.4991  12.5010  12.6266  12.6266  12.8921  12.8921  12.8926
    14.0302  14.0302  14.4313  14.4313  14.4317  16.2724  16.2726  16.2726
    21.3125  21.3125  21.3126  24.9100  32.0379  32.0379  32.0383  34.7454
    34.7457  34.7458  36.7288  36.7288  36.7295  37.1477  39.4146  39.4146
    43.8161  43.8161  47.1068  47.3640  47.3640  47.3660  47.4664  47.4667
    47.4667  51.7275  51.7282  51.7282

          k = 0.0946-0.0946-0.1419 (  3562 PWs)   bands (ev):

     9.5871   9.5946  10.2938  10.2942  12.0104  12.0108  12.3065  12.3240
    12.5450  12.5670  12.6572  12.6591  12.7000  12.7000  12.7630  12.7632
    14.3340  14.3368  14.3620  14.3631  14.5558  14.5596  16.4645  16.4646
    20.3833  20.3833  22.8036  22.8131  32.9263  32.9265  34.1444  34.1449
    35.7238  35.7571  36.7242  36.7412  38.4330  38.4866  38.8478  38.8480
    44.0280  44.0283  44.2386  44.2653  45.3657  45.3731  47.8497  47.8498
    48.9357  48.9470  52.3403  52.3422

     the Fermi energy is    14.1792 ev

!    total energy              =    -343.62965507 Ry
     Harris-Foulkes estimate   =    -343.62965507 Ry
     estimated scf accuracy    <          7.1E-09 Ry

     The total energy is the sum of the following terms:

     one-electron contribution =      -8.69994820 Ry
     hartree contribution      =      61.07836879 Ry
     xc contribution           =    -120.47462836 Ry
     ewald contribution        =    -275.48620515 Ry
     Dispersion Correction     =      -0.04675218 Ry
     smearing contrib. (-TS)   =      -0.00048998 Ry

     total magnetization       =     2.87 Bohr mag/cell
     absolute magnetization    =     3.30 Bohr mag/cell

     convergence has been achieved in  13 iterations

     Forces acting on atoms (Ry/au):

     atom    1 type  1   force =    -0.00230228   -0.00230228    0.00230325
     atom    2 type  1   force =     0.00230131    0.00230131    0.00230131
     atom    3 type  1   force =    -0.00230228    0.00230325   -0.00230228
     atom    4 type  1   force =     0.00230325   -0.00230228   -0.00230228

     Total force =     0.007975     Total SCF correction =     0.000028


     entering subroutine stress ...

          total   stress  (Ry/bohr**3)                   (kbar)     P=  -32.20
  -0.00021891  -0.00000000  -0.00000000        -32.20     -0.00     -0.00
  -0.00000000  -0.00021891  -0.00000000         -0.00    -32.20     -0.00
  -0.00000000  -0.00000000  -0.00021891         -0.00     -0.00    -32.20


     BFGS Geometry Optimization

     number of scf cycles    =   1
     number of bfgs steps    =   0

     enthalpy new            =    -343.6296550699 Ry

     new trust radius        =       0.0187994707 bohr
     new conv_thr            =       0.0000000100 Ry

     new unit-cell volume =    290.18403 a.u.^3 (    43.00084 Ang^3 )

CELL_PARAMETERS (alat=  1.88972590)
   3.503421219  -0.000000140  -0.000000140
  -0.000000140   3.503421219  -0.000000140
  -0.000000140  -0.000000140   3.503421219

ATOMIC_POSITIONS (alat)
Ni1      1.758276041   1.758276041   0.001212018
Ni1      0.001211138   0.001211138   0.001211138
Ni1      1.758276041   0.001212018   1.758276041
Ni1      0.001212018   1.758276041   1.758276041



     Writing output data file Ni-ferromag.save
     NEW-OLD atomic charge density approx. for the potential

     Check: negative/imaginary core charge=   -0.000005    0.000000
     extrapolated charge   39.33605, renormalised to   40.00000

     total cpu time spent up to now is      833.4 secs

     Self-consistent Calculation

     iteration #  1     ecut=    80.00 Ry     beta=0.20
     Davidson diagonalization with overlap
     c_bands:  1 eigenvalues not converged
     c_bands:  1 eigenvalues not converged
     c_bands:  2 eigenvalues not converged
     c_bands:  3 eigenvalues not converged
     c_bands:  2 eigenvalues not converged
     ethr =  1.00E-06,  avg # of iterations =  7.3

     total cpu time spent up to now is      963.6 secs

     total energy              =    -343.54257107 Ry
     Harris-Foulkes estimate   =    -344.36222681 Ry
     estimated scf accuracy    <       0.14380838 Ry

     total magnetization       =     2.55 Bohr mag/cell
     absolute magnetization    =     2.97 Bohr mag/cell

     iteration #  2     ecut=    80.00 Ry     beta=0.20
     Davidson diagonalization with overlap
     ethr =  3.60E-04,  avg # of iterations =  3.3

     total cpu time spent up to now is     1021.1 secs

     total energy              =    -343.63317564 Ry
     Harris-Foulkes estimate   =    -343.64373945 Ry
     estimated scf accuracy    <       0.05419357 Ry

     total magnetization       =     2.94 Bohr mag/cell
     absolute magnetization    =     3.35 Bohr mag/cell

     iteration #  3     ecut=    80.00 Ry     beta=0.20
     Davidson diagonalization with overlap
     ethr =  1.35E-04,  avg # of iterations =  1.2

     total cpu time spent up to now is     1073.4 secs

     total energy              =    -343.62653727 Ry
     Harris-Foulkes estimate   =    -343.63490649 Ry
     estimated scf accuracy    <       0.01874481 Ry

     total magnetization       =     2.90 Bohr mag/cell
     absolute magnetization    =     3.32 Bohr mag/cell

     iteration #  4     ecut=    80.00 Ry     beta=0.20
     Davidson diagonalization with overlap
     ethr =  4.69E-05,  avg # of iterations =  2.8

     total cpu time spent up to now is     1128.6 secs

     total energy              =    -343.63035682 Ry
     Harris-Foulkes estimate   =    -343.63025021 Ry
     estimated scf accuracy    <       0.00008732 Ry

     total magnetization       =     2.84 Bohr mag/cell
     absolute magnetization    =     3.26 Bohr mag/cell

     iteration #  5     ecut=    80.00 Ry     beta=0.20
     Davidson diagonalization with overlap
     ethr =  2.18E-07,  avg # of iterations =  4.3

     total cpu time spent up to now is     1197.1 secs

     total energy              =    -343.63065277 Ry
     Harris-Foulkes estimate   =    -343.63042762 Ry
     estimated scf accuracy    <       0.00077877 Ry

     total magnetization       =     2.83 Bohr mag/cell
     absolute magnetization    =     3.25 Bohr mag/cell

     iteration #  6     ecut=    80.00 Ry     beta=0.20
     Davidson diagonalization with overlap
     ethr =  2.18E-07,  avg # of iterations =  1.8

     total cpu time spent up to now is     1250.4 secs

     total energy              =    -343.63030605 Ry
     Harris-Foulkes estimate   =    -343.63069314 Ry
     estimated scf accuracy    <       0.00184967 Ry

     total magnetization       =     2.82 Bohr mag/cell
     absolute magnetization    =     3.24 Bohr mag/cell

     iteration #  7     ecut=    80.00 Ry     beta=0.20
     Davidson diagonalization with overlap
     ethr =  2.18E-07,  avg # of iterations =  2.0

     total cpu time spent up to now is     1305.2 secs

     total energy              =    -343.63021213 Ry
     Harris-Foulkes estimate   =    -343.63037295 Ry
     estimated scf accuracy    <       0.00054960 Ry

     total magnetization       =     2.83 Bohr mag/cell
     absolute magnetization    =     3.25 Bohr mag/cell

     iteration #  8     ecut=    80.00 Ry     beta=0.20
     Davidson diagonalization with overlap
     ethr =  2.18E-07,  avg # of iterations =  1.8

     total cpu time spent up to now is     1358.6 secs

     total energy              =    -343.63027063 Ry
     Harris-Foulkes estimate   =    -343.63025391 Ry
     estimated scf accuracy    <       0.00006400 Ry

     total magnetization       =     2.84 Bohr mag/cell
     absolute magnetization    =     3.25 Bohr mag/cell

     iteration #  9     ecut=    80.00 Ry     beta=0.20
     Davidson diagonalization with overlap
     ethr =  1.60E-07,  avg # of iterations =  1.0

     total cpu time spent up to now is     1410.8 secs

     total energy              =    -343.63024717 Ry
     Harris-Foulkes estimate   =    -343.63027345 Ry
     estimated scf accuracy    <       0.00014204 Ry

     total magnetization       =     2.83 Bohr mag/cell
     absolute magnetization    =     3.25 Bohr mag/cell

     iteration # 10     ecut=    80.00 Ry     beta=0.20
     Davidson diagonalization with overlap
     ethr =  1.60E-07,  avg # of iterations =  1.0

     total cpu time spent up to now is     1462.9 secs

     total energy              =    -343.63022956 Ry
     Harris-Foulkes estimate   =    -343.63025111 Ry
     estimated scf accuracy    <       0.00005132 Ry

     total magnetization       =     2.83 Bohr mag/cell
     absolute magnetization    =     3.25 Bohr mag/cell

     iteration # 11     ecut=    80.00 Ry     beta=0.20
     Davidson diagonalization with overlap
     ethr =  1.28E-07,  avg # of iterations =  1.0

     Magnetic moment per site:
     atom:    1    charge:    3.0062    magn:    0.3351    constr:    0.0000
     atom:    2    charge:    3.0044    magn:    0.3350    constr:    0.0000
     atom:    3    charge:    3.0062    magn:    0.3351    constr:    0.0000
     atom:    4    charge:    3.0062    magn:    0.3351    constr:    0.0000

     total cpu time spent up to now is     1515.1 secs

     End of self-consistent calculation

 ------ SPIN UP ------------


          k = 0.0000 0.0000 0.0000 (  3575 PWs)   bands (ev):

     5.4274   9.7106   9.7106   9.7106  10.1632  10.1635  10.1635  11.9417
    11.9417  11.9417  13.1199  13.1199  13.8375  13.8375  13.8375  13.9272
    13.9272  13.9272  13.9274  13.9274  13.9274  17.0665  17.0666  17.0666
    23.8017  23.8018  23.8018  29.5603  29.5603  29.5603  29.5604  29.5604
    29.5604  34.6358  34.6358  34.6360  37.9795  37.9796  37.9796  38.4885
    42.4624  42.4624  42.4624  46.0572  46.0572  46.0572  48.1637  55.1545
    55.1545  55.1545  57.6033  59.0257

          k = 0.0000 0.0000 0.0476 (  3579 PWs)   bands (ev):

     5.7935   9.7326   9.8947   9.8947  10.2738  10.2896  10.2898  11.8131
    12.0440  12.0440  13.0017  13.1663  13.2740  13.2741  13.6839  13.6839
    13.7517  13.7517  13.7881  13.9276  13.9276  15.4657  18.0246  18.0247
    23.8977  23.8978  26.0510  27.8084  27.8086  28.4365  28.4365  30.1205
    30.1205  34.7520  36.8086  36.8087  37.8522  38.1114  39.9356  39.9357
    40.2412  40.2412  40.9076  47.4775  48.1155  48.1155  49.1368  51.5461
    56.2493  56.2493  56.6622  56.6624

          k = 0.0000 0.0000 0.0951 (  3567 PWs)   bands (ev):

     6.8426   9.5034  10.3315  10.3315  10.5812  10.6724  10.6728  11.4693
    12.2181  12.2185  12.3404  12.3404  12.7144  13.2951  13.3002  13.3002
    13.3020  13.3187  13.3187  13.6540  13.9282  13.9282  19.9864  19.9865
    24.2152  24.2153  25.0353  25.0353  26.6681  26.6681  30.3504  31.6992
    31.6992  35.1155  36.7186  37.0196  37.0196  38.3402  38.6636  40.8525
    40.8526  44.1006  44.1006  44.1324  50.9135  51.0370  51.0370  51.0397
    51.0397  55.0236  55.9274  55.9275

          k =-0.0000-0.0000-0.1427 (  3546 PWs)   bands (ev):

     8.3340   8.3494  10.6075  10.6075  11.0046  11.0270  11.3081  11.3082
    11.3304  11.3305  12.5219  12.5533  12.7836  12.7836  12.8004  12.8004
    13.0583  13.0583  13.4670  13.4793  13.9284  13.9285  22.3520  22.3520
    22.3909  22.3910  24.5888  24.5889  25.7223  25.7223  34.0627  34.0627
    34.0901  34.0901  34.8715  34.9289  35.7567  35.7702  40.2108  40.3027
    45.6134  45.6136  45.6934  45.6936  47.6059  47.6060  52.2775  52.2776
    54.1282  54.1282  54.2021  54.2021

          k = 0.0000 0.0476 0.0476 (  3595 PWs)   bands (ev):

     6.1510   9.9309   9.9309  10.0578  10.3910  10.3913  10.4050  11.7532
    12.0890  12.1059  12.9277  12.9693  12.9862  12.9943  13.1620  13.5556
    13.6799  13.6799  13.7502  13.7504  13.8118  16.3972  16.3972  18.7941
    23.8923  25.0910  26.2384  26.2385  28.2856  28.2856  28.9289  28.9292
    30.6480  36.0248  36.1101  37.0171  37.0173  37.3230  40.1046  40.1048
    41.2620  42.5923  43.5213  45.2213  46.3504  49.7742  50.4441  53.0789
    53.6577  55.3383  55.3388  56.2925

          k = 0.0000 0.0476 0.0951 (  3565 PWs)   bands (ev):

     7.1724   9.7394  10.4128  10.4613  10.6726  10.7260  10.7450  11.4724
    11.9799  12.1191  12.2348  12.3520  12.3781  12.8108  13.2320  13.3048
    13.3219  13.3415  13.4934  13.7464  13.7535  14.4306  18.0109  20.5763
    22.0739  24.6001  25.4964  26.5256  27.3922  29.5992  29.8904  29.9508
    31.0064  33.7148  34.4579  37.6696  38.6219  40.3806  40.5592  40.7366
    41.1083  44.0283  45.0197  47.0458  47.7748  48.5760  49.8821  51.3243
    52.9286  53.2499  54.8040  56.1908

          k =-0.0000 0.0476-0.1427 (  3574 PWs)   bands (ev):

     8.6159   8.6303  10.7594  10.7604  11.0562  11.0779  11.1783  11.1965
    11.3230  11.3446  12.1526  12.1758  12.7842  12.8014  13.0181  13.0257
    13.0430  13.0440  13.6566  13.6568  13.7429  13.7463  19.8692  19.8889
    22.8530  22.8880  25.3907  25.4173  28.2964  28.3053  31.4825  31.4942
    32.0080  32.0161  35.7865  35.8526  38.8162  38.8212  42.1727  42.2294
    43.0936  43.1148  45.8917  45.9673  50.0355  50.1030  50.3280  50.3599
    52.5887  52.6139  53.1806  53.2010

          k = 0.0000 0.0951 0.0951 (  3564 PWs)   bands (ev):

     8.0987  10.3266  10.3267  10.6923  10.9402  10.9408  10.9547  11.4028
    11.6494  11.6495  11.8039  12.1225  12.4826  12.7245  13.0163  13.1705
    13.1707  13.3114  13.3115  13.4814  13.6964  15.6761  15.6761  19.2937
    22.1024  25.1508  26.7684  26.7684  27.8886  27.8888  30.9763  31.6285
    31.6318  31.7312  33.5952  36.8286  41.5182  41.8701  41.8703  43.0643
    43.4034  43.7609  43.7610  47.1768  47.3176  48.4628  48.4632  51.6617
    52.1664  52.1795  53.1878  55.3344

          k =-0.0000 0.0951-0.1427 (  3558 PWs)   bands (ev):

     9.3596   9.3714  10.7903  10.8041  11.1818  11.1952  11.2062  11.2114
    11.3425  11.3627  11.8510  11.8662  12.8203  12.8293  12.8304  12.8375
    12.8972  12.8998  13.3411  13.3514  14.3562  14.3589  17.1994  17.2149
    24.2127  24.2392  26.2078  26.2294  28.6382  28.6508  29.5283  29.5310
    32.9376  32.9433  36.7494  36.8138  40.3486  40.3614  43.0337  43.0462
    43.2035  43.2094  46.6991  46.7606  47.8934  47.9307  50.3989  50.4332
    51.7213  51.7764  53.5447  53.5592

          k =-0.0000-0.1427-0.1427 (  3556 PWs)   bands (ev):

    10.2083  10.2185  10.2185  10.2284  11.2949  11.3141  11.3141  11.3332
    11.6180  11.6236  11.6236  11.6290  12.6817  12.6836  12.6836  12.6857
    12.9823  12.9982  12.9983  13.0140  15.4203  15.4275  15.4275  15.4349
    26.1810  26.1993  26.1994  26.2175  27.5581  27.5711  27.5711  27.5846
    37.8649  37.8825  37.8825  37.9008  38.4697  38.4920  38.4920  38.5120
    47.1683  47.1683  47.1687  47.1693  49.1441  49.1788  49.1788  49.2134
    51.8022  51.8053  51.8053  51.8080

          k = 0.0476 0.0476 0.0476 (  3596 PWs)   bands (ev):

     6.4967  10.0917  10.0918  10.0918  10.5054  10.5057  10.5057  11.7183
    12.1255  12.1255  12.6823  12.6823  12.6824  13.0751  13.0751  13.3223
    13.3225  13.3225  13.8658  13.8658  13.8659  17.0241  17.0241  17.0241
    25.3180  25.3181  25.3181  26.5834  26.5834  26.5835  31.1629  31.1631
    31.1631  33.4735  36.1563  36.1563  36.1565  39.2449  41.1273  41.1273
    42.7996  42.7997  42.7997  46.5825  47.6372  47.6372  51.6282  51.6282
    55.0974  55.2163  55.2169  55.2169

          k = 0.0476 0.0476 0.0951 (  3551 PWs)   bands (ev):

     7.4780   9.8980  10.4745  10.4747  10.7909  10.8193  10.8194  11.5091
    11.9701  11.9702  12.1634  12.2073  12.2652  12.9200  12.9900  13.0764
    13.0774  13.3149  13.7685  13.7686  13.8009  14.7923  18.3660  18.3660
    22.6993  22.6994  26.6111  27.2347  27.2348  30.3496  30.3497  30.7364
    30.9393  32.6422  36.6354  37.7682  37.8404  38.7807  38.7807  42.3502
    43.4918  44.4591  47.0085  47.0086  47.8702  49.0724  50.1888  50.1889
    50.6838  53.0057  53.0660  55.6413

          k = 0.0476 0.0476-0.1427 (  3546 PWs)   bands (ev):

     8.8437   8.8564  10.8609  10.8616  10.9197  10.9199  11.1528  11.1731
    11.5767  11.5767  12.0572  12.0799  12.5342  12.5419  12.9087  12.9089
    13.4762  13.4922  13.5889  13.5924  13.7127  13.7127  19.5147  19.5147
    21.1382  21.1382  28.1974  28.1994  28.4327  28.4420  28.9182  28.9213
    34.9177  34.9406  35.3842  35.4296  38.0609  38.1084  42.1943  42.1944
    44.7318  44.7574  45.3582  45.3584  49.4517  49.4873  50.8817  50.8940
    52.1722  52.1723  53.6648  53.6694

          k = 0.0476 0.0951 0.0951 (  3561 PWs)   bands (ev):

     8.3166  10.2154  10.2156  10.5015  11.1066  11.1524  11.1526  11.5541
    11.7664  11.7665  11.8995  12.1246  12.2501  12.7278  12.7280  12.7446
    13.0476  13.6021  13.6703  13.6865  13.6875  15.8069  15.8069  18.6180
    20.7958  23.8957  23.8957  27.9302  28.0498  31.1260  31.1260  32.1113
    32.1115  34.0081  35.2325  36.8996  39.3148  39.3149  40.1458  43.0260
    43.7245  44.7741  46.4518  46.4519  49.1795  49.1797  50.4063  50.5840
    50.9125  51.6048  52.2891  52.9150

          k = 0.0476 0.0951-0.1427 (  3562 PWs)   bands (ev):

     9.3957   9.4036  10.4354  10.4378  11.3195  11.3203  11.4601  11.4765
    11.7698  11.7767  11.8869  11.9019  12.3964  12.4020  12.6081  12.6117
    13.3412  13.3476  13.5687  13.5752  14.2627  14.2652  17.1781  17.1906
    21.8066  21.8164  25.6525  25.6594  29.4244  29.4305  33.0293  33.0319
    33.2417  33.2472  36.8692  36.9220  40.1223  40.1339  40.4314  40.4409
    45.1796  45.1839  45.6608  45.6862  47.6861  47.6997  50.5494  50.5706
    51.7730  51.7854  53.8631  53.8878

          k = 0.0476-0.1427-0.1427 (  3556 PWs)   bands (ev):

     9.9655   9.9690   9.9690   9.9720  11.7052  11.7106  11.7106  11.7156
    11.7876  11.7987  11.7987  11.8100  12.3652  12.3707  12.3707  12.3762
    13.3170  13.3270  13.3270  13.3370  15.3306  15.3386  15.3386  15.3466
    23.4375  23.4450  23.4450  23.4525  30.9625  30.9648  30.9648  30.9673
    38.1475  38.1614  38.1614  38.1792  38.3164  38.3374  38.3374  38.3533
    46.6432  46.6433  46.6438  46.6464  46.7276  46.7480  46.7480  46.7651
    54.7831  54.7949  54.7949  55.0582

          k = 0.0951 0.0951 0.0951 (  3554 PWs)   bands (ev):

     8.8604  10.0504  10.0507  10.0507  11.5108  11.5111  11.5111  12.0242
    12.0813  12.0813  12.0868  12.0955  12.0955  12.3741  12.3741  12.3743
    13.4500  13.4500  13.8146  13.8146  13.8147  16.1853  16.1854  16.1854
    21.4030  21.4030  21.4031  25.1426  32.4915  32.4915  32.4917  35.2350
    35.2352  35.2352  37.2648  37.2648  37.2650  37.7846  39.9415  39.9415
    44.4344  44.4344  47.7615  48.0548  48.0548  48.0557  48.1285  48.1287
    48.1287  52.4359  52.4363  52.4363

          k = 0.0951 0.0951-0.1427 (  3562 PWs)   bands (ev):

     9.4853   9.4874   9.9820   9.9821  11.6306  11.6308  11.9109  11.9234
    12.1329  12.1346  12.2511  12.2541  12.2641  12.2766  12.3689  12.3692
    13.7342  13.7355  13.7429  13.7436  14.1538  14.1545  16.4697  16.4698
    20.3740  20.3740  22.9570  22.9642  33.4075  33.4075  34.6181  34.6184
    36.3118  36.3339  37.2310  37.2429  38.9662  39.0038  39.4310  39.4311
    44.6409  44.6410  44.8833  44.9020  46.0035  46.0085  48.5399  48.5399
    49.5902  49.5981  52.9650  52.9658

          k = 0.0951-0.1427-0.1427 (  3544 PWs)   bands (ev):

     9.6617   9.6620   9.6620   9.6620  11.8733  11.8767  11.8767  11.8798
    12.0628  12.0663  12.0663  12.0699  12.8087  12.8158  12.8158  12.8230
    13.6577  13.6632  13.6632  13.6687  14.9533  14.9624  14.9624  14.9714
    21.0813  21.0874  21.0874  21.0936  35.1440  35.1470  35.1470  35.1501
    38.2011  38.2107  38.2108  38.2208  38.9206  38.9309  38.9309  38.9400
    44.0744  44.0832  44.0832  44.0916  45.1442  45.1465  45.1465  45.1486
    50.4042  50.4077  50.4078  50.4120

          k =-0.1427-0.1427-0.1427 (  3544 PWs)   bands (ev):

     9.5457   9.5461   9.5461   9.5461  11.9546  11.9547  11.9547  11.9548
    11.9548  11.9550  11.9550  11.9550  13.7901  13.7901  13.7901  13.7906
    13.7906  13.7906  13.7906  13.7906  14.2881  14.2885  14.2885  14.2885
    20.2062  20.2062  20.2062  20.2063  36.9437  36.9438  36.9438  36.9438
    39.5668  39.5668  39.5668  39.5669  39.5669  39.5673  39.5673  39.5673
    42.7918  42.7918  42.7919  42.7919  42.7920  42.7921  42.7922  42.7922
    48.7616  48.7616  48.7616  48.7618

          k =-0.0476-0.0000 0.0476 (  3595 PWs)   bands (ev):

     6.1510   9.9309   9.9309  10.0578  10.3910  10.3913  10.4050  11.7532
    12.0890  12.1059  12.9277  12.9693  12.9862  12.9943  13.1620  13.5556
    13.6799  13.6799  13.7502  13.7504  13.8118  16.3972  16.3972  18.7941
    23.8923  25.0910  26.2384  26.2386  28.2856  28.2856  28.9289  28.9292
    30.6480  36.0248  36.1101  37.0171  37.0173  37.3230  40.1045  40.1049
    41.2620  42.5923  43.5213  45.2213  46.3504  49.7742  50.4441  53.0789
    53.6577  55.3382  55.3388  56.2925

          k =-0.0476 0.0000 0.0951 (  3565 PWs)   bands (ev):

     7.1724   9.7394  10.4128  10.4612  10.6726  10.7260  10.7450  11.4724
    11.9799  12.1191  12.2348  12.3520  12.3781  12.8108  13.2320  13.3048
    13.3219  13.3415  13.4934  13.7464  13.7535  14.4306  18.0109  20.5763
    22.0739  24.6001  25.4964  26.5256  27.3922  29.5992  29.8904  29.9508
    31.0064  33.7148  34.4579  37.6696  38.6219  40.3806  40.5592  40.7366
    41.1083  44.0283  45.0197  47.0457  47.7748  48.5760  49.8821  51.3243
    52.9286  53.2499  54.8040  56.1908

          k =-0.0951-0.0000 0.0951 (  3564 PWs)   bands (ev):

     8.0987  10.3266  10.3267  10.6923  10.9402  10.9408  10.9547  11.4028
    11.6494  11.6495  11.8039  12.1225  12.4826  12.7245  13.0163  13.1705
    13.1707  13.3114  13.3115  13.4814  13.6964  15.6761  15.6761  19.2937
    22.1024  25.1508  26.7684  26.7684  27.8885  27.8889  30.9763  31.6285
    31.6318  31.7312  33.5952  36.8286  41.5182  41.8701  41.8703  43.0643
    43.4034  43.7609  43.7610  47.1768  47.3176  48.4628  48.4632  51.6617
    52.1664  52.1795  53.1878  55.3364

          k = 0.0476-0.0476 0.0476 (  3596 PWs)   bands (ev):

     6.4967  10.0917  10.0918  10.0918  10.5054  10.5057  10.5057  11.7183
    12.1255  12.1255  12.6823  12.6823  12.6824  13.0751  13.0751  13.3223
    13.3225  13.3225  13.8658  13.8658  13.8659  17.0241  17.0241  17.0241
    25.3180  25.3181  25.3181  26.5833  26.5833  26.5835  31.1630  31.1631
    31.1631  33.4735  36.1563  36.1563  36.1565  39.2449  41.1273  41.1273
    42.7996  42.7996  42.7997  46.5825  47.6372  47.6372  51.6282  51.6282
    55.0974  55.2163  55.2169  55.2169

          k = 0.0476-0.0476 0.0951 (  3551 PWs)   bands (ev):

     7.4780   9.8980  10.4745  10.4747  10.7909  10.8193  10.8194  11.5091
    11.9701  11.9702  12.1634  12.2072  12.2652  12.9200  12.9900  13.0764
    13.0774  13.3149  13.7685  13.7686  13.8009  14.7923  18.3660  18.3660
    22.6993  22.6994  26.6111  27.2347  27.2348  30.3496  30.3497  30.7364
    30.9393  32.6422  36.6354  37.7682  37.8404  38.7806  38.7807  42.3502
    43.4918  44.4591  47.0085  47.0086  47.8702  49.0724  50.1888  50.1889
    50.6838  53.0057  53.0660  55.6412

          k =-0.0951 0.0476 0.0476 (  3551 PWs)   bands (ev):

     7.4780   9.8980  10.4745  10.4747  10.7909  10.8193  10.8194  11.5091
    11.9701  11.9702  12.1634  12.2072  12.2652  12.9200  12.9900  13.0764
    13.0774  13.3149  13.7685  13.7686  13.8009  14.7923  18.3660  18.3660
    22.6993  22.6994  26.6111  27.2347  27.2348  30.3496  30.3498  30.7364
    30.9393  32.6422  36.6354  37.7682  37.8404  38.7807  38.7807  42.3502
    43.4918  44.4591  47.0085  47.0086  47.8702  49.0724  50.1888  50.1889
    50.6838  53.0057  53.0660  55.6413

          k = 0.0476-0.0476-0.1427 (  3546 PWs)   bands (ev):

     8.8437   8.8564  10.8609  10.8616  10.9197  10.9198  11.1528  11.1731
    11.5767  11.5767  12.0572  12.0799  12.5342  12.5419  12.9087  12.9089
    13.4762  13.4922  13.5889  13.5924  13.7126  13.7127  19.5147  19.5147
    21.1382  21.1382  28.1974  28.1994  28.4327  28.4420  28.9182  28.9213
    34.9177  34.9406  35.3842  35.4296  38.0609  38.1084  42.1943  42.1944
    44.7318  44.7574  45.3582  45.3584  49.4517  49.4873  50.8817  50.8941
    52.1722  52.1723  53.6649  53.6694

          k = 0.0951-0.0476 0.0951 (  3561 PWs)   bands (ev):

     8.3166  10.2154  10.2156  10.5015  11.1066  11.1524  11.1526  11.5541
    11.7664  11.7665  11.8995  12.1246  12.2501  12.7278  12.7280  12.7446
    13.0476  13.6021  13.6703  13.6865  13.6875  15.8069  15.8069  18.6180
    20.7958  23.8957  23.8957  27.9302  28.0498  31.1260  31.1260  32.1113
    32.1115  34.0081  35.2325  36.8996  39.3148  39.3149  40.1458  43.0260
    43.7245  44.7741  46.4518  46.4519  49.1795  49.1797  50.4063  50.5840
    50.9125  51.6048  52.2891  52.9150

          k =-0.0951 0.0476 0.0951 (  3561 PWs)   bands (ev):

     8.3166  10.2154  10.2156  10.5015  11.1066  11.1524  11.1526  11.5541
    11.7664  11.7665  11.8995  12.1246  12.2501  12.7278  12.7280  12.7446
    13.0476  13.6021  13.6703  13.6865  13.6875  15.8069  15.8069  18.6180
    20.7958  23.8957  23.8957  27.9302  28.0498  31.1260  31.1261  32.1113
    32.1115  34.0081  35.2325  36.8996  39.3148  39.3149  40.1458  43.0260
    43.7245  44.7741  46.4519  46.4519  49.1794  49.1797  50.4063  50.5840
    50.9125  51.6048  52.2890  52.9150

          k = 0.0951-0.0476-0.1427 (  3562 PWs)   bands (ev):

     9.3957   9.4036  10.4354  10.4378  11.3195  11.3203  11.4601  11.4765
    11.7698  11.7767  11.8869  11.9019  12.3964  12.4020  12.6081  12.6117
    13.3412  13.3476  13.5687  13.5752  14.2627  14.2652  17.1781  17.1906
    21.8066  21.8164  25.6525  25.6594  29.4244  29.4305  33.0293  33.0319
    33.2417  33.2472  36.8692  36.9220  40.1223  40.1339  40.4314  40.4409
    45.1796  45.1839  45.6608  45.6862  47.6861  47.6997  50.5494  50.5706
    51.7730  51.7854  53.8630  53.8871

          k = 0.0951-0.0951 0.0951 (  3554 PWs)   bands (ev):

     8.8604  10.0504  10.0507  10.0507  11.5108  11.5111  11.5111  12.0242
    12.0813  12.0813  12.0868  12.0955  12.0955  12.3741  12.3741  12.3743
    13.4500  13.4500  13.8146  13.8146  13.8147  16.1853  16.1853  16.1854
    21.4030  21.4030  21.4031  25.1426  32.4915  32.4915  32.4917  35.2350
    35.2351  35.2352  37.2647  37.2648  37.2651  37.7846  39.9415  39.9415
    44.4344  44.4344  47.7615  48.0548  48.0548  48.0558  48.1285  48.1287
    48.1287  52.4359  52.4363  52.4363

          k = 0.0951-0.0951-0.1427 (  3562 PWs)   bands (ev):

     9.4853   9.4874   9.9819   9.9821  11.6306  11.6308  11.9109  11.9234
    12.1329  12.1346  12.2511  12.2541  12.2641  12.2766  12.3689  12.3692
    13.7342  13.7355  13.7429  13.7436  14.1538  14.1545  16.4697  16.4697
    20.3740  20.3740  22.9570  22.9642  33.4074  33.4076  34.6181  34.6184
    36.3118  36.3339  37.2310  37.2429  38.9662  39.0038  39.4310  39.4311
    44.6409  44.6411  44.8833  44.9020  46.0035  46.0085  48.5399  48.5399
    49.5902  49.5981  52.9650  52.9658

 ------ SPIN DOWN ----------


          k = 0.0000 0.0000 0.0000 (  3575 PWs)   bands (ev):

     5.3726  10.1729  10.1729  10.1729  10.8818  10.8822  10.8822  12.8226
    12.8226  12.8226  13.9003  13.9003  14.6521  14.6521  14.6521  14.9372
    14.9372  14.9372  14.9374  14.9374  14.9374  16.9875  16.9877  16.9877
    24.1075  24.1075  24.1075  29.5463  29.5464  29.5464  29.5465  29.5465
    29.5466  34.8000  34.8000  34.8002  38.1229  38.1231  38.1231  38.2828
    42.4331  42.4331  42.4331  46.1296  46.1296  46.1296  48.0040  55.3434
    55.3434  55.3434  58.1236  59.5430

          k = 0.0000 0.0000 0.0476 (  3579 PWs)   bands (ev):

     5.7387  10.1484  10.3670  10.3670  11.0013  11.0057  11.0059  12.6807
    12.9290  12.9290  13.7725  13.9487  14.0946  14.0949  14.4851  14.4851
    14.6002  14.7448  14.7448  14.9377  14.9377  15.5358  18.1313  18.1314
    24.1883  24.1883  26.2528  27.8769  27.8771  28.4636  28.4637  30.1230
    30.1230  34.9037  36.8895  36.8896  37.7133  38.2524  40.0555  40.0556
    40.2836  40.2836  40.8377  47.4979  48.0892  48.0892  49.2085  51.5365
    56.4605  56.4605  56.5886  56.5888

          k = 0.0000 0.0000 0.0951 (  3567 PWs)   bands (ev):

     6.7921   9.7115  10.8283  10.8283  11.3342  11.3831  11.3835  12.3027
    12.9479  12.9483  13.2385  13.2385  13.4516  13.6735  14.0731  14.0731
    14.0837  14.2705  14.2705  14.4596  14.9383  14.9383  20.1714  20.1716
    24.4614  24.4615  25.1760  25.1760  26.7662  26.7662  30.4460  31.7360
    31.7361  35.2294  36.6838  37.0910  37.0910  38.2499  38.8094  40.8578
    40.8580  44.1998  44.1999  44.3505  50.8689  50.9419  50.9419  50.9660
    50.9661  54.9191  56.1679  56.1679

          k =-0.0000-0.0000-0.1427 (  3546 PWs)   bands (ev):

     8.3271   8.3430  11.1200  11.1200  11.7945  11.8185  12.0175  12.0179
    12.0403  12.0407  13.1688  13.2031  13.7046  13.7046  13.7221  13.7221
    13.8065  13.8065  14.2637  14.2766  14.9386  14.9386  22.5331  22.5332
    22.5729  22.5730  24.7855  24.7855  25.8796  25.8797  34.1277  34.1277
    34.1550  34.1550  34.8507  34.9099  35.8067  35.8229  40.4020  40.4954
    45.5679  45.5681  45.6498  45.6500  47.6798  47.6799  52.4664  52.4664
    54.0177  54.0177  54.0916  54.0916

          k = 0.0000 0.0476 0.0476 (  3595 PWs)   bands (ev):

     6.0972  10.3593  10.3593  10.5490  11.1051  11.1155  11.1158  12.6071
    12.9793  12.9837  13.6932  13.7250  13.7348  13.7562  13.9496  14.3468
    14.4728  14.4728  14.7436  14.7436  14.8145  16.7117  16.7118  18.9597
    24.1511  25.2206  26.4271  26.4272  28.3684  28.3685  28.9698  28.9702
    30.6589  36.1012  36.1295  37.0877  37.0879  37.3404  40.2223  40.2225
    41.1810  42.6796  43.4903  45.1647  46.4110  49.9328  50.3694  53.2516
    53.6229  55.3000  55.3006  56.2326

          k = 0.0000 0.0476 0.0951 (  3565 PWs)   bands (ev):

     7.1266   9.9620  10.8754  10.9937  11.3883  11.4210  11.4624  12.2950
    12.6717  12.8406  13.0321  13.0771  13.2547  13.5757  13.9975  14.0821
    14.1526  14.2395  14.2688  14.7404  14.7505  15.1401  18.3496  20.7803
    22.2724  24.8281  25.6480  26.6604  27.5173  29.7076  29.9525  30.0208
    31.1037  33.7928  34.5003  37.7115  38.6598  40.3321  40.5067  40.8562
    41.1078  44.1104  45.2242  47.1121  47.6971  48.5583  49.8660  51.2494
    52.8840  53.1591  55.0234  56.4430

          k =-0.0000 0.0476-0.1427 (  3574 PWs)   bands (ev):

     8.6210   8.6361  11.2625  11.2645  11.8349  11.8569  11.8599  11.8786
    12.0352  12.0575  12.8923  12.9190  13.7078  13.7254  13.7872  13.7912
    13.7966  13.7992  14.4954  14.4962  14.7374  14.7412  20.1505  20.1705
    23.0459  23.0812  25.5611  25.5898  28.4125  28.4230  31.5971  31.6075
    32.0664  32.0733  35.8117  35.8777  38.8181  38.8218  42.3244  42.3829
    43.0855  43.1088  45.8428  45.9201  50.1014  50.1677  50.2602  50.2923
    52.5045  52.5307  53.3483  53.3685

          k = 0.0000 0.0951 0.0951 (  3564 PWs)   bands (ev):

     8.0764  10.6000  10.6000  11.3569  11.4393  11.6762  11.6770  12.1973
    12.3431  12.3432  12.5167  12.9142  13.3984  13.4720  13.7704  13.9086
    13.9088  14.2726  14.2728  14.4628  14.5392  16.2816  16.2817  19.6013
    22.3216  25.3492  26.9351  26.9351  27.9897  27.9900  31.1072  31.7166
    31.7205  31.7992  33.6476  36.8643  41.4545  41.8519  41.8521  43.0990
    43.2859  43.8032  43.8033  47.2979  47.3468  48.5076  48.5080  51.7210
    52.0564  52.1210  53.3907  55.2390

          k =-0.0000 0.0951-0.1427 (  3558 PWs)   bands (ev):

     9.4203   9.4332  11.2104  11.2240  11.8415  11.8427  11.9479  11.9693
    12.0634  12.0845  12.5875  12.6044  13.5645  13.5649  13.6363  13.6389
    13.7567  13.7750  14.3097  14.3209  15.1624  15.1658  17.6639  17.6790
    24.4181  24.4440  26.3585  26.3821  28.8011  28.8124  29.6179  29.6216
    33.0085  33.0157  36.7769  36.8415  40.3481  40.3595  42.9799  42.9915
    43.2221  43.2272  46.6367  46.6994  47.9747  48.0137  50.3456  50.3808
    51.8421  51.8970  53.4596  53.4733

          k =-0.0000-0.1427-0.1427 (  3556 PWs)   bands (ev):

    10.4265  10.4379  10.4379  10.4491  12.0318  12.0524  12.0524  12.0727
    12.2870  12.2934  12.2934  12.2997  13.4198  13.4218  13.4218  13.4242
    13.9311  13.9478  13.9478  13.9645  16.1036  16.1098  16.1098  16.1159
    26.3770  26.3943  26.3943  26.4113  27.6802  27.6947  27.6947  27.7097
    37.9394  37.9563  37.9563  37.9745  38.4370  38.4582  38.4582  38.4766
    47.0478  47.0482  47.0483  47.0502  49.1323  49.1679  49.1679  49.2034
    51.9016  51.9064  51.9064  51.9108

          k = 0.0476 0.0476 0.0476 (  3596 PWs)   bands (ev):

     6.4457  10.5471  10.5471  10.5471  11.2064  11.2069  11.2069  12.5523
    13.0041  13.0041  13.3936  13.3936  13.3936  13.8619  13.8619  14.1538
    14.1541  14.1541  14.8147  14.8147  14.8149  17.3651  17.3652  17.3652
    25.4494  25.4495  25.4495  26.7566  26.7566  26.7568  31.1847  31.1849
    31.1849  33.5400  36.2512  36.2512  36.2514  39.0893  41.1798  41.1798
    42.8836  42.8837  42.8837  46.4949  47.5942  47.5942  51.7949  51.7949
    55.1694  55.1700  55.1700  55.4345

          k = 0.0476 0.0476 0.0951 (  3551 PWs)   bands (ev):

     7.4427  10.1607  11.0065  11.0066  11.4478  11.4482  11.5039  12.3053
    12.6730  12.6731  12.8379  13.0366  13.1261  13.7667  13.7999  13.8637
    13.8653  14.1377  14.7026  14.7324  14.7327  15.4230  18.6929  18.6930
    22.9095  22.9096  26.7552  27.3837  27.3838  30.4244  30.4246  30.8504
    31.0267  32.6886  36.7099  37.6740  37.9175  38.8109  38.8109  42.3577
    43.5719  44.4764  47.0526  47.0526  47.9122  49.0180  50.1775  50.1777
    50.6906  52.9350  53.0260  55.7561

          k = 0.0476 0.0476-0.1427 (  3546 PWs)   bands (ev):

     8.8776   8.8915  11.4339  11.4340  11.5009  11.5015  11.9031  11.9252
    12.2911  12.2913  12.8060  12.8313  13.3860  13.3923  13.6729  13.6731
    14.2809  14.2980  14.4515  14.4533  14.6849  14.6850  19.7720  19.7721
    21.4421  21.4422  28.3124  28.3142  28.5748  28.5833  29.0328  29.0363
    34.9872  35.0097  35.3566  35.4035  38.1380  38.1857  42.1755  42.1756
    44.8175  44.8452  45.3472  45.3474  49.3720  49.4077  50.8358  50.8483
    52.2056  52.2057  53.8408  53.8486

          k = 0.0476 0.0951 0.0951 (  3561 PWs)   bands (ev):

     8.3285  10.6084  10.6086  11.1202  11.6141  11.7545  11.7549  12.2812
    12.4869  12.4871  12.6119  12.9258  13.0748  13.5269  13.5279  13.5311
    13.8915  14.4516  14.5992  14.6002  14.6182  16.3604  16.3605  18.8928
    21.1397  24.1127  24.1127  28.0898  28.1798  31.1897  31.1897  32.2038
    32.2040  34.0626  35.2580  36.9247  39.3295  39.3296  40.0693  43.1395
    43.7162  44.7198  46.4457  46.4458  49.2341  49.2343  50.3378  50.5675
    50.8889  51.6773  52.3543  52.8418

          k = 0.0476 0.0951-0.1427 (  3562 PWs)   bands (ev):

     9.5439   9.5543  10.9696  10.9742  11.8735  11.8758  12.1052  12.1239
    12.4633  12.4719  12.6466  12.6634  13.2017  13.2060  13.3834  13.3864
    14.2055  14.2148  14.5046  14.5121  15.0557  15.0591  17.5895  17.6015
    22.1073  22.1161  25.8530  25.8589  29.5242  29.5317  33.0869  33.0878
    33.3099  33.3168  36.8824  36.9346  40.1068  40.1176  40.4535  40.4637
    45.1670  45.1707  45.6518  45.6786  47.6660  47.6815  50.5875  50.6087
    51.7126  51.7245  53.9452  53.9674

          k = 0.0476-0.1427-0.1427 (  3556 PWs)   bands (ev):

    10.3196  10.3260  10.3260  10.3321  12.2724  12.2815  12.2815  12.2905
    12.4909  12.5020  12.5020  12.5131  13.1435  13.1483  13.1483  13.1533
    14.2280  14.2395  14.2395  14.2511  15.9778  15.9846  15.9846  15.9912
    23.6964  23.7027  23.7027  23.7090  31.0436  31.0474  31.0474  31.0514
    38.2202  38.2285  38.2285  38.2509  38.2683  38.2933  38.2933  38.3029
    46.5756  46.5757  46.5760  46.5776  46.7519  46.7729  46.7729  46.7920
    54.8446  54.8588  54.8588  55.0755

          k = 0.0951 0.0951 0.0951 (  3554 PWs)   bands (ev):

     8.9935  10.5604  10.5607  10.5607  12.0701  12.0704  12.0704  12.5478
    12.7653  12.7653  12.7662  12.8930  12.8930  13.1656  13.1656  13.1658
    14.3315  14.3315  14.7427  14.7427  14.7429  16.6119  16.6121  16.6121
    21.7416  21.7416  21.7417  25.3679  32.5379  32.5379  32.5381  35.2963
    35.2966  35.2966  37.2774  37.2774  37.2776  37.6135  40.0275  40.0275
    44.4436  44.4436  47.7764  48.0032  48.0032  48.0042  48.1298  48.1301
    48.1301  52.4671  52.4675  52.4675

          k = 0.0951 0.0951-0.1427 (  3562 PWs)   bands (ev):

     9.8163   9.8212  10.5203  10.5205  12.2626  12.2628  12.5699  12.5823
    12.8157  12.8313  12.9255  12.9268  12.9694  12.9694  13.0332  13.0333
    14.6434  14.6454  14.6718  14.6723  14.8689  14.8717  16.8013  16.8013
    20.8111  20.8112  23.2469  23.2532  33.4153  33.4153  34.7040  34.7043
    36.2024  36.2258  37.3037  37.3148  39.0466  39.0838  39.4055  39.4055
    44.6674  44.6675  44.8603  44.8793  46.0113  46.0173  48.4996  48.4997
    49.6437  49.6514  53.0738  53.0746

          k = 0.0951-0.1427-0.1427 (  3544 PWs)   bands (ev):

    10.1314  10.1329  10.1329  10.1341  12.6068  12.6100  12.6100  12.6130
    12.8393  12.8425  12.8425  12.8460  13.2481  13.2565  13.2565  13.2648
    14.5757  14.5818  14.5818  14.5881  15.4866  15.4941  15.4941  15.5014
    21.4750  21.4802  21.4802  21.4854  35.1164  35.1210  35.1211  35.1259
    38.1709  38.1796  38.1796  38.1888  38.9902  39.0000  39.0000  39.0085
    44.1054  44.1152  44.1152  44.1247  45.1363  45.1391  45.1392  45.1418
    50.4944  50.4981  50.4981  50.5024

          k =-0.1427-0.1427-0.1427 (  3544 PWs)   bands (ev):

    10.0473  10.0477  10.0477  10.0477  12.7280  12.7280  12.7280  12.7282
    12.7282  12.7284  12.7284  12.7284  14.1881  14.1882  14.1882  14.1887
    14.7144  14.7144  14.7146  14.7146  14.7146  14.7148  14.7148  14.7148
    20.6887  20.6887  20.6887  20.6887  36.7593  36.7596  36.7596  36.7596
    39.6368  39.6368  39.6368  39.6369  39.6369  39.6373  39.6373  39.6373
    42.8222  42.8222  42.8223  42.8223  42.8223  42.8225  42.8225  42.8225
    48.8755  48.8755  48.8755  48.8758

          k =-0.0476-0.0000 0.0476 (  3595 PWs)   bands (ev):

     6.0972  10.3593  10.3593  10.5490  11.1051  11.1155  11.1158  12.6071
    12.9793  12.9837  13.6932  13.7250  13.7348  13.7562  13.9496  14.3468
    14.4728  14.4728  14.7436  14.7436  14.8145  16.7117  16.7118  18.9597
    24.1511  25.2205  26.4270  26.4272  28.3684  28.3685  28.9698  28.9702
    30.6589  36.1012  36.1295  37.0877  37.0879  37.3404  40.2222  40.2226
    41.1810  42.6796  43.4903  45.1647  46.4110  49.9328  50.3694  53.2516
    53.6229  55.3000  55.3006  56.2326

          k =-0.0476 0.0000 0.0951 (  3565 PWs)   bands (ev):

     7.1266   9.9620  10.8754  10.9937  11.3883  11.4210  11.4624  12.2950
    12.6717  12.8406  13.0321  13.0771  13.2547  13.5757  13.9975  14.0821
    14.1526  14.2395  14.2688  14.7404  14.7505  15.1401  18.3496  20.7803
    22.2724  24.8281  25.6480  26.6604  27.5173  29.7076  29.9525  30.0208
    31.1037  33.7928  34.5003  37.7115  38.6598  40.3321  40.5067  40.8562
    41.1078  44.1104  45.2242  47.1121  47.6971  48.5583  49.8660  51.2494
    52.8840  53.1591  55.0234  56.4430

          k =-0.0951-0.0000 0.0951 (  3564 PWs)   bands (ev):

     8.0764  10.6000  10.6000  11.3569  11.4393  11.6762  11.6770  12.1973
    12.3431  12.3432  12.5167  12.9142  13.3984  13.4720  13.7704  13.9085
    13.9088  14.2726  14.2728  14.4628  14.5392  16.2816  16.2817  19.6013
    22.3216  25.3492  26.9351  26.9352  27.9897  27.9901  31.1072  31.7166
    31.7205  31.7992  33.6476  36.8643  41.4545  41.8520  41.8521  43.0990
    43.2859  43.8032  43.8033  47.2979  47.3468  48.5076  48.5080  51.7210
    52.0564  52.1210  53.3907  55.2411

          k = 0.0476-0.0476 0.0476 (  3596 PWs)   bands (ev):

     6.4457  10.5471  10.5471  10.5471  11.2064  11.2069  11.2069  12.5523
    13.0041  13.0041  13.3936  13.3936  13.3936  13.8619  13.8619  14.1538
    14.1541  14.1541  14.8147  14.8147  14.8149  17.3651  17.3652  17.3652
    25.4494  25.4495  25.4496  26.7566  26.7566  26.7568  31.1847  31.1849
    31.1849  33.5400  36.2512  36.2512  36.2514  39.0893  41.1798  41.1798
    42.8836  42.8837  42.8837  46.4949  47.5942  47.5942  51.7949  51.7949
    55.1694  55.1700  55.1700  55.4345

          k = 0.0476-0.0476 0.0951 (  3551 PWs)   bands (ev):

     7.4427  10.1607  11.0065  11.0066  11.4478  11.4482  11.5039  12.3053
    12.6730  12.6731  12.8379  13.0366  13.1261  13.7667  13.7999  13.8637
    13.8653  14.1377  14.7026  14.7324  14.7327  15.4230  18.6929  18.6930
    22.9095  22.9096  26.7552  27.3837  27.3838  30.4244  30.4246  30.8504
    31.0267  32.6886  36.7099  37.6740  37.9175  38.8109  38.8109  42.3577
    43.5719  44.4764  47.0526  47.0527  47.9122  49.0180  50.1775  50.1777
    50.6906  52.9350  53.0260  55.7561

          k =-0.0951 0.0476 0.0476 (  3551 PWs)   bands (ev):

     7.4427  10.1607  11.0065  11.0066  11.4478  11.4482  11.5039  12.3053
    12.6730  12.6731  12.8379  13.0366  13.1261  13.7667  13.7999  13.8637
    13.8653  14.1377  14.7026  14.7324  14.7327  15.4230  18.6929  18.6930
    22.9095  22.9096  26.7552  27.3837  27.3838  30.4244  30.4246  30.8504
    31.0267  32.6886  36.7099  37.6740  37.9175  38.8109  38.8109  42.3577
    43.5719  44.4764  47.0526  47.0526  47.9122  49.0180  50.1775  50.1777
    50.6906  52.9350  53.0260  55.7561

          k = 0.0476-0.0476-0.1427 (  3546 PWs)   bands (ev):

     8.8776   8.8915  11.4340  11.4340  11.5009  11.5015  11.9031  11.9252
    12.2911  12.2913  12.8060  12.8313  13.3860  13.3923  13.6728  13.6731
    14.2809  14.2980  14.4515  14.4533  14.6849  14.6850  19.7720  19.7720
    21.4422  21.4422  28.3124  28.3142  28.5748  28.5833  29.0329  29.0362
    34.9872  35.0097  35.3566  35.4035  38.1380  38.1857  42.1755  42.1756
    44.8175  44.8452  45.3472  45.3474  49.3720  49.4077  50.8358  50.8483
    52.2055  52.2057  53.8410  53.8486

          k = 0.0951-0.0476 0.0951 (  3561 PWs)   bands (ev):

     8.3285  10.6084  10.6086  11.1202  11.6141  11.7545  11.7549  12.2812
    12.4869  12.4871  12.6119  12.9258  13.0748  13.5269  13.5279  13.5311
    13.8915  14.4516  14.5992  14.6002  14.6182  16.3604  16.3605  18.8928
    21.1397  24.1127  24.1127  28.0898  28.1798  31.1897  31.1897  32.2038
    32.2040  34.0626  35.2580  36.9247  39.3295  39.3296  40.0693  43.1395
    43.7162  44.7198  46.4457  46.4458  49.2341  49.2343  50.3378  50.5675
    50.8889  51.6773  52.3543  52.8420

          k =-0.0951 0.0476 0.0951 (  3561 PWs)   bands (ev):

     8.3285  10.6084  10.6086  11.1202  11.6141  11.7545  11.7549  12.2812
    12.4869  12.4871  12.6119  12.9257  13.0748  13.5269  13.5279  13.5311
    13.8915  14.4516  14.5992  14.6002  14.6182  16.3604  16.3605  18.8928
    21.1397  24.1127  24.1127  28.0897  28.1798  31.1896  31.1898  32.2038
    32.2040  34.0626  35.2580  36.9247  39.3295  39.3296  40.0693  43.1395
    43.7162  44.7198  46.4458  46.4458  49.2340  49.2343  50.3378  50.5675
    50.8889  51.6773  52.3543  52.8420

          k = 0.0951-0.0476-0.1427 (  3562 PWs)   bands (ev):

     9.5439   9.5543  10.9696  10.9742  11.8735  11.8758  12.1052  12.1239
    12.4633  12.4719  12.6466  12.6634  13.2017  13.2060  13.3834  13.3864
    14.2055  14.2148  14.5046  14.5121  15.0557  15.0591  17.5895  17.6015
    22.1073  22.1161  25.8530  25.8589  29.5242  29.5317  33.0869  33.0878
    33.3099  33.3168  36.8824  36.9346  40.1068  40.1176  40.4535  40.4637
    45.1670  45.1707  45.6518  45.6786  47.6660  47.6815  50.5875  50.6087
    51.7126  51.7245  53.9452  53.9674

          k = 0.0951-0.0951 0.0951 (  3554 PWs)   bands (ev):

     8.9935  10.5604  10.5607  10.5607  12.0701  12.0704  12.0704  12.5478
    12.7653  12.7653  12.7662  12.8930  12.8930  13.1655  13.1656  13.1658
    14.3315  14.3315  14.7427  14.7427  14.7429  16.6119  16.6120  16.6121
    21.7416  21.7417  21.7417  25.3679  32.5379  32.5379  32.5381  35.2964
    35.2965  35.2966  37.2773  37.2774  37.2777  37.6135  40.0275  40.0275
    44.4436  44.4436  47.7764  48.0031  48.0032  48.0043  48.1299  48.1300
    48.1301  52.4671  52.4674  52.4675

          k = 0.0951-0.0951-0.1427 (  3562 PWs)   bands (ev):

     9.8163   9.8212  10.5203  10.5205  12.2626  12.2628  12.5699  12.5823
    12.8157  12.8313  12.9255  12.9268  12.9694  12.9694  13.0332  13.0333
    14.6434  14.6454  14.6718  14.6723  14.8689  14.8717  16.8013  16.8013
    20.8112  20.8112  23.2469  23.2532  33.4152  33.4153  34.7041  34.7043
    36.2024  36.2258  37.3038  37.3148  39.0466  39.0838  39.4054  39.4056
    44.6674  44.6675  44.8603  44.8793  46.0113  46.0173  48.4996  48.4997
    49.6437  49.6514  53.0737  53.0746

     the Fermi energy is    14.4876 ev

!    total energy              =    -343.63023854 Ry
     Harris-Foulkes estimate   =    -343.63023854 Ry
     estimated scf accuracy    <          1.9E-09 Ry

     The total energy is the sum of the following terms:

     one-electron contribution =      -6.42500203 Ry
     hartree contribution      =      60.36287944 Ry
     xc contribution           =    -120.51354736 Ry
     ewald contribution        =    -277.00616788 Ry
     Dispersion Correction     =      -0.04782724 Ry
     smearing contrib. (-TS)   =      -0.00057348 Ry

     total magnetization       =     2.84 Bohr mag/cell
     absolute magnetization    =     3.25 Bohr mag/cell

     convergence has been achieved in  11 iterations

     Forces acting on atoms (Ry/au):

     atom    1 type  1   force =    -0.00170947   -0.00170947    0.00170982
     atom    2 type  1   force =     0.00170912    0.00170912    0.00170912
     atom    3 type  1   force =    -0.00170947    0.00170982   -0.00170947
     atom    4 type  1   force =     0.00170982   -0.00170947   -0.00170947

     Total force =     0.005922     Total SCF correction =     0.000029


     entering subroutine stress ...

          total   stress  (Ry/bohr**3)                   (kbar)     P=   -0.42
  -0.00000284   0.00000001   0.00000001         -0.42      0.00      0.00
   0.00000001  -0.00000284   0.00000001          0.00     -0.42      0.00
   0.00000001   0.00000001  -0.00000284          0.00      0.00     -0.42


     number of scf cycles    =   2
     number of bfgs steps    =   1

     enthalpy old            =    -343.6296550699 Ry
     enthalpy new            =    -343.6302385424 Ry

     CASE: enthalpy_new < enthalpy_old

     new trust radius        =       0.0032201796 bohr
     new conv_thr            =       0.0000000002 Ry

     new unit-cell volume =    289.96869 a.u.^3 (    42.96893 Ang^3 )

CELL_PARAMETERS (alat=  1.88972590)
   3.502554365   0.000000899   0.000000899
   0.000000899   3.502554365   0.000000899
   0.000000899   0.000000899   3.502554365

ATOMIC_POSITIONS (alat)
Ni1      1.756857994   1.756857994   0.002196488
Ni1      0.002194149   0.002194149   0.002194149
Ni1      1.756857994   0.002196488   1.756857994
Ni1      0.002196488   1.756857994   1.756857994



     Writing output data file Ni-ferromag.save
     NEW-OLD atomic charge density approx. for the potential

     Check: negative/imaginary core charge=   -0.000005    0.000000
     extrapolated charge   39.97030, renormalised to   40.00000

     total cpu time spent up to now is     1555.1 secs

     Self-consistent Calculation

     iteration #  1     ecut=    80.00 Ry     beta=0.20
     Davidson diagonalization with overlap
     ethr =  1.00E-06,  avg # of iterations =  2.7

     total cpu time spent up to now is     1637.2 secs

     total energy              =    -343.63014681 Ry
     Harris-Foulkes estimate   =    -343.66160029 Ry
     estimated scf accuracy    <       0.00028731 Ry

     total magnetization       =     2.82 Bohr mag/cell
     absolute magnetization    =     3.24 Bohr mag/cell

     iteration #  2     ecut=    80.00 Ry     beta=0.20
     Davidson diagonalization with overlap
     ethr =  7.18E-07,  avg # of iterations =  2.0

     total cpu time spent up to now is     1691.3 secs

     total energy              =    -343.63032845 Ry
     Harris-Foulkes estimate   =    -343.63035019 Ry
     estimated scf accuracy    <       0.00011378 Ry

     total magnetization       =     2.84 Bohr mag/cell
     absolute magnetization    =     3.26 Bohr mag/cell

     iteration #  3     ecut=    80.00 Ry     beta=0.20
     Davidson diagonalization with overlap
     ethr =  2.84E-07,  avg # of iterations =  1.0

     total cpu time spent up to now is     1743.8 secs

     total energy              =    -343.63030312 Ry
     Harris-Foulkes estimate   =    -343.63033214 Ry
     estimated scf accuracy    <       0.00003963 Ry

     total magnetization       =     2.84 Bohr mag/cell
     absolute magnetization    =     3.25 Bohr mag/cell

     iteration #  4     ecut=    80.00 Ry     beta=0.20
     Davidson diagonalization with overlap
     ethr =  9.91E-08,  avg # of iterations =  2.0

     total cpu time spent up to now is     1799.9 secs

     total energy              =    -343.63032753 Ry
     Harris-Foulkes estimate   =    -343.63033879 Ry
     estimated scf accuracy    <       0.00006552 Ry

     total magnetization       =     2.83 Bohr mag/cell
     absolute magnetization    =     3.25 Bohr mag/cell

     iteration #  5     ecut=    80.00 Ry     beta=0.20
     Davidson diagonalization with overlap
     ethr =  9.91E-08,  avg # of iterations =  1.0

     total cpu time spent up to now is     1852.3 secs

     total energy              =    -343.63032523 Ry
     Harris-Foulkes estimate   =    -343.63032911 Ry
     estimated scf accuracy    <       0.00002640 Ry

     total magnetization       =     2.83 Bohr mag/cell
     absolute magnetization    =     3.25 Bohr mag/cell

     iteration #  6     ecut=    80.00 Ry     beta=0.20
     Davidson diagonalization with overlap
     ethr =  6.60E-08,  avg # of iterations =  1.0

     total cpu time spent up to now is     1904.7 secs

     total energy              =    -343.63032036 Ry
     Harris-Foulkes estimate   =    -343.63032568 Ry
     estimated scf accuracy    <       0.00001247 Ry

     total magnetization       =     2.83 Bohr mag/cell
     absolute magnetization    =     3.25 Bohr mag/cell

     iteration #  7     ecut=    80.00 Ry     beta=0.20
     Davidson diagonalization with overlap
     ethr =  3.12E-08,  avg # of iterations =  1.0

     total cpu time spent up to now is     1957.1 secs

     total energy              =    -343.63032263 Ry
     Harris-Foulkes estimate   =    -343.63032261 Ry
     estimated scf accuracy    <          6.0E-09 Ry

     total magnetization       =     2.84 Bohr mag/cell
     absolute magnetization    =     3.25 Bohr mag/cell

     iteration #  8     ecut=    80.00 Ry     beta=0.20
     Davidson diagonalization with overlap
     ethr =  1.50E-11,  avg # of iterations =  2.2

     total cpu time spent up to now is     2022.2 secs

     total energy              =    -343.63032274 Ry
     Harris-Foulkes estimate   =    -343.63032275 Ry
     estimated scf accuracy    <       0.00000054 Ry

     total magnetization       =     2.84 Bohr mag/cell
     absolute magnetization    =     3.25 Bohr mag/cell

     iteration #  9     ecut=    80.00 Ry     beta=0.20
     Davidson diagonalization with overlap
     ethr =  1.50E-11,  avg # of iterations =  1.0

     total cpu time spent up to now is     2074.7 secs

     total energy              =    -343.63032283 Ry
     Harris-Foulkes estimate   =    -343.63032274 Ry
     estimated scf accuracy    <       0.00000050 Ry

     total magnetization       =     2.84 Bohr mag/cell
     absolute magnetization    =     3.25 Bohr mag/cell

     iteration # 10     ecut=    80.00 Ry     beta=0.20
     Davidson diagonalization with overlap
     ethr =  1.50E-11,  avg # of iterations =  2.0

     total cpu time spent up to now is     2135.5 secs

     total energy              =    -343.63032246 Ry
     Harris-Foulkes estimate   =    -343.63032284 Ry
     estimated scf accuracy    <       0.00000090 Ry

     total magnetization       =     2.84 Bohr mag/cell
     absolute magnetization    =     3.25 Bohr mag/cell

     iteration # 11     ecut=    80.00 Ry     beta=0.20
     Davidson diagonalization with overlap
     ethr =  1.50E-11,  avg # of iterations =  2.9

     Magnetic moment per site:
     atom:    1    charge:    3.0039    magn:    0.3347    constr:    0.0000
     atom:    2    charge:    3.0021    magn:    0.3345    constr:    0.0000
     atom:    3    charge:    3.0039    magn:    0.3347    constr:    0.0000
     atom:    4    charge:    3.0039    magn:    0.3347    constr:    0.0000

     total cpu time spent up to now is     2202.6 secs

     End of self-consistent calculation

 ------ SPIN UP ------------


          k = 0.0000 0.0000 0.0000 (  3575 PWs)   bands (ev):

     5.4364   9.7205   9.7205   9.7205  10.1739  10.1740  10.1740  11.9543
    11.9543  11.9543  13.1338  13.1338  13.8522  13.8522  13.8522  13.9422
    13.9422  13.9422  13.9423  13.9423  13.9423  17.0811  17.0811  17.0811
    23.8229  23.8229  23.8229  29.5814  29.5814  29.5814  29.5815  29.5815
    29.5815  34.6602  34.6602  34.6603  38.0085  38.0087  38.0087  38.5089
    42.4888  42.4888  42.4888  46.0879  46.0880  46.0880  48.1908  55.1914
    55.1914  55.1914  57.6193  59.0406

          k =-0.0000-0.0000 0.0476 (  3579 PWs)   bands (ev):

     5.8027   9.7427   9.9048   9.9048  10.2845  10.3004  10.3005  11.8255
    12.0567  12.0567  13.0157  13.1804  13.2878  13.2879  13.6985  13.6985
    13.7663  13.7663  13.8026  13.9425  13.9425  15.4800  18.0403  18.0403
    23.9187  23.9188  26.0724  27.8292  27.8293  28.4579  28.4579  30.1420
    30.1420  34.7763  36.8334  36.8335  37.8735  38.1405  39.9657  39.9658
    40.2673  40.2673  40.9324  47.5079  48.1446  48.1447  49.1699  51.5765
    56.2879  56.2879  56.6931  56.6931

          k =-0.0000-0.0000 0.0952 (  3567 PWs)   bands (ev):

     6.8524   9.5137  10.3420  10.3420  10.5924  10.6838  10.6839  11.4812
    12.2310  12.2312  12.3535  12.3535  12.7278  13.3093  13.3153  13.3170
    13.3170  13.3300  13.3300  13.6684  13.9431  13.9431  20.0036  20.0036
    24.2357  24.2358  25.0551  25.0551  26.6899  26.6899  30.3726  31.7218
    31.7218  35.1394  36.7411  37.0453  37.0453  38.3633  38.6930  40.8785
    40.8786  44.1313  44.1313  44.1657  50.9441  51.0654  51.0654  51.0689
    51.0689  55.0548  55.9563  55.9563

          k = 0.0000 0.0000-0.1428 (  3546 PWs)   bands (ev):

     8.3472   8.3569  10.6183  10.6183  11.0204  11.0346  11.3240  11.3240
    11.3381  11.3381  12.5407  12.5606  12.8005  12.8005  12.8111  12.8111
    13.0715  13.0715  13.4835  13.4913  13.9433  13.9433  22.3777  22.3777
    22.4023  22.4023  24.6083  24.6083  25.7450  25.7450  34.0918  34.0919
    34.1091  34.1092  34.9043  34.9407  35.7825  35.7911  40.2589  40.3171
    45.6556  45.6556  45.7063  45.7063  47.6380  47.6381  52.3092  52.3093
    54.1707  54.1707  54.2175  54.2175

          k =-0.0000 0.0476 0.0476 (  3595 PWs)   bands (ev):

     6.1604   9.9412   9.9412  10.0681  10.4020  10.4021  10.4159  11.7655
    12.1018  12.1188  12.9414  12.9869  12.9998  13.0041  13.1759  13.5699
    13.6945  13.6945  13.7649  13.7649  13.8265  16.4127  16.4127  18.8104
    23.9125  25.1119  26.2596  26.2596  28.3070  28.3070  28.9506  28.9507
    30.6699  36.0502  36.1331  37.0419  37.0420  37.3480  40.1340  40.1340
    41.2867  42.6218  43.5482  45.2485  46.3811  49.8091  50.4730  53.1150
    53.6870  55.3690  55.3692  56.3230

          k =-0.0000 0.0476 0.0952 (  3565 PWs)   bands (ev):

     7.1823   9.7499  10.4235  10.4720  10.6839  10.7372  10.7563  11.4843
    11.9924  12.1320  12.2477  12.3652  12.3908  12.8242  13.2459  13.3217
    13.3338  13.3552  13.5075  13.7614  13.7679  14.4455  18.0277  20.5939
    22.0924  24.6216  25.5165  26.5456  27.4153  29.6210  29.9141  29.9708
    31.0300  33.7381  34.4818  37.6943  38.6477  40.4054  40.5840  40.7663
    41.1344  44.0585  45.0532  47.0770  47.8026  48.6058  49.9118  51.3536
    52.9589  53.2794  54.8373  56.2190

          k = 0.0000 0.0476-0.1428 (  3574 PWs)   bands (ev):

     8.6290   8.6381  10.7706  10.7712  11.0723  11.0860  11.1930  11.2046
    11.3387  11.3524  12.1696  12.1842  12.8012  12.8121  13.0336  13.0385
    13.0563  13.0569  13.6711  13.6712  13.7581  13.7603  19.8905  19.9030
    22.8783  22.9004  25.4165  25.4334  28.3203  28.3260  31.5074  31.5148
    32.0322  32.0373  35.8228  35.8646  38.8419  38.8451  42.2142  42.2501
    43.1248  43.1382  45.9331  45.9810  50.0808  50.1235  50.3629  50.3830
    52.6233  52.6393  53.2155  53.2284

          k =-0.0000 0.0952 0.0952 (  3564 PWs)   bands (ev):

     8.1090  10.3376  10.3377  10.7036  10.9520  10.9523  10.9660  11.4145
    11.6616  11.6616  11.8163  12.1350  12.4960  12.7379  13.0298  13.1847
    13.1848  13.3253  13.3254  13.4955  13.7108  15.6920  15.6920  19.3111
    22.1210  25.1722  26.7895  26.7896  27.9097  27.9098  30.9988  31.6539
    31.6553  31.7521  33.6192  36.8534  41.5433  41.8963  41.8964  43.0927
    43.4283  43.7899  43.7899  47.2097  47.3479  48.4938  48.4940  51.6939
    52.1962  52.2093  53.2200  55.3677

          k = 0.0000 0.0952-0.1428 (  3558 PWs)   bands (ev):

     9.3726   9.3800  10.8043  10.8131  11.1987  11.2083  11.2162  11.2184
    11.3579  11.3707  11.8660  11.8756  12.8381  12.8431  12.8437  12.8491
    12.9101  12.9119  13.3570  13.3636  14.3718  14.3736  17.2190  17.2287
    24.2373  24.2541  26.2333  26.2470  28.6620  28.6700  29.5510  29.5527
    32.9623  32.9660  36.7861  36.8269  40.3770  40.3851  43.0621  43.0700
    43.2326  43.2363  46.7381  46.7771  47.9321  47.9557  50.4350  50.4567
    51.7651  51.7999  53.5774  53.5866

          k = 0.0000-0.1428-0.1428 (  3556 PWs)   bands (ev):

    10.2232  10.2296  10.2296  10.2359  11.3139  11.3260  11.3260  11.3382
    11.6319  11.6354  11.6355  11.6389  12.6959  12.6971  12.6971  12.6984
    13.0017  13.0118  13.0118  13.0218  15.4389  15.4434  15.4435  15.4481
    26.2088  26.2204  26.2204  26.2319  27.5842  27.5925  27.5925  27.6010
    37.8981  37.9093  37.9094  37.9209  38.5019  38.5157  38.5158  38.5286
    47.1954  47.1954  47.1956  47.1959  49.1866  49.2086  49.2086  49.2305
    51.8384  51.8403  51.8403  51.8421

          k = 0.0476 0.0476 0.0476 (  3596 PWs)   bands (ev):

     6.5063  10.1022  10.1022  10.1022  10.5165  10.5167  10.5167  11.7306
    12.1384  12.1384  12.6956  12.6956  12.6957  13.0889  13.0889  13.3363
    13.3364  13.3364  13.8806  13.8806  13.8806  17.0401  17.0402  17.0402
    25.3379  25.3380  25.3380  26.6051  26.6051  26.6052  31.1853  31.1854
    31.1854  33.4967  36.1816  36.1816  36.1816  39.2668  41.1549  41.1549
    42.8291  42.8292  42.8292  46.6098  47.6656  47.6656  51.6650  51.6650
    55.1245  55.2477  55.2479  55.2479

          k = 0.0476 0.0476 0.0952 (  3551 PWs)   bands (ev):

     7.4880   9.9086  10.4855  10.4855  10.8023  10.8306  10.8306  11.5210
    11.9828  11.9828  12.1774  12.2187  12.2780  12.9338  13.0042  13.0902
    13.0906  13.3288  13.7832  13.7832  13.8156  14.8075  18.3829  18.3829
    22.7187  22.7187  26.6321  27.2563  27.2563  30.3723  30.3723  30.7590
    30.9616  32.6655  36.6608  37.7905  37.8667  38.8063  38.8064  42.3776
    43.5215  44.4876  47.0393  47.0393  47.9015  49.1011  50.2188  50.2188
    50.7147  53.0354  53.0969  55.6795

          k = 0.0476 0.0476-0.1428 (  3546 PWs)   bands (ev):

     8.8566   8.8646  10.8728  10.8731  10.9309  10.9310  11.1681  11.1810
    11.5887  11.5887  12.0739  12.0883  12.5489  12.5538  12.9224  12.9225
    13.4933  13.5035  13.6039  13.6061  13.7272  13.7272  19.5318  19.5318
    21.1574  21.1574  28.2193  28.2202  28.4567  28.4621  28.9414  28.9427
    34.9466  34.9611  35.4149  35.4436  38.0963  38.1263  42.2209  42.2209
    44.7670  44.7832  45.3867  45.3868  49.4869  49.5095  50.9139  50.9217
    52.2055  52.2055  53.6979  53.6998

          k = 0.0476 0.0952 0.0952 (  3561 PWs)   bands (ev):

     8.3270  10.2264  10.2265  10.5126  11.1181  11.1641  11.1642  11.5661
    11.7787  11.7788  11.9120  12.1370  12.2629  12.7414  12.7415  12.7580
    13.0612  13.6164  13.6854  13.7010  13.7014  15.8227  15.8227  18.6346
    20.8151  23.9158  23.9158  27.9549  28.0684  31.1478  31.1478  32.1354
    32.1355  34.0322  35.2562  36.9242  39.3406  39.3407  40.1698  43.0561
    43.7521  44.8013  46.4810  46.4810  49.2111  49.2112  50.4361  50.6143
    50.9437  51.6386  52.3206  52.9451

          k = 0.0476 0.0952-0.1428 (  3562 PWs)   bands (ev):

     9.4079   9.4128  10.4470  10.4485  11.3314  11.3319  11.4750  11.4854
    11.7834  11.7878  11.9018  11.9113  12.4105  12.4141  12.6221  12.6243
    13.3564  13.3605  13.5842  13.5884  14.2781  14.2797  17.1967  17.2046
    21.8279  21.8341  25.6747  25.6791  29.4473  29.4512  33.0530  33.0546
    33.2664  33.2699  36.9035  36.9369  40.1500  40.1573  40.4598  40.4657
    45.2087  45.2114  45.6941  45.7102  47.7181  47.7268  50.5853  50.5987
    51.8056  51.8134  53.9053  53.9213

          k = 0.0476-0.1428-0.1428 (  3556 PWs)   bands (ev):

     9.9777   9.9798   9.9798   9.9817  11.7197  11.7230  11.7230  11.7263
    11.8035  11.8106  11.8106  11.8178  12.3803  12.3837  12.3837  12.3872
    13.3347  13.3411  13.3411  13.3474  15.3492  15.3542  15.3542  15.3593
    23.4604  23.4652  23.4652  23.4699  30.9857  30.9872  30.9872  30.9888
    38.1801  38.1893  38.1893  38.2001  38.3472  38.3599  38.3599  38.3706
    46.6721  46.6722  46.6722  46.6737  46.7644  46.7769  46.7770  46.7881
    54.8232  54.8313  54.8313  55.0940

          k = 0.0952 0.0952 0.0952 (  3554 PWs)   bands (ev):

     8.8708  10.0613  10.0614  10.0614  11.5228  11.5229  11.5229  12.0371
    12.0960  12.0960  12.0987  12.1060  12.1060  12.3871  12.3871  12.3872
    13.4642  13.4642  13.8293  13.8293  13.8293  16.2008  16.2009  16.2009
    21.4226  21.4226  21.4226  25.1634  32.5142  32.5142  32.5142  35.2599
    35.2600  35.2600  37.2896  37.2896  37.2896  37.8053  39.9692  39.9692
    44.4628  44.4628  47.7923  48.0838  48.0838  48.0842  48.1586  48.1587
    48.1587  52.4697  52.4699  52.4699

          k = 0.0952 0.0952-0.1428 (  3562 PWs)   bands (ev):

     9.4962   9.4975   9.9927   9.9928  11.6428  11.6429  11.9257  11.9335
    12.1459  12.1471  12.2657  12.2670  12.2781  12.2862  12.3816  12.3817
    13.7492  13.7500  13.7576  13.7579  14.1685  14.1689  16.4849  16.4850
    20.3936  20.3937  22.9784  22.9830  33.4295  33.4295  34.6435  34.6436
    36.3371  36.3510  37.2593  37.2668  39.0005  39.0243  39.4561  39.4561
    44.6700  44.6701  44.9146  44.9265  46.0336  46.0368  48.5693  48.5693
    49.6237  49.6287  52.9984  52.9988

          k = 0.0952-0.1428-0.1428 (  3544 PWs)   bands (ev):

     9.6723   9.6724   9.6724   9.6724  11.8870  11.8891  11.8891  11.8911
    12.0768  12.0789  12.0790  12.0812  12.8243  12.8288  12.8288  12.8333
    13.6742  13.6777  13.6777  13.6812  14.9713  14.9771  14.9771  14.9828
    21.1033  21.1072  21.1072  21.1111  35.1677  35.1696  35.1696  35.1716
    38.2290  38.2352  38.2352  38.2415  38.9513  38.9577  38.9577  38.9635
    44.1064  44.1119  44.1119  44.1173  45.1736  45.1750  45.1751  45.1764
    50.4382  50.4405  50.4405  50.4431

          k =-0.1428-0.1428-0.1428 (  3544 PWs)   bands (ev):

     9.5562   9.5564   9.5564   9.5564  11.9673  11.9673  11.9673  11.9673
    11.9673  11.9674  11.9674  11.9674  13.8050  13.8050  13.8050  13.8052
    13.8052  13.8053  13.8053  13.8053  14.3009  14.3010  14.3011  14.3011
    20.2260  20.2260  20.2260  20.2261  36.9637  36.9639  36.9639  36.9639
    39.5943  39.5943  39.5943  39.5943  39.5943  39.5945  39.5945  39.5945
    42.8200  42.8200  42.8201  42.8201  42.8201  42.8201  42.8202  42.8202
    48.7944  48.7944  48.7944  48.7945

          k =-0.0476 0.0000 0.0476 (  3595 PWs)   bands (ev):

     6.1604   9.9412   9.9412  10.0681  10.4020  10.4021  10.4159  11.7655
    12.1018  12.1188  12.9414  12.9869  12.9998  13.0041  13.1759  13.5699
    13.6945  13.6945  13.7649  13.7649  13.8265  16.4127  16.4127  18.8104
    23.9125  25.1119  26.2595  26.2596  28.3070  28.3070  28.9506  28.9507
    30.6699  36.0502  36.1331  37.0419  37.0420  37.3480  40.1339  40.1341
    41.2867  42.6218  43.5481  45.2485  46.3810  49.8091  50.4730  53.1151
    53.6870  55.3690  55.3692  56.3230

          k =-0.0476-0.0000 0.0952 (  3565 PWs)   bands (ev):

     7.1823   9.7499  10.4235  10.4720  10.6839  10.7372  10.7563  11.4843
    11.9924  12.1320  12.2477  12.3652  12.3908  12.8242  13.2459  13.3217
    13.3338  13.3552  13.5075  13.7614  13.7679  14.4455  18.0277  20.5939
    22.0924  24.6216  25.5165  26.5456  27.4153  29.6210  29.9141  29.9708
    31.0300  33.7381  34.4818  37.6943  38.6477  40.4054  40.5840  40.7663
    41.1344  44.0585  45.0532  47.0771  47.8026  48.6058  49.9118  51.3536
    52.9589  53.2795  54.8372  56.2190

          k =-0.0952 0.0000 0.0952 (  3564 PWs)   bands (ev):

     8.1091  10.3376  10.3376  10.7036  10.9520  10.9523  10.9660  11.4145
    11.6616  11.6616  11.8163  12.1350  12.4960  12.7379  13.0298  13.1847
    13.1848  13.3253  13.3254  13.4955  13.7108  15.6920  15.6920  19.3112
    22.1210  25.1722  26.7895  26.7896  27.9097  27.9099  30.9988  31.6539
    31.6552  31.7522  33.6191  36.8533  41.5433  41.8963  41.8964  43.0927
    43.4283  43.7899  43.7900  47.2096  47.3478  48.4939  48.4940  51.6939
    52.1962  52.2093  53.2199  55.3686

          k = 0.0476-0.0476 0.0476 (  3596 PWs)   bands (ev):

     6.5063  10.1022  10.1022  10.1022  10.5165  10.5167  10.5167  11.7306
    12.1384  12.1384  12.6956  12.6956  12.6957  13.0889  13.0889  13.3363
    13.3364  13.3364  13.8806  13.8806  13.8806  17.0402  17.0402  17.0402
    25.3380  25.3380  25.3380  26.6051  26.6051  26.6052  31.1853  31.1854
    31.1854  33.4967  36.1815  36.1816  36.1816  39.2668  41.1549  41.1549
    42.8291  42.8292  42.8292  46.6098  47.6656  47.6656  51.6649  51.6650
    55.1245  55.2477  55.2479  55.2479

          k = 0.0476-0.0476 0.0952 (  3551 PWs)   bands (ev):

     7.4880   9.9086  10.4855  10.4855  10.8023  10.8306  10.8306  11.5210
    11.9828  11.9828  12.1774  12.2187  12.2781  12.9338  13.0042  13.0902
    13.0906  13.3288  13.7832  13.7832  13.8156  14.8075  18.3829  18.3829
    22.7187  22.7187  26.6322  27.2563  27.2563  30.3723  30.3723  30.7590
    30.9616  32.6655  36.6608  37.7905  37.8667  38.8063  38.8064  42.3776
    43.5215  44.4876  47.0393  47.0393  47.9015  49.1011  50.2188  50.2189
    50.7147  53.0355  53.0969  55.6795

          k =-0.0952 0.0476 0.0476 (  3551 PWs)   bands (ev):

     7.4880   9.9086  10.4855  10.4855  10.8023  10.8306  10.8306  11.5210
    11.9828  11.9828  12.1774  12.2187  12.2781  12.9338  13.0042  13.0902
    13.0906  13.3288  13.7832  13.7832  13.8156  14.8075  18.3829  18.3829
    22.7187  22.7187  26.6321  27.2563  27.2563  30.3723  30.3723  30.7590
    30.9616  32.6655  36.6608  37.7905  37.8667  38.8063  38.8063  42.3775
    43.5215  44.4876  47.0393  47.0393  47.9014  49.1011  50.2188  50.2189
    50.7147  53.0355  53.0969  55.6795

          k = 0.0476-0.0476-0.1428 (  3546 PWs)   bands (ev):

     8.8566   8.8646  10.8728  10.8731  10.9309  10.9309  11.1681  11.1810
    11.5887  11.5887  12.0739  12.0883  12.5489  12.5538  12.9224  12.9225
    13.4933  13.5035  13.6039  13.6061  13.7272  13.7272  19.5318  19.5318
    21.1574  21.1574  28.2194  28.2201  28.4567  28.4621  28.9414  28.9427
    34.9466  34.9611  35.4149  35.4436  38.0963  38.1263  42.2209  42.2209
    44.7670  44.7833  45.3867  45.3868  49.4869  49.5095  50.9139  50.9217
    52.2055  52.2056  53.6980  53.6998

          k = 0.0952-0.0476 0.0952 (  3561 PWs)   bands (ev):

     8.3270  10.2264  10.2265  10.5126  11.1181  11.1641  11.1642  11.5661
    11.7787  11.7788  11.9120  12.1370  12.2629  12.7414  12.7415  12.7580
    13.0612  13.6164  13.6854  13.7010  13.7014  15.8227  15.8227  18.6346
    20.8151  23.9158  23.9158  27.9550  28.0685  31.1478  31.1478  32.1354
    32.1355  34.0322  35.2562  36.9242  39.3406  39.3406  40.1698  43.0561
    43.7521  44.8013  46.4810  46.4810  49.2112  49.2112  50.4361  50.6143
    50.9437  51.6386  52.3206  52.9452

          k =-0.0952 0.0476 0.0952 (  3561 PWs)   bands (ev):

     8.3270  10.2264  10.2265  10.5126  11.1181  11.1641  11.1642  11.5661
    11.7787  11.7788  11.9120  12.1371  12.2629  12.7414  12.7415  12.7580
    13.0612  13.6164  13.6854  13.7010  13.7014  15.8227  15.8227  18.6346
    20.8151  23.9158  23.9158  27.9550  28.0685  31.1478  31.1479  32.1355
    32.1355  34.0322  35.2562  36.9242  39.3406  39.3407  40.1698  43.0561
    43.7521  44.8013  46.4810  46.4811  49.2111  49.2113  50.4361  50.6143
    50.9437  51.6385  52.3207  52.9452

          k = 0.0952-0.0476-0.1428 (  3562 PWs)   bands (ev):

     9.4079   9.4128  10.4470  10.4485  11.3314  11.3319  11.4750  11.4854
    11.7834  11.7878  11.9018  11.9113  12.4105  12.4141  12.6221  12.6243
    13.3564  13.3605  13.5842  13.5884  14.2781  14.2797  17.1967  17.2046
    21.8279  21.8341  25.6747  25.6791  29.4473  29.4512  33.0530  33.0546
    33.2665  33.2699  36.9035  36.9369  40.1500  40.1573  40.4597  40.4657
    45.2087  45.2114  45.6941  45.7102  47.7182  47.7268  50.5853  50.5987
    51.8056  51.8134  53.9052  53.9208

          k = 0.0952-0.0952 0.0952 (  3554 PWs)   bands (ev):

     8.8708  10.0613  10.0614  10.0614  11.5228  11.5229  11.5229  12.0371
    12.0960  12.0960  12.0987  12.1060  12.1060  12.3871  12.3871  12.3872
    13.4642  13.4642  13.8293  13.8293  13.8293  16.2009  16.2009  16.2009
    21.4226  21.4226  21.4226  25.1634  32.5141  32.5142  32.5143  35.2599
    35.2600  35.2600  37.2895  37.2896  37.2897  37.8053  39.9692  39.9692
    44.4628  44.4628  47.7923  48.0838  48.0838  48.0842  48.1586  48.1587
    48.1587  52.4698  52.4699  52.4699

          k = 0.0952-0.0952-0.1428 (  3562 PWs)   bands (ev):

     9.4962   9.4975   9.9927   9.9928  11.6428  11.6428  11.9257  11.9335
    12.1459  12.1470  12.2657  12.2670  12.2781  12.2862  12.3816  12.3817
    13.7492  13.7500  13.7576  13.7579  14.1685  14.1689  16.4850  16.4850
    20.3936  20.3937  22.9784  22.9830  33.4295  33.4296  34.6435  34.6436
    36.3371  36.3510  37.2592  37.2667  39.0005  39.0242  39.4560  39.4561
    44.6700  44.6701  44.9146  44.9265  46.0336  46.0368  48.5693  48.5693
    49.6237  49.6287  52.9984  52.9988

 ------ SPIN DOWN ----------


          k = 0.0000 0.0000 0.0000 (  3575 PWs)   bands (ev):

     5.3818  10.1824  10.1824  10.1824  10.8920  10.8922  10.8922  12.8346
    12.8346  12.8346  13.9137  13.9137  14.6662  14.6662  14.6662  14.9516
    14.9516  14.9516  14.9517  14.9517  14.9517  17.0023  17.0024  17.0024
    24.1286  24.1286  24.1286  29.5677  29.5677  29.5677  29.5678  29.5678
    29.5678  34.8246  34.8246  34.8247  38.1520  38.1522  38.1522  38.3035
    42.4595  42.4595  42.4595  46.1605  46.1605  46.1605  48.0315  55.3805
    55.3805  55.3805  58.1393  59.5576

          k =-0.0000-0.0000 0.0476 (  3579 PWs)   bands (ev):

     5.7481  10.1582  10.3767  10.3767  11.0115  11.0160  11.0161  12.6925
    12.9411  12.9411  13.7860  13.9624  14.1078  14.1079  14.4990  14.4990
    14.6142  14.7589  14.7589  14.9519  14.9520  15.5502  18.1472  18.1472
    24.2093  24.2093  26.2743  27.8978  27.8979  28.4852  28.4853  30.1446
    30.1446  34.9281  36.9145  36.9146  37.7349  38.2817  40.0861  40.0862
    40.3094  40.3094  40.8626  47.5285  48.1185  48.1186  49.2414  51.5677
    56.4992  56.4993  56.6197  56.6198

          k =-0.0000-0.0000 0.0952 (  3567 PWs)   bands (ev):

     6.8020   9.7218  10.8384  10.8384  11.3448  11.3939  11.3941  12.3140
    12.9603  12.9604  13.2510  13.2510  13.4649  13.6860  14.0867  14.0867
    14.0973  14.2837  14.2837  14.4734  14.9526  14.9526  20.1888  20.1888
    24.4819  24.4820  25.1958  25.1958  26.7880  26.7881  30.4683  31.7588
    31.7588  35.2535  36.7065  37.1168  37.1168  38.2732  38.8390  40.8840
    40.8841  44.2307  44.2307  44.3838  50.8998  50.9706  50.9706  50.9955
    50.9955  54.9508  56.1978  56.1978

          k = 0.0000 0.0000-0.1428 (  3546 PWs)   bands (ev):

     8.3405   8.3506  11.1303  11.1303  11.8102  11.8254  12.0329  12.0331
    12.0474  12.0475  13.1875  13.2093  13.7215  13.7216  13.7327  13.7327
    13.8180  13.8181  14.2797  14.2879  14.9529  14.9529  22.5591  22.5591
    22.5843  22.5843  24.8050  24.8051  25.9023  25.9023  34.1569  34.1570
    34.1742  34.1742  34.8840  34.9215  35.8332  35.8435  40.4505  40.5096
    45.6106  45.6107  45.6625  45.6626  47.7120  47.7121  52.4987  52.4987
    54.0606  54.0606  54.1073  54.1074

          k =-0.0000 0.0476 0.0476 (  3595 PWs)   bands (ev):

     6.1068  10.3692  10.3692  10.5588  11.1155  11.1259  11.1260  12.6188
    12.9915  12.9959  13.7063  13.7428  13.7478  13.7646  13.9629  14.3605
    14.4866  14.4866  14.7577  14.7577  14.8285  16.7272  16.7273  18.9762
    24.1712  25.2416  26.4483  26.4483  28.3899  28.3900  28.9916  28.9917
    30.6809  36.1246  36.1546  37.1127  37.1128  37.3655  40.2519  40.2519
    41.2061  42.7092  43.5172  45.1922  46.4418  49.9679  50.3986  53.2876
    53.6531  55.3311  55.3313  56.2633

          k =-0.0000 0.0476 0.0952 (  3565 PWs)   bands (ev):

     7.1367   9.9724  10.8857  11.0039  11.3991  11.4317  11.4732  12.3062
    12.6837  12.8529  13.0459  13.0879  13.2672  13.5885  14.0107  14.0960
    14.1662  14.2528  14.2821  14.7547  14.7642  15.1546  18.3663  20.7980
    22.2910  24.8496  25.6682  26.6805  27.5404  29.7295  29.9761  30.0412
    31.1274  33.8162  34.5243  37.7364  38.6857  40.3571  40.5318  40.8861
    41.1341  44.1407  45.2576  47.1435  47.7252  48.5884  49.8960  51.2789
    52.9146  53.1890  55.0575  56.4722

          k = 0.0000 0.0476-0.1428 (  3574 PWs)   bands (ev):

     8.6344   8.6439  11.2734  11.2746  11.8528  11.8671  11.8719  11.8834
    12.0504  12.0645  12.9093  12.9262  13.7248  13.7361  13.8023  13.8047
    13.8080  13.8100  14.5093  14.5098  14.7521  14.7545  20.1719  20.1846
    23.0714  23.0937  25.5874  25.6056  28.4368  28.4435  31.6219  31.6285
    32.0905  32.0949  35.8481  35.8899  38.8437  38.8461  42.3663  42.4033
    43.1172  43.1320  45.8847  45.9337  50.1466  50.1886  50.2953  50.3156
    52.5395  52.5561  53.3838  53.3965

          k =-0.0000 0.0952 0.0952 (  3564 PWs)   bands (ev):

     8.0869  10.6108  10.6109  11.3677  11.4501  11.6876  11.6879  12.2083
    12.3547  12.3547  12.5285  12.9261  13.4113  13.4847  13.7832  13.9220
    13.9221  14.2861  14.2861  14.4762  14.5531  16.2972  16.2972  19.6188
    22.3403  25.3707  26.9564  26.9565  28.0110  28.0110  31.1298  31.7425
    31.7441  31.8199  33.6717  36.8892  41.4799  41.8783  41.8784  43.1273
    43.3110  43.8323  43.8324  47.3310  47.3772  48.5389  48.5391  51.7535
    52.0863  52.1510  53.4236  55.2714

          k = 0.0000 0.0952-0.1428 (  3558 PWs)   bands (ev):

     9.4336   9.4417  11.2239  11.2326  11.8533  11.8541  11.9628  11.9764
    12.0782  12.0916  12.6022  12.6129  13.5775  13.5778  13.6503  13.6520
    13.7724  13.7841  14.3252  14.3323  15.1776  15.1797  17.6832  17.6928
    24.4427  24.4591  26.3845  26.3994  28.8248  28.8319  29.6408  29.6432
    33.0337  33.0383  36.8137  36.8546  40.3764  40.3836  43.0083  43.0156
    43.2511  43.2544  46.6761  46.7158  48.0140  48.0386  50.3821  50.4044
    51.8861  51.9209  53.4924  53.5011

          k = 0.0000-0.1428-0.1428 (  3556 PWs)   bands (ev):

    10.4418  10.4490  10.4490  10.4561  12.0508  12.0638  12.0638  12.0767
    12.3005  12.3046  12.3046  12.3086  13.4333  13.4347  13.4347  13.4362
    13.9502  13.9608  13.9608  13.9713  16.1214  16.1253  16.1253  16.1291
    26.4046  26.4155  26.4155  26.4263  27.7069  27.7161  27.7161  27.7255
    37.9726  37.9834  37.9834  37.9948  38.4689  38.4820  38.4820  38.4939
    47.0752  47.0756  47.0757  47.0767  49.1753  49.1979  49.1979  49.2204
    51.9385  51.9415  51.9416  51.9444

          k = 0.0476 0.0476 0.0476 (  3596 PWs)   bands (ev):

     6.4555  10.5571  10.5572  10.5572  11.2170  11.2172  11.2172  12.5639
    13.0165  13.0165  13.4063  13.4063  13.4063  13.8751  13.8751  14.1673
    14.1674  14.1674  14.8288  14.8288  14.8289  17.3812  17.3812  17.3812
    25.4696  25.4696  25.4696  26.7784  26.7784  26.7785  31.2071  31.2073
    31.2073  33.5633  36.2767  36.2767  36.2767  39.1116  41.2075  41.2075
    42.9133  42.9134  42.9134  46.5226  47.6229  47.6229  51.8317  51.8317
    55.2010  55.2012  55.2012  55.4623

          k = 0.0476 0.0476 0.0952 (  3551 PWs)   bands (ev):

     7.4530  10.1712  11.0169  11.0170  11.4588  11.4589  11.5147  12.3166
    12.6851  12.6851  12.8504  13.0484  13.1383  13.7799  13.8138  13.8770
    13.8776  14.1510  14.7167  14.7464  14.7466  15.4377  18.7098  18.7098
    22.9289  22.9290  26.7764  27.4053  27.4054  30.4472  30.4473  30.8731
    31.0491  32.7120  36.7354  37.6965  37.9439  38.8367  38.8368  42.3851
    43.6019  44.5051  47.0835  47.0835  47.9436  49.0469  50.2078  50.2079
    50.7218  52.9651  53.0571  55.7944

          k = 0.0476 0.0476-0.1428 (  3546 PWs)   bands (ev):

     8.8909   8.8996  11.4447  11.4448  11.5122  11.5124  11.9183  11.9323
    12.3026  12.3026  12.8227  12.8387  13.3998  13.4039  13.6860  13.6860
    14.2976  14.3084  14.4655  14.4667  14.6988  14.6989  19.7892  19.7892
    21.4614  21.4614  28.3344  28.3352  28.5989  28.6037  29.0561  29.0575
    35.0161  35.0303  35.3878  35.4175  38.1735  38.2037  42.2022  42.2023
    44.8533  44.8709  45.3758  45.3759  49.4075  49.4302  50.8682  50.8761
    52.2390  52.2390  53.8767  53.8798

          k = 0.0476 0.0952 0.0952 (  3561 PWs)   bands (ev):

     8.3390  10.6192  10.6193  11.1309  11.6250  11.7658  11.7660  12.2926
    12.4987  12.4988  12.6238  12.9377  13.0871  13.5403  13.5408  13.5435
    13.9044  14.4653  14.6137  14.6141  14.6314  16.3760  16.3760  18.9094
    21.1590  24.1329  24.1329  28.1159  28.1972  31.2117  31.2117  32.2280
    32.2281  34.0869  35.2818  36.9495  39.3554  39.3555  40.0937  43.1696
    43.7440  44.7472  46.4750  46.4751  49.2660  49.2661  50.3678  50.5980
    50.9201  51.7112  52.3864  52.8722

          k = 0.0476 0.0952-0.1428 (  3562 PWs)   bands (ev):

     9.5566   9.5632  10.9812  10.9841  11.8851  11.8865  12.1201  12.1320
    12.4766  12.4820  12.6614  12.6720  13.2149  13.2177  13.3966  13.3985
    14.2207  14.2266  14.5197  14.5244  15.0707  15.0729  17.6079  17.6155
    22.1285  22.1340  25.8751  25.8788  29.5475  29.5523  33.1104  33.1109
    33.3350  33.3394  36.9167  36.9498  40.1346  40.1413  40.4822  40.4886
    45.1962  45.1985  45.6855  45.7025  47.6985  47.7083  50.6237  50.6371
    51.7453  51.7528  53.9869  54.0003

          k = 0.0476-0.1428-0.1428 (  3556 PWs)   bands (ev):

    10.3327  10.3367  10.3367  10.3406  12.2876  12.2933  12.2933  12.2990
    12.5065  12.5135  12.5135  12.5206  13.1577  13.1607  13.1607  13.1639
    14.2457  14.2530  14.2530  14.2603  15.9956  15.9998  15.9998  16.0040
    23.7189  23.7229  23.7230  23.7269  31.0675  31.0699  31.0700  31.0725
    38.2527  38.2591  38.2592  38.2721  38.2989  38.3133  38.3133  38.3207
    46.6043  46.6043  46.6044  46.6053  46.7893  46.8024  46.8024  46.8147
    54.8859  54.8955  54.8956  55.1086

          k = 0.0952 0.0952 0.0952 (  3554 PWs)   bands (ev):

     9.0040  10.5710  10.5711  10.5711  12.0816  12.0817  12.0817  12.5598
    12.7776  12.7776  12.7780  12.9048  12.9048  13.1781  13.1781  13.1781
    14.3450  14.3450  14.7568  14.7568  14.7569  16.6274  16.6274  16.6274
    21.7612  21.7612  21.7613  25.3888  32.5606  32.5606  32.5607  35.3213
    35.3215  35.3215  37.3024  37.3024  37.3024  37.6346  40.0553  40.0553
    44.4722  44.4722  47.8075  48.0324  48.0324  48.0328  48.1601  48.1602
    48.1602  52.5011  52.5012  52.5012

          k = 0.0952 0.0952-0.1428 (  3562 PWs)   bands (ev):

     9.8277   9.8307  10.5307  10.5308  12.2742  12.2743  12.5842  12.5920
    12.8307  12.8406  12.9380  12.9388  12.9815  12.9815  13.0455  13.0455
    14.6578  14.6591  14.6859  14.6861  14.8835  14.8853  16.8166  16.8166
    20.8307  20.8307  23.2682  23.2722  33.4374  33.4374  34.7295  34.7296
    36.2281  36.2429  37.3319  37.3389  39.0809  39.1044  39.4307  39.4307
    44.6966  44.6967  44.8920  44.9040  46.0417  46.0456  48.5293  48.5293
    49.6773  49.6822  53.1077  53.1080

          k = 0.0952-0.1428-0.1428 (  3544 PWs)   bands (ev):

    10.1422  10.1431  10.1431  10.1438  12.6198  12.6218  12.6218  12.6238
    12.8525  12.8546  12.8546  12.8568  13.2637  13.2690  13.2690  13.2743
    14.5918  14.5957  14.5957  14.5997  15.5039  15.5086  15.5086  15.5133
    21.4966  21.4999  21.4999  21.5032  35.1407  35.1437  35.1437  35.1467
    38.1988  38.2044  38.2044  38.2101  39.0208  39.0268  39.0268  39.0323
    44.1379  44.1441  44.1441  44.1501  45.1661  45.1678  45.1679  45.1696
    50.5287  50.5311  50.5311  50.5338

          k =-0.1428-0.1428-0.1428 (  3544 PWs)   bands (ev):

    10.0575  10.0577  10.0577  10.0577  12.7401  12.7401  12.7401  12.7402
    12.7402  12.7402  12.7402  12.7402  14.2015  14.2015  14.2015  14.2017
    14.7285  14.7285  14.7286  14.7286  14.7286  14.7287  14.7287  14.7287
    20.7083  20.7083  20.7083  20.7083  36.7797  36.7800  36.7800  36.7800
    39.6643  39.6643  39.6643  39.6644  39.6644  39.6645  39.6645  39.6645
    42.8506  42.8506  42.8506  42.8506  42.8506  42.8507  42.8507  42.8507
    48.9086  48.9086  48.9086  48.9087

          k =-0.0476 0.0000 0.0476 (  3595 PWs)   bands (ev):

     6.1068  10.3692  10.3692  10.5589  11.1155  11.1259  11.1260  12.6188
    12.9915  12.9959  13.7063  13.7428  13.7478  13.7646  13.9629  14.3605
    14.4866  14.4866  14.7577  14.7577  14.8285  16.7273  16.7273  18.9762
    24.1712  25.2416  26.4483  26.4484  28.3899  28.3900  28.9916  28.9917
    30.6809  36.1246  36.1546  37.1127  37.1127  37.3655  40.2518  40.2520
    41.2060  42.7093  43.5172  45.1922  46.4418  49.9678  50.3986  53.2876
    53.6532  55.3311  55.3314  56.2633

          k =-0.0476-0.0000 0.0952 (  3565 PWs)   bands (ev):

     7.1367   9.9724  10.8857  11.0039  11.3991  11.4317  11.4732  12.3062
    12.6837  12.8528  13.0459  13.0879  13.2672  13.5885  14.0107  14.0960
    14.1662  14.2528  14.2821  14.7546  14.7642  15.1546  18.3663  20.7980
    22.2910  24.8496  25.6682  26.6805  27.5404  29.7295  29.9761  30.0411
    31.1274  33.8163  34.5243  37.7364  38.6857  40.3571  40.5318  40.8861
    41.1341  44.1407  45.2576  47.1436  47.7251  48.5883  49.8960  51.2789
    52.9146  53.1890  55.0575  56.4722

          k =-0.0952 0.0000 0.0952 (  3564 PWs)   bands (ev):

     8.0869  10.6108  10.6109  11.3677  11.4501  11.6876  11.6879  12.2083
    12.3547  12.3547  12.5285  12.9261  13.4113  13.4847  13.7832  13.9220
    13.9222  14.2861  14.2861  14.4762  14.5531  16.2972  16.2972  19.6188
    22.3403  25.3707  26.9564  26.9565  28.0109  28.0111  31.1298  31.7425
    31.7441  31.8199  33.6717  36.8891  41.4799  41.8784  41.8784  43.1273
    43.3110  43.8323  43.8324  47.3310  47.3772  48.5389  48.5391  51.7536
    52.0863  52.1510  53.4236  55.2726

          k = 0.0476-0.0476 0.0476 (  3596 PWs)   bands (ev):

     6.4555  10.5571  10.5572  10.5572  11.2170  11.2172  11.2172  12.5639
    13.0165  13.0165  13.4063  13.4063  13.4063  13.8751  13.8751  14.1673
    14.1674  14.1674  14.8288  14.8288  14.8289  17.3812  17.3812  17.3812
    25.4695  25.4696  25.4696  26.7784  26.7784  26.7785  31.2072  31.2073
    31.2073  33.5634  36.2766  36.2766  36.2767  39.1116  41.2075  41.2075
    42.9133  42.9134  42.9134  46.5225  47.6228  47.6229  51.8317  51.8317
    55.2010  55.2012  55.2012  55.4623

          k = 0.0476-0.0476 0.0952 (  3551 PWs)   bands (ev):

     7.4530  10.1712  11.0169  11.0170  11.4588  11.4589  11.5147  12.3166
    12.6851  12.6851  12.8504  13.0484  13.1383  13.7799  13.8138  13.8770
    13.8776  14.1510  14.7167  14.7464  14.7466  15.4377  18.7098  18.7098
    22.9289  22.9289  26.7764  27.4053  27.4054  30.4472  30.4472  30.8732
    31.0491  32.7119  36.7354  37.6965  37.9439  38.8367  38.8368  42.3851
    43.6019  44.5051  47.0835  47.0836  47.9436  49.0469  50.2078  50.2079
    50.7218  52.9651  53.0571  55.7944

          k =-0.0952 0.0476 0.0476 (  3551 PWs)   bands (ev):

     7.4530  10.1712  11.0169  11.0170  11.4588  11.4589  11.5147  12.3166
    12.6851  12.6851  12.8504  13.0484  13.1383  13.7799  13.8138  13.8770
    13.8776  14.1510  14.7167  14.7464  14.7466  15.4377  18.7098  18.7098
    22.9289  22.9290  26.7764  27.4053  27.4054  30.4472  30.4472  30.8732
    31.0491  32.7120  36.7354  37.6965  37.9439  38.8367  38.8367  42.3851
    43.6019  44.5051  47.0835  47.0836  47.9436  49.0469  50.2078  50.2079
    50.7218  52.9651  53.0571  55.7944

          k = 0.0476-0.0476-0.1428 (  3546 PWs)   bands (ev):

     8.8909   8.8996  11.4448  11.4448  11.5122  11.5124  11.9183  11.9323
    12.3026  12.3026  12.8227  12.8387  13.3998  13.4039  13.6859  13.6861
    14.2976  14.3084  14.4655  14.4667  14.6988  14.6989  19.7892  19.7892
    21.4614  21.4614  28.3344  28.3351  28.5989  28.6038  29.0561  29.0574
    35.0161  35.0303  35.3878  35.4175  38.1735  38.2037  42.2022  42.2023
    44.8533  44.8709  45.3758  45.3759  49.4075  49.4302  50.8682  50.8761
    52.2390  52.2391  53.8767  53.8798

          k = 0.0952-0.0476 0.0952 (  3561 PWs)   bands (ev):

     8.3390  10.6192  10.6193  11.1309  11.6250  11.7658  11.7660  12.2926
    12.4987  12.4988  12.6238  12.9377  13.0871  13.5403  13.5408  13.5435
    13.9044  14.4653  14.6137  14.6141  14.6314  16.3760  16.3760  18.9093
    21.1590  24.1329  24.1329  28.1159  28.1972  31.2117  31.2117  32.2280
    32.2281  34.0869  35.2817  36.9495  39.3554  39.3555  40.0936  43.1696
    43.7440  44.7472  46.4751  46.4751  49.2661  49.2661  50.3679  50.5980
    50.9201  51.7112  52.3864  52.8723

          k =-0.0952 0.0476 0.0952 (  3561 PWs)   bands (ev):

     8.3390  10.6192  10.6193  11.1309  11.6250  11.7658  11.7660  12.2926
    12.4987  12.4988  12.6238  12.9377  13.0871  13.5403  13.5408  13.5435
    13.9044  14.4653  14.6137  14.6141  14.6314  16.3760  16.3760  18.9094
    21.1590  24.1329  24.1329  28.1159  28.1972  31.2116  31.2117  32.2280
    32.2281  34.0869  35.2818  36.9495  39.3554  39.3555  40.0936  43.1696
    43.7440  44.7471  46.4751  46.4751  49.2660  49.2661  50.3678  50.5980
    50.9201  51.7112  52.3865  52.8723

          k = 0.0952-0.0476-0.1428 (  3562 PWs)   bands (ev):

     9.5566   9.5632  10.9812  10.9841  11.8851  11.8865  12.1201  12.1320
    12.4766  12.4820  12.6614  12.6720  13.2149  13.2177  13.3966  13.3985
    14.2207  14.2266  14.5197  14.5244  15.0707  15.0729  17.6079  17.6155
    22.1285  22.1340  25.8751  25.8789  29.5475  29.5523  33.1103  33.1109
    33.3350  33.3394  36.9167  36.9498  40.1346  40.1413  40.4821  40.4886
    45.1962  45.1985  45.6855  45.7025  47.6986  47.7084  50.6237  50.6371
    51.7453  51.7528  53.9869  54.0003

          k = 0.0952-0.0952 0.0952 (  3554 PWs)   bands (ev):

     9.0040  10.5710  10.5711  10.5711  12.0816  12.0817  12.0817  12.5598
    12.7776  12.7776  12.7780  12.9048  12.9048  13.1780  13.1781  13.1782
    14.3450  14.3450  14.7568  14.7568  14.7569  16.6274  16.6274  16.6274
    21.7612  21.7612  21.7613  25.3889  32.5606  32.5606  32.5607  35.3214
    35.3215  35.3215  37.3023  37.3024  37.3025  37.6345  40.0553  40.0553
    44.4722  44.4722  47.8075  48.0324  48.0324  48.0329  48.1601  48.1602
    48.1602  52.5011  52.5012  52.5013

          k = 0.0952-0.0952-0.1428 (  3562 PWs)   bands (ev):

     9.8277   9.8307  10.5307  10.5308  12.2742  12.2743  12.5842  12.5920
    12.8307  12.8406  12.9380  12.9388  12.9814  12.9815  13.0455  13.0455
    14.6578  14.6591  14.6859  14.6861  14.8835  14.8853  16.8166  16.8166
    20.8307  20.8307  23.2682  23.2722  33.4374  33.4375  34.7295  34.7296
    36.2281  36.2429  37.3319  37.3389  39.0809  39.1044  39.4307  39.4308
    44.6967  44.6967  44.8920  44.9040  46.0417  46.0455  48.5293  48.5293
    49.6773  49.6822  53.1077  53.1081

     the Fermi energy is    14.5015 ev

!    total energy              =    -343.63032262 Ry
     Harris-Foulkes estimate   =    -343.63032262 Ry
     estimated scf accuracy    <          8.7E-12 Ry

     The total energy is the sum of the following terms:

     one-electron contribution =      -6.31869843 Ry
     hartree contribution      =      60.32902417 Ry
     xc contribution           =    -120.51530590 Ry
     ewald contribution        =    -277.07688952 Ry
     Dispersion Correction     =      -0.04787582 Ry
     smearing contrib. (-TS)   =      -0.00057711 Ry

     total magnetization       =     2.84 Bohr mag/cell
     absolute magnetization    =     3.25 Bohr mag/cell

     convergence has been achieved in  11 iterations

     Forces acting on atoms (Ry/au):

     atom    1 type  1   force =    -0.00108674   -0.00108674    0.00108688
     atom    2 type  1   force =     0.00108661    0.00108661    0.00108661
     atom    3 type  1   force =    -0.00108674    0.00108688   -0.00108674
     atom    4 type  1   force =     0.00108688   -0.00108674   -0.00108674

     Total force =     0.003765     Total SCF correction =     0.000003


     entering subroutine stress ...

          total   stress  (Ry/bohr**3)                   (kbar)     P=    1.10
   0.00000746  -0.00000008  -0.00000008          1.10     -0.01     -0.01
  -0.00000008   0.00000746  -0.00000008         -0.01      1.10     -0.01
  -0.00000008  -0.00000008   0.00000746         -0.01     -0.01      1.10


     number of scf cycles    =   3
     number of bfgs steps    =   2

     enthalpy old            =    -343.6302385424 Ry
     enthalpy new            =    -343.6303226173 Ry

     CASE: enthalpy_new < enthalpy_old

     new trust radius        =       0.0048290733 bohr
     new conv_thr            =            1.0E-10 Ry

     new unit-cell volume =    290.05439 a.u.^3 (    42.98163 Ang^3 )

CELL_PARAMETERS (alat=  1.88972590)
   3.502899394  -0.000013078  -0.000013078
  -0.000013078   3.502899394  -0.000013078
  -0.000013078  -0.000013078   3.502899394

ATOMIC_POSITIONS (alat)
Ni1      1.755548583   1.755548583   0.003658365
Ni1      0.003669573   0.003669573   0.003669573
Ni1      1.755548583   0.003658365   1.755548583
Ni1      0.003658365   1.755548583   1.755548583



     Writing output data file Ni-ferromag.save
     NEW-OLD atomic charge density approx. for the potential

     Check: negative/imaginary core charge=   -0.000005    0.000000
     extrapolated charge   40.01182, renormalised to   40.00000

     total cpu time spent up to now is     2243.1 secs

     Self-consistent Calculation

     iteration #  1     ecut=    80.00 Ry     beta=0.20
     Davidson diagonalization with overlap
     ethr =  1.00E-06,  avg # of iterations =  3.5

     total cpu time spent up to now is     2327.8 secs

     total energy              =    -343.63026924 Ry
     Harris-Foulkes estimate   =    -343.61788257 Ry
     estimated scf accuracy    <       0.00005096 Ry

     total magnetization       =     2.84 Bohr mag/cell
     absolute magnetization    =     3.26 Bohr mag/cell

     iteration #  2     ecut=    80.00 Ry     beta=0.20
     Davidson diagonalization with overlap
     ethr =  1.27E-07,  avg # of iterations =  1.4

     total cpu time spent up to now is     2380.9 secs

     total energy              =    -343.63029806 Ry
     Harris-Foulkes estimate   =    -343.63030155 Ry
     estimated scf accuracy    <       0.00002136 Ry

     total magnetization       =     2.83 Bohr mag/cell
     absolute magnetization    =     3.25 Bohr mag/cell

     iteration #  3     ecut=    80.00 Ry     beta=0.20
     Davidson diagonalization with overlap
     ethr =  5.34E-08,  avg # of iterations =  1.0

     total cpu time spent up to now is     2433.5 secs

     total energy              =    -343.63029411 Ry
     Harris-Foulkes estimate   =    -343.63029867 Ry
     estimated scf accuracy    <       0.00000863 Ry

     total magnetization       =     2.83 Bohr mag/cell
     absolute magnetization    =     3.25 Bohr mag/cell

     iteration #  4     ecut=    80.00 Ry     beta=0.20
     Davidson diagonalization with overlap
     ethr =  2.16E-08,  avg # of iterations =  1.6

     total cpu time spent up to now is     2487.3 secs

     total energy              =    -343.63029557 Ry
     Harris-Foulkes estimate   =    -343.63030008 Ry
     estimated scf accuracy    <       0.00001150 Ry

     total magnetization       =     2.84 Bohr mag/cell
     absolute magnetization    =     3.25 Bohr mag/cell

     iteration #  5     ecut=    80.00 Ry     beta=0.20
     Davidson diagonalization with overlap
     ethr =  2.16E-08,  avg # of iterations =  1.0

     total cpu time spent up to now is     2539.9 secs

     total energy              =    -343.63029722 Ry
     Harris-Foulkes estimate   =    -343.63029728 Ry
     estimated scf accuracy    <       0.00000014 Ry

     total magnetization       =     2.84 Bohr mag/cell
     absolute magnetization    =     3.25 Bohr mag/cell

     iteration #  6     ecut=    80.00 Ry     beta=0.20
     Davidson diagonalization with overlap
     ethr =  3.60E-10,  avg # of iterations =  1.5

     total cpu time spent up to now is     2593.4 secs

     total energy              =    -343.63029729 Ry
     Harris-Foulkes estimate   =    -343.63029727 Ry
     estimated scf accuracy    <       0.00000006 Ry

     total magnetization       =     2.84 Bohr mag/cell
     absolute magnetization    =     3.25 Bohr mag/cell

     iteration #  7     ecut=    80.00 Ry     beta=0.20
     Davidson diagonalization with overlap
     ethr =  1.49E-10,  avg # of iterations =  1.0

     total cpu time spent up to now is     2646.0 secs

     total energy              =    -343.63029718 Ry
     Harris-Foulkes estimate   =    -343.63029730 Ry
     estimated scf accuracy    <       0.00000015 Ry

     total magnetization       =     2.84 Bohr mag/cell
     absolute magnetization    =     3.25 Bohr mag/cell

     iteration #  8     ecut=    80.00 Ry     beta=0.20
     Davidson diagonalization with overlap
     ethr =  1.49E-10,  avg # of iterations =  2.0

     total cpu time spent up to now is     2709.2 secs

     total energy              =    -343.63029727 Ry
     Harris-Foulkes estimate   =    -343.63029736 Ry
     estimated scf accuracy    <       0.00000038 Ry

     total magnetization       =     2.84 Bohr mag/cell
     absolute magnetization    =     3.25 Bohr mag/cell

     iteration #  9     ecut=    80.00 Ry     beta=0.20
     Davidson diagonalization with overlap
     ethr =  1.49E-10,  avg # of iterations =  1.0

     total cpu time spent up to now is     2761.8 secs

     total energy              =    -343.63029729 Ry
     Harris-Foulkes estimate   =    -343.63029729 Ry
     estimated scf accuracy    <       0.00000010 Ry

     total magnetization       =     2.84 Bohr mag/cell
     absolute magnetization    =     3.25 Bohr mag/cell

     iteration # 10     ecut=    80.00 Ry     beta=0.20
     Davidson diagonalization with overlap
     ethr =  1.49E-10,  avg # of iterations =  1.0

     total cpu time spent up to now is     2814.5 secs

     total energy              =    -343.63029725 Ry
     Harris-Foulkes estimate   =    -343.63029729 Ry
     estimated scf accuracy    <       0.00000010 Ry

     total magnetization       =     2.84 Bohr mag/cell
     absolute magnetization    =     3.25 Bohr mag/cell

     iteration # 11     ecut=    80.00 Ry     beta=0.20
     Davidson diagonalization with overlap
     ethr =  1.49E-10,  avg # of iterations =  1.0

     Magnetic moment per site:
     atom:    1    charge:    3.0044    magn:    0.3348    constr:    0.0000
     atom:    2    charge:    3.0026    magn:    0.3346    constr:    0.0000
     atom:    3    charge:    3.0044    magn:    0.3348    constr:    0.0000
     atom:    4    charge:    3.0044    magn:    0.3348    constr:    0.0000

     total cpu time spent up to now is     2867.1 secs

     End of self-consistent calculation

 ------ SPIN UP ------------


          k = 0.0000 0.0000 0.0000 (  3575 PWs)   bands (ev):

     5.4328   9.7167   9.7167   9.7167  10.1699  10.1699  10.1699  11.9493
    11.9493  11.9494  13.1284  13.1284  13.8464  13.8464  13.8464  13.9364
    13.9364  13.9364  13.9364  13.9364  13.9364  17.0751  17.0751  17.0751
    23.8146  23.8146  23.8146  29.5727  29.5727  29.5727  29.5730  29.5730
    29.5731  34.6506  34.6506  34.6506  37.9972  37.9974  37.9974  38.5005
    42.4778  42.4778  42.4784  46.0757  46.0757  46.0762  48.1803  55.1764
    55.1764  55.1766  57.6128  59.0344

          k = 0.0000 0.0000 0.0476 (  3579 PWs)   bands (ev):

     5.7990   9.7388   9.9009   9.9009  10.2804  10.2963  10.2963  11.8206
    12.0517  12.0518  13.0105  13.1752  13.2822  13.2822  13.6930  13.6930
    13.7604  13.7604  13.7969  13.9367  13.9367  15.4742  18.0340  18.0340
    23.9105  23.9105  26.0639  27.8208  27.8208  28.4493  28.4493  30.1330
    30.1334  34.7667  36.8236  36.8236  37.8648  38.1292  39.9547  39.9548
    40.2558  40.2561  40.9223  47.4959  48.1329  48.1332  49.1567  51.5645
    56.2723  56.2725  56.6806  56.6806

          k = 0.0000 0.0000 0.0952 (  3567 PWs)   bands (ev):

     6.8485   9.5096  10.3379  10.3380  10.5882  10.6796  10.6796  11.4764
    12.2262  12.2262  12.3485  12.3485  12.7226  13.3038  13.3097  13.3143
    13.3143  13.3216  13.3216  13.6627  13.9372  13.9372  19.9967  19.9967
    24.2277  24.2277  25.0471  25.0471  26.6812  26.6812  30.3638  31.7124
    31.7128  35.1299  36.7320  37.0348  37.0351  38.3542  38.6814  40.8682
    40.8682  44.1192  44.1193  44.1522  50.9321  51.0539  51.0542  51.0570
    51.0570  55.0425  55.9449  55.9449

          k =-0.0000-0.0000-0.1427 (  3546 PWs)   bands (ev):

     8.3473   8.3485  10.6141  10.6141  11.0223  11.0241  11.3255  11.3255
    11.3273  11.3273  12.5441  12.5467  12.8000  12.8000  12.8013  12.8014
    13.0657  13.0657  13.4813  13.4823  13.9375  13.9375  22.3810  22.3810
    22.3841  22.3841  24.6006  24.6007  25.7359  25.7359  34.0894  34.0898
    34.0917  34.0920  34.9112  34.9159  35.7769  35.7780  40.2718  40.2793
    45.6666  45.6666  45.6731  45.6731  47.6254  47.6255  52.2967  52.2967
    54.1793  54.1795  54.1853  54.1855

          k = 0.0000 0.0476 0.0476 (  3595 PWs)   bands (ev):

     6.1567   9.9372   9.9372  10.0641  10.3979  10.3979  10.4117  11.7607
    12.0968  12.1138  12.9361  12.9858  12.9944  12.9946  13.1704  13.5643
    13.6889  13.6889  13.7591  13.7591  13.8206  16.4065  16.4065  18.8039
    23.9045  25.1037  26.2512  26.2512  28.2986  28.2986  28.9416  28.9416
    30.6607  36.0401  36.1238  37.0321  37.0321  37.3382  40.1224  40.1225
    41.2766  42.6103  43.5370  45.2376  46.3688  49.7950  50.4616  53.1008
    53.6757  55.3569  55.3569  56.3104

          k = 0.0000 0.0476 0.0952 (  3565 PWs)   bands (ev):

     7.1784   9.7457  10.4193  10.4679  10.6797  10.7330  10.7521  11.4795
    11.9875  12.1273  12.2427  12.3601  12.3856  12.8188  13.2403  13.3189
    13.3258  13.3495  13.5019  13.7558  13.7618  14.4395  18.0209  20.5869
    22.0851  24.6132  25.5084  26.5376  27.4062  29.6120  29.9072  29.9601
    31.0205  33.7288  34.4723  37.6845  38.6373  40.3953  40.5740  40.7546
    41.1240  44.0466  45.0395  47.0651  47.7914  48.5938  49.8999  51.3416
    52.9470  53.2679  54.8240  56.2077

          k =-0.0000 0.0476-0.1427 (  3574 PWs)   bands (ev):

     8.6288   8.6300  10.7666  10.7667  11.0741  11.0759  11.1933  11.1947
    11.3400  11.3418  12.1709  12.1728  12.8008  12.8022  13.0306  13.0313
    13.0507  13.0508  13.6654  13.6654  13.7533  13.7535  19.8889  19.8905
    22.8804  22.8833  25.4156  25.4178  28.3139  28.3147  31.5014  31.5024
    32.0252  32.0259  35.8314  35.8367  38.8333  38.8338  42.2174  42.2220
    43.1197  43.1215  45.9429  45.9491  50.0864  50.0919  50.3600  50.3626
    52.6184  52.6205  53.2088  53.2105

          k = 0.0000 0.0952 0.0952 (  3564 PWs)   bands (ev):

     8.1050  10.3333  10.3333  10.6993  10.9479  10.9479  10.9616  11.4096
    11.6568  11.6568  11.8115  12.1299  12.4910  12.7326  13.0243  13.1796
    13.1796  13.3196  13.3196  13.4897  13.7051  15.6857  15.6857  19.3042
    22.1136  25.1639  26.7814  26.7814  27.9009  27.9009  30.9898  31.6460
    31.6460  31.7417  33.6093  36.8433  41.5331  41.8860  41.8860  43.0813
    43.4181  43.7784  43.7785  47.1965  47.3357  48.4818  48.4818  51.6812
    52.1839  52.1979  53.2068  55.3578

          k =-0.0000 0.0952-0.1427 (  3558 PWs)   bands (ev):

     9.3715   9.3725  10.8037  10.8048  11.2014  11.2030  11.2097  11.2098
    11.3587  11.3604  11.8653  11.8666  12.8381  12.8382  12.8382  12.8397
    12.9049  12.9052  13.3542  13.3550  14.3666  14.3668  17.2166  17.2178
    24.2368  24.2390  26.2309  26.2327  28.6567  28.6577  29.5428  29.5431
    32.9543  32.9549  36.7939  36.7991  40.3701  40.3712  43.0551  43.0561
    43.2229  43.2235  46.7440  46.7490  47.9298  47.9328  50.4327  50.4356
    51.7668  51.7713  53.5693  53.5705

          k =-0.0000-0.1427-0.1427 (  3556 PWs)   bands (ev):

    10.2244  10.2252  10.2252  10.2260  11.3199  11.3215  11.3215  11.3231
    11.6302  11.6307  11.6307  11.6311  12.6919  12.6920  12.6921  12.6922
    13.0049  13.0062  13.0062  13.0075  15.4366  15.4371  15.4372  15.4377
    26.2109  26.2123  26.2124  26.2138  27.5825  27.5836  27.5836  27.5847
    37.8975  37.8988  37.8991  37.9004  38.5038  38.5054  38.5057  38.5073
    47.1849  47.1849  47.1850  47.1850  49.1937  49.1964  49.1967  49.1994
    51.8260  51.8262  51.8264  51.8266

          k = 0.0476 0.0476 0.0476 (  3596 PWs)   bands (ev):

     6.5025  10.0981  10.0982  10.0982  10.5124  10.5124  10.5124  11.7258
    12.1335  12.1335  12.6904  12.6904  12.6904  13.0836  13.0836  13.3308
    13.3308  13.3308  13.8748  13.8748  13.8748  17.0337  17.0337  17.0337
    25.3302  25.3302  25.3302  26.5965  26.5965  26.5965  31.1761  31.1761
    31.1761  33.4877  36.1714  36.1715  36.1715  39.2578  41.1436  41.1436
    42.8177  42.8178  42.8178  46.5988  47.6541  47.6541  51.6502  51.6502
    55.1138  55.2353  55.2353  55.2353

          k = 0.0476 0.0476 0.0952 (  3551 PWs)   bands (ev):

     7.4840   9.9044  10.4813  10.4813  10.7981  10.8263  10.8263  11.5162
    11.9779  11.9779  12.1733  12.2127  12.2729  12.9285  12.9992  13.0849
    13.0849  13.3232  13.7774  13.7774  13.8097  14.8014  18.3761  18.3761
    22.7110  22.7110  26.6239  27.2478  27.2478  30.3631  30.3631  30.7503
    30.9525  32.6559  36.6506  37.7813  37.8560  38.7959  38.7959  42.3665
    43.5100  44.4759  47.0276  47.0276  47.8890  49.0894  50.2069  50.2069
    50.7023  53.0238  53.0845  55.6647

          k = 0.0476 0.0476-0.1427 (  3546 PWs)   bands (ev):

     8.8559   8.8570  10.8687  10.8687  10.9266  10.9266  11.1691  11.1708
    11.5839  11.5839  12.0752  12.0770  12.5459  12.5465  12.9172  12.9172
    13.4921  13.4934  13.5992  13.5995  13.7214  13.7214  19.5250  19.5250
    21.1497  21.1497  28.2118  28.2119  28.4507  28.4514  28.9322  28.9322
    34.9428  34.9446  35.4184  35.4221  38.0986  38.1025  42.2102  42.2103
    44.7620  44.7641  45.3754  45.3754  49.4853  49.4883  50.9053  50.9063
    52.1923  52.1923  53.6876  53.6877

          k = 0.0476 0.0952 0.0952 (  3561 PWs)   bands (ev):

     8.3229  10.2222  10.2222  10.5084  11.1137  11.1598  11.1598  11.5613
    11.7739  11.7739  11.9072  12.1319  12.2579  12.7363  12.7363  12.7527
    13.0556  13.6107  13.6800  13.6953  13.6953  15.8164  15.8164  18.6280
    20.8074  23.9079  23.9079  27.9487  28.0578  31.1390  31.1390  32.1259
    32.1259  34.0223  35.2465  36.9142  39.3302  39.3302  40.1598  43.0437
    43.7409  44.7903  46.4696  46.4697  49.1992  49.1992  50.4244  50.6020
    50.9312  51.6250  52.3084  52.9331

          k = 0.0476 0.0952-0.1427 (  3562 PWs)   bands (ev):

     9.4058   9.4065  10.4434  10.4436  11.3272  11.3273  11.4748  11.4761
    11.7805  11.7811  11.9010  11.9022  12.4070  12.4075  12.6179  12.6182
    13.3526  13.3532  13.5803  13.5808  14.2729  14.2731  17.1937  17.1947
    21.8228  21.8236  25.6685  25.6691  29.4402  29.4407  33.0444  33.0446
    33.2583  33.2588  36.9081  36.9124  40.1429  40.1438  40.4515  40.4522
    45.1986  45.1990  45.6897  45.6918  47.7102  47.7114  50.5787  50.5804
    51.7970  51.7980  53.9078  53.9100

          k = 0.0476-0.1427-0.1427 (  3556 PWs)   bands (ev):

     9.9753   9.9755   9.9755   9.9758  11.7181  11.7185  11.7185  11.7189
    11.8047  11.8056  11.8056  11.8065  12.3782  12.3787  12.3787  12.3791
    13.3346  13.3355  13.3355  13.3363  15.3474  15.3480  15.3481  15.3487
    23.4566  23.4572  23.4573  23.4579  30.9779  30.9781  30.9782  30.9785
    38.1782  38.1793  38.1796  38.1808  38.3477  38.3491  38.3494  38.3507
    46.6617  46.6618  46.6619  46.6620  46.7628  46.7642  46.7645  46.7659
    54.8168  54.8178  54.8181  55.0840

          k = 0.0952 0.0952 0.0952 (  3554 PWs)   bands (ev):

     8.8667  10.0572  10.0572  10.0572  11.5183  11.5184  11.5184  12.0325
    12.0933  12.0933  12.0933  12.0988  12.0988  12.3820  12.3820  12.3820
    13.4585  13.4585  13.8235  13.8235  13.8235  16.1946  16.1947  16.1947
    21.4149  21.4149  21.4149  25.1554  32.5052  32.5053  32.5053  35.2498
    35.2498  35.2498  37.2795  37.2796  37.2796  37.7967  39.9577  39.9577
    44.4513  44.4513  47.7806  48.0725  48.0726  48.0726  48.1467  48.1467
    48.1467  52.4571  52.4571  52.4571

          k = 0.0952 0.0952-0.1427 (  3562 PWs)   bands (ev):

     9.4927   9.4929   9.9886   9.9886  11.6382  11.6382  11.9243  11.9253
    12.1414  12.1416  12.2619  12.2619  12.2761  12.2772  12.3766  12.3766
    13.7439  13.7440  13.7518  13.7518  14.1629  14.1630  16.4788  16.4789
    20.3858  20.3859  22.9725  22.9732  33.4207  33.4207  34.6334  34.6335
    36.3345  36.3363  37.2518  37.2528  38.9997  39.0028  39.4458  39.4459
    44.6586  44.6586  44.9087  44.9103  46.0232  46.0237  48.5578  48.5578
    49.6133  49.6140  52.9861  52.9861

          k = 0.0952-0.1427-0.1427 (  3544 PWs)   bands (ev):

     9.6683   9.6683   9.6683   9.6683  11.8840  11.8842  11.8843  11.8845
    12.0737  12.0740  12.0741  12.0743  12.8231  12.8237  12.8237  12.8243
    13.6715  13.6720  13.6720  13.6724  14.9705  14.9712  14.9712  14.9719
    21.0989  21.0993  21.0994  21.0999  35.1601  35.1605  35.1605  35.1608
    38.2246  38.2253  38.2255  38.2262  38.9458  38.9464  38.9467  38.9474
    44.0997  44.1004  44.1006  44.1012  45.1635  45.1637  45.1638  45.1639
    50.4275  50.4279  50.4279  50.4282

          k =-0.1427-0.1427-0.1427 (  3544 PWs)   bands (ev):

     9.5523   9.5523   9.5523   9.5523  11.9624  11.9624  11.9624  11.9625
    11.9625  11.9625  11.9625  11.9625  13.7994  13.7994  13.7995  13.7995
    13.7995  13.7995  13.7995  13.7995  14.2957  14.2957  14.2957  14.2959
    20.2182  20.2182  20.2182  20.2184  36.9554  36.9556  36.9557  36.9557
    39.5830  39.5830  39.5831  39.5832  39.5832  39.5834  39.5834  39.5834
    42.8088  42.8088  42.8090  42.8090  42.8090  42.8092  42.8092  42.8092
    48.7816  48.7818  48.7818  48.7818

          k =-0.0476-0.0000 0.0476 (  3595 PWs)   bands (ev):

     6.1566   9.9372   9.9372  10.0641  10.3979  10.3979  10.4117  11.7606
    12.0968  12.1138  12.9361  12.9858  12.9945  12.9946  13.1704  13.5643
    13.6889  13.6889  13.7591  13.7591  13.8206  16.4065  16.4065  18.8039
    23.9045  25.1035  26.2511  26.2512  28.2986  28.2987  28.9417  28.9417
    30.6611  36.0404  36.1236  37.0320  37.0321  37.3379  40.1224  40.1224
    41.2769  42.6099  43.5374  45.2378  46.3691  49.7952  50.4613  53.1007
    53.6754  55.3565  55.3565  56.3105

          k =-0.0476 0.0000 0.0952 (  3565 PWs)   bands (ev):

     7.1783   9.7457  10.4193  10.4679  10.6797  10.7329  10.7521  11.4795
    11.9875  12.1273  12.2426  12.3601  12.3856  12.8188  13.2404  13.3189
    13.3258  13.3495  13.5019  13.7558  13.7618  14.4396  18.0210  20.5869
    22.0849  24.6132  25.5085  26.5376  27.4062  29.6121  29.9072  29.9603
    31.0205  33.7286  34.4721  37.6843  38.6376  40.3955  40.5742  40.7544
    41.1239  44.0465  45.0398  47.0647  47.7916  48.5942  49.8996  51.3417
    52.9466  53.2677  54.8243  56.2077

          k =-0.0952-0.0000 0.0952 (  3564 PWs)   bands (ev):

     8.1049  10.3334  10.3334  10.6993  10.9479  10.9479  10.9616  11.4096
    11.6568  11.6568  11.8115  12.1299  12.4910  12.7327  13.0244  13.1795
    13.1796  13.3196  13.3196  13.4897  13.7051  15.6857  15.6857  19.3041
    22.1136  25.1638  26.7815  26.7815  27.9010  27.9010  30.9896  31.6458
    31.6458  31.7415  33.6096  36.8436  41.5333  41.8859  41.8859  43.0815
    43.4183  43.7782  43.7782  47.1968  47.3361  48.4816  48.4816  51.6807
    52.1841  52.1980  53.2070  55.3575

          k = 0.0476-0.0476 0.0476 (  3596 PWs)   bands (ev):

     6.5024  10.0981  10.0981  10.0982  10.5124  10.5124  10.5124  11.7257
    12.1334  12.1335  12.6904  12.6904  12.6904  13.0836  13.0836  13.3308
    13.3308  13.3308  13.8748  13.8748  13.8748  17.0337  17.0337  17.0338
    25.3300  25.3300  25.3303  26.5964  26.5964  26.5965  31.1761  31.1764
    31.1765  33.4872  36.1714  36.1717  36.1717  39.2579  41.1437  41.1441
    42.8173  42.8173  42.8176  46.5989  47.6541  47.6544  51.6502  51.6506
    55.1139  55.2350  55.2353  55.2353

          k = 0.0476-0.0476 0.0952 (  3551 PWs)   bands (ev):

     7.4840   9.9044  10.4813  10.4813  10.7981  10.8263  10.8263  11.5162
    11.9779  11.9779  12.1733  12.2127  12.2729  12.9285  12.9992  13.0849
    13.0849  13.3232  13.7775  13.7775  13.8097  14.8014  18.3761  18.3762
    22.7109  22.7111  26.6238  27.2476  27.2477  30.3630  30.3633  30.7499
    30.9524  32.6562  36.6508  37.7816  37.8564  38.7959  38.7963  42.3666
    43.5095  44.4760  47.0271  47.0274  47.8890  49.0896  50.2066  50.2069
    50.7023  53.0235  53.0845  55.6650

          k =-0.0952 0.0476 0.0476 (  3551 PWs)   bands (ev):

     7.4840   9.9045  10.4813  10.4813  10.7981  10.8263  10.8263  11.5162
    11.9779  11.9779  12.1733  12.2127  12.2729  12.9285  12.9992  13.0849
    13.0849  13.3232  13.7774  13.7774  13.8098  14.8014  18.3762  18.3762
    22.7109  22.7109  26.6241  27.2477  27.2477  30.3634  30.3634  30.7499
    30.9523  32.6558  36.6506  37.7814  37.8561  38.7962  38.7962  42.3668
    43.5098  44.4765  47.0270  47.0270  47.8894  49.0895  50.2066  50.2066
    50.7024  53.0233  53.0842  55.6647

          k = 0.0476-0.0476-0.1427 (  3546 PWs)   bands (ev):

     8.8559   8.8569  10.8687  10.8687  10.9266  10.9266  11.1691  11.1708
    11.5839  11.5839  12.0752  12.0770  12.5459  12.5465  12.9172  12.9172
    13.4921  13.4934  13.5992  13.5995  13.7214  13.7214  19.5249  19.5251
    21.1497  21.1499  28.2117  28.2119  28.4505  28.4511  28.9320  28.9322
    34.9431  34.9450  35.4185  35.4222  38.0988  38.1026  42.2100  42.2105
    44.7617  44.7638  45.3753  45.3757  49.4853  49.4882  50.9054  50.9065
    52.1919  52.1924  53.6875  53.6878

          k = 0.0952-0.0476 0.0952 (  3561 PWs)   bands (ev):

     8.3229  10.2222  10.2222  10.5084  11.1137  11.1598  11.1598  11.5613
    11.7739  11.7739  11.9072  12.1320  12.2578  12.7364  12.7364  12.7527
    13.0556  13.6107  13.6800  13.6953  13.6953  15.8164  15.8164  18.6280
    20.8076  23.9078  23.9078  27.9483  28.0575  31.1391  31.1391  32.1258
    32.1258  34.0223  35.2470  36.9142  39.3306  39.3306  40.1599  43.0439
    43.7411  44.7903  46.4695  46.4695  49.1988  49.1988  50.4242  50.6017
    50.9316  51.6247  52.3082  52.9328

          k =-0.0952 0.0476 0.0952 (  3561 PWs)   bands (ev):

     8.3228  10.2222  10.2222  10.5083  11.1137  11.1598  11.1598  11.5613
    11.7739  11.7739  11.9072  12.1319  12.2579  12.7363  12.7363  12.7528
    13.0556  13.6107  13.6800  13.6953  13.6953  15.8164  15.8165  18.6279
    20.8074  23.9077  23.9080  27.9484  28.0576  31.1389  31.1392  32.1257
    32.1258  34.0226  35.2466  36.9145  39.3301  39.3303  40.1601  43.0441
    43.7413  44.7905  46.4692  46.4694  49.1987  49.1989  50.4243  50.6020
    50.9313  51.6252  52.3078  52.9327

          k = 0.0952-0.0476-0.1427 (  3562 PWs)   bands (ev):

     9.4058   9.4065  10.4434  10.4436  11.3272  11.3273  11.4748  11.4761
    11.7806  11.7811  11.9009  11.9022  12.4070  12.4075  12.6179  12.6182
    13.3526  13.3532  13.5803  13.5808  14.2729  14.2731  17.1937  17.1947
    21.8229  21.8238  25.6683  25.6689  29.4401  29.4406  33.0446  33.0449
    33.2582  33.2587  36.9082  36.9124  40.1428  40.1439  40.4517  40.4525
    45.1987  45.1991  45.6897  45.6918  47.7100  47.7111  50.5785  50.5802
    51.7967  51.7977  53.9078  53.9099

          k = 0.0952-0.0952 0.0952 (  3554 PWs)   bands (ev):

     8.8667  10.0572  10.0572  10.0572  11.5183  11.5183  11.5183  12.0325
    12.0933  12.0933  12.0934  12.0988  12.0989  12.3821  12.3821  12.3821
    13.4585  13.4586  13.8235  13.8235  13.8235  16.1946  16.1947  16.1947
    21.4148  21.4148  21.4151  25.1551  32.5050  32.5051  32.5051  35.2497
    35.2501  35.2501  37.2795  37.2798  37.2798  37.7969  39.9579  39.9582
    44.4515  44.4516  47.7807  48.0722  48.0724  48.0725  48.1464  48.1468
    48.1468  52.4565  52.4565  52.4568

          k = 0.0952-0.0952-0.1427 (  3562 PWs)   bands (ev):

     9.4927   9.4928   9.9886   9.9886  11.6381  11.6382  11.9243  11.9253
    12.1415  12.1416  12.2619  12.2620  12.2760  12.2771  12.3766  12.3766
    13.7439  13.7440  13.7519  13.7519  14.1629  14.1629  16.4788  16.4789
    20.3858  20.3861  22.9724  22.9730  33.4205  33.4207  34.6332  34.6334
    36.3346  36.3364  37.2521  37.2531  38.9999  39.0029  39.4457  39.4462
    44.6584  44.6588  44.9087  44.9102  46.0235  46.0239  48.5574  48.5576
    49.6133  49.6139  52.9857  52.9859

 ------ SPIN DOWN ----------


          k = 0.0000 0.0000 0.0000 (  3575 PWs)   bands (ev):

     5.3782  10.1787  10.1787  10.1787  10.8882  10.8882  10.8882  12.8298
    12.8298  12.8299  13.9085  13.9085  14.6605  14.6606  14.6606  14.9459
    14.9459  14.9459  14.9459  14.9459  14.9459  16.9963  16.9963  16.9963
    24.1203  24.1203  24.1203  29.5588  29.5589  29.5589  29.5593  29.5593
    29.5593  34.8150  34.8150  34.8150  38.1407  38.1409  38.1409  38.2950
    42.4485  42.4485  42.4491  46.1482  46.1482  46.1487  48.0209  55.3654
    55.3654  55.3657  58.1329  59.5516

          k = 0.0000 0.0000 0.0476 (  3579 PWs)   bands (ev):

     5.7444  10.1543  10.3729  10.3729  11.0075  11.0120  11.0120  12.6878
    12.9362  12.9363  13.7810  13.9574  14.1023  14.1023  14.4935  14.4935
    14.6086  14.7532  14.7532  14.9462  14.9462  15.5443  18.1408  18.1408
    24.2011  24.2011  26.2659  27.8894  27.8894  28.4766  28.4766  30.1356
    30.1359  34.9185  36.9047  36.9047  37.7261  38.2703  40.0753  40.0754
    40.2976  40.2980  40.8525  47.5165  48.1068  48.1071  49.2283  51.5555
    56.4836  56.4838  56.6071  56.6071

          k = 0.0000 0.0000 0.0952 (  3567 PWs)   bands (ev):

     6.7981   9.7178  10.8345  10.8345  11.3407  11.3899  11.3899  12.3094
    12.9555  12.9555  13.2461  13.2462  13.4602  13.6801  14.0814  14.0815
    14.0920  14.2781  14.2782  14.4679  14.9468  14.9468  20.1819  20.1819
    24.4739  24.4739  25.1878  25.1878  26.7793  26.7793  30.4595  31.7494
    31.7497  35.2440  36.6974  37.1062  37.1066  38.2640  38.8274  40.8737
    40.8737  44.2185  44.2186  44.3703  50.8877  50.9591  50.9593  50.9836
    50.9836  54.9383  56.1860  56.1861

          k =-0.0000-0.0000-0.1427 (  3546 PWs)   bands (ev):

     8.3408   8.3420  11.1263  11.1263  11.8128  11.8147  12.0347  12.0347
    12.0366  12.0366  13.1920  13.1947  13.7217  13.7218  13.7232  13.7232
    13.8117  13.8118  14.2778  14.2789  14.9471  14.9471  22.5626  22.5626
    22.5658  22.5658  24.7974  24.7974  25.8932  25.8933  34.1545  34.1549
    34.1567  34.1571  34.8914  34.8963  35.8283  35.8297  40.4637  40.4714
    45.6222  45.6222  45.6289  45.6289  47.6994  47.6995  52.4860  52.4860
    54.0691  54.0693  54.0751  54.0753

          k = 0.0000 0.0476 0.0476 (  3595 PWs)   bands (ev):

     6.1030  10.3653  10.3653  10.5550  11.1115  11.1219  11.1219  12.6141
    12.9867  12.9911  13.7012  13.7424  13.7426  13.7545  13.9575  14.3550
    14.4811  14.4811  14.7521  14.7521  14.8228  16.7210  16.7210  18.9696
    24.1633  25.2334  26.4399  26.4400  28.3815  28.3816  28.9826  28.9826
    30.6717  36.1156  36.1443  37.1028  37.1028  37.3557  40.2403  40.2404
    41.1959  42.6977  43.5061  45.1812  46.4295  49.9537  50.3871  53.2734
    53.6414  55.3189  55.3190  56.2507

          k = 0.0000 0.0476 0.0952 (  3565 PWs)   bands (ev):

     7.1328   9.9683  10.8817  10.9999  11.3950  11.4276  11.4691  12.3016
    12.6789  12.8481  13.0418  13.0821  13.2623  13.5833  14.0054  14.0909
    14.1609  14.2472  14.2765  14.7492  14.7584  15.1487  18.3596  20.7910
    22.2836  24.8412  25.6601  26.6725  27.5314  29.7205  29.9689  30.0306
    31.1179  33.8069  34.5148  37.7265  38.6753  40.3469  40.5217  40.8744
    41.1237  44.1288  45.2439  47.1316  47.7139  48.5763  49.8840  51.2669
    52.9026  53.1774  55.0440  56.4605

          k =-0.0000 0.0476-0.1427 (  3574 PWs)   bands (ev):

     8.6344   8.6356  11.2699  11.2700  11.8573  11.8592  11.8701  11.8715
    12.0520  12.0538  12.9118  12.9139  13.7252  13.7267  13.8002  13.8004
    13.8009  13.8013  14.5039  14.5040  14.7475  14.7478  20.1704  20.1720
    23.0736  23.0764  25.5870  25.5894  28.4308  28.4317  31.6155  31.6164
    32.0832  32.0837  35.8566  35.8620  38.8347  38.8351  42.3700  42.3748
    43.1127  43.1146  45.8950  45.9012  50.1520  50.1574  50.2924  50.2951
    52.5349  52.5370  53.3768  53.3785

          k = 0.0000 0.0952 0.0952 (  3564 PWs)   bands (ev):

     8.0828  10.6066  10.6066  11.3636  11.4459  11.6836  11.6837  12.2036
    12.3501  12.3501  12.5238  12.9212  13.4064  13.4796  13.7779  13.9169
    13.9170  14.2807  14.2807  14.4705  14.5475  16.2909  16.2909  19.6119
    22.3329  25.3623  26.9483  26.9483  28.0021  28.0021  31.1208  31.7348
    31.7348  31.8092  33.6618  36.8791  41.4696  41.8680  41.8680  43.1159
    43.3008  43.8208  43.8209  47.3178  47.3650  48.5268  48.5268  51.7408
    52.0748  52.1387  53.4103  55.2606

          k =-0.0000 0.0952-0.1427 (  3558 PWs)   bands (ev):

     9.4329   9.4339  11.2234  11.2245  11.8497  11.8498  11.9643  11.9661
    12.0793  12.0810  12.6022  12.6035  13.5726  13.5726  13.6463  13.6465
    13.7720  13.7735  14.3227  14.3237  15.1727  15.1730  17.6808  17.6820
    24.4420  24.4441  26.3826  26.3846  28.8190  28.8199  29.6329  29.6332
    33.0261  33.0267  36.8216  36.8268  40.3690  40.3700  43.0010  43.0020
    43.2412  43.2417  46.6823  46.6874  48.0120  48.0152  50.3801  50.3829
    51.8877  51.8922  53.4841  53.4852

          k =-0.0000-0.1427-0.1427 (  3556 PWs)   bands (ev):

    10.4437  10.4446  10.4446  10.4455  12.0578  12.0595  12.0595  12.0612
    12.2994  12.2999  12.3000  12.3005  13.4296  13.4297  13.4298  13.4300
    13.9540  13.9554  13.9554  13.9567  16.1186  16.1190  16.1191  16.1196
    26.4061  26.4074  26.4075  26.4088  27.7059  27.7071  27.7072  27.7084
    37.9717  37.9730  37.9733  37.9745  38.4700  38.4715  38.4718  38.4733
    47.0650  47.0651  47.0652  47.0653  49.1829  49.1856  49.1860  49.1887
    51.9271  51.9274  51.9276  51.9279

          k = 0.0476 0.0476 0.0476 (  3596 PWs)   bands (ev):

     6.4516  10.5532  10.5532  10.5532  11.2131  11.2131  11.2131  12.5592
    13.0117  13.0117  13.4012  13.4012  13.4012  13.8699  13.8699  14.1619
    14.1619  14.1619  14.8232  14.8232  14.8232  17.3748  17.3748  17.3748
    25.4617  25.4617  25.4617  26.7698  26.7698  26.7698  31.1979  31.1980
    31.1980  33.5543  36.2665  36.2665  36.2665  39.1025  41.1962  41.1962
    42.9018  42.9019  42.9019  46.5115  47.6114  47.6114  51.8170  51.8170
    55.1885  55.1886  55.1886  55.4514

          k = 0.0476 0.0476 0.0952 (  3551 PWs)   bands (ev):

     7.4490  10.1671  11.0129  11.0129  11.4547  11.4547  11.5106  12.3119
    12.6803  12.6803  12.8457  13.0433  13.1334  13.7748  13.8091  13.8718
    13.8718  14.1455  14.7111  14.7408  14.7408  15.4318  18.7031  18.7031
    22.9213  22.9213  26.7682  27.3969  27.3969  30.4380  30.4380  30.8645
    31.0400  32.7023  36.7252  37.6873  37.9332  38.8263  38.8263  42.3741
    43.5904  44.4933  47.0717  47.0718  47.9311  49.0352  50.1958  50.1958
    50.7093  52.9533  53.0447  55.7797

          k = 0.0476 0.0476-0.1427 (  3546 PWs)   bands (ev):

     8.8905   8.8916  11.4406  11.4407  11.5081  11.5081  11.9200  11.9218
    12.2979  12.2979  12.8248  12.8269  13.3966  13.3971  13.6809  13.6809
    14.2968  14.2982  14.4605  14.4606  14.6932  14.6932  19.7823  19.7824
    21.4537  21.4537  28.3268  28.3269  28.5927  28.5933  29.0468  29.0469
    35.0121  35.0140  35.3917  35.3955  38.1759  38.1798  42.1916  42.1916
    44.8488  44.8511  45.3645  45.3646  49.4059  49.4089  50.8596  50.8606
    52.2257  52.2258  53.8674  53.8674

          k = 0.0476 0.0952 0.0952 (  3561 PWs)   bands (ev):

     8.3349  10.6150  10.6150  11.1268  11.6208  11.7617  11.7617  12.2881
    12.4940  12.4940  12.6190  12.9327  13.0821  13.5358  13.5358  13.5379
    13.8990  14.4598  14.6085  14.6086  14.6253  16.3697  16.3698  18.9027
    21.1513  24.1249  24.1249  28.1107  28.1855  31.2028  31.2029  32.2184
    32.2184  34.0770  35.2721  36.9395  39.3450  39.3450  40.0836  43.1573
    43.7328  44.7362  46.4637  46.4637  49.2540  49.2540  50.3562  50.5856
    50.9076  51.6976  52.3741  52.8602

          k = 0.0476 0.0952-0.1427 (  3562 PWs)   bands (ev):

     9.5552   9.5561  10.9783  10.9787  11.8814  11.8816  12.1208  12.1224
    12.4742  12.4749  12.6612  12.6626  13.2112  13.2116  13.3924  13.3927
    14.2178  14.2186  14.5162  14.5168  15.0659  15.0662  17.6047  17.6057
    22.1231  22.1238  25.8686  25.8691  29.5407  29.5414  33.1012  33.1013
    33.3272  33.3279  36.9212  36.9255  40.1271  40.1280  40.4740  40.4749
    45.1859  45.1863  45.6815  45.6837  47.6910  47.6924  50.6170  50.6188
    51.7365  51.7375  53.9865  53.9899

          k = 0.0476-0.1427-0.1427 (  3556 PWs)   bands (ev):

    10.3320  10.3324  10.3325  10.3330  12.2881  12.2888  12.2889  12.2896
    12.5078  12.5087  12.5088  12.5097  13.1555  13.1558  13.1559  13.1563
    14.2466  14.2475  14.2475  14.2485  15.9932  15.9937  15.9937  15.9942
    23.7145  23.7149  23.7150  23.7155  31.0605  31.0609  31.0609  31.0613
    38.2505  38.2516  38.2518  38.2530  38.2987  38.3000  38.3003  38.3015
    46.5936  46.5937  46.5938  46.5939  46.7884  46.7900  46.7902  46.7917
    54.8809  54.8822  54.8825  55.0944

          k = 0.0952 0.0952 0.0952 (  3554 PWs)   bands (ev):

     8.9999  10.5670  10.5670  10.5670  12.0773  12.0773  12.0773  12.5553
    12.7729  12.7729  12.7729  12.8998  12.8998  13.1731  13.1732  13.1732
    14.3395  14.3395  14.7512  14.7512  14.7512  16.6212  16.6212  16.6212
    21.7535  21.7535  21.7535  25.3809  32.5517  32.5517  32.5517  35.3112
    35.3113  35.3113  37.2923  37.2924  37.2924  37.6258  40.0438  40.0438
    44.4607  44.4607  47.7958  48.0211  48.0211  48.0211  48.1482  48.1482
    48.1482  52.4884  52.4884  52.4884

          k = 0.0952 0.0952-0.1427 (  3562 PWs)   bands (ev):

     9.8249   9.8253  10.5267  10.5267  12.2698  12.2698  12.5830  12.5839
    12.8302  12.8315  12.9336  12.9337  12.9764  12.9764  13.0406  13.0406
    14.6528  14.6530  14.6804  14.6804  14.8786  14.8788  16.8105  16.8105
    20.8229  20.8229  23.2620  23.2626  33.4286  33.4286  34.7194  34.7195
    36.2259  36.2278  37.3243  37.3252  39.0800  39.0830  39.4204  39.4205
    44.6852  44.6852  44.8860  44.8876  46.0316  46.0321  48.5177  48.5177
    49.6668  49.6675  53.0952  53.0952

          k = 0.0952-0.1427-0.1427 (  3544 PWs)   bands (ev):

    10.1389  10.1390  10.1391  10.1392  12.6169  12.6171  12.6172  12.6174
    12.8496  12.8498  12.8499  12.8501  13.2633  13.2640  13.2640  13.2647
    14.5896  14.5901  14.5901  14.5906  15.5022  15.5027  15.5028  15.5034
    21.4917  21.4921  21.4922  21.4926  35.1342  35.1346  35.1346  35.1351
    38.1937  38.1944  38.1946  38.1952  39.0150  39.0156  39.0159  39.0165
    44.1318  44.1325  44.1327  44.1334  45.1562  45.1565  45.1566  45.1568
    50.5181  50.5184  50.5184  50.5188

          k =-0.1427-0.1427-0.1427 (  3544 PWs)   bands (ev):

    10.0537  10.0537  10.0537  10.0537  12.7354  12.7354  12.7354  12.7354
    12.7354  12.7355  12.7355  12.7355  14.1964  14.1965  14.1965  14.1966
    14.7229  14.7229  14.7229  14.7229  14.7229  14.7229  14.7229  14.7229
    20.7005  20.7005  20.7005  20.7007  36.7714  36.7716  36.7718  36.7718
    39.6530  39.6530  39.6532  39.6532  39.6532  39.6535  39.6535  39.6535
    42.8393  42.8393  42.8395  42.8395  42.8395  42.8397  42.8397  42.8397
    48.8958  48.8960  48.8960  48.8960

          k =-0.0476-0.0000 0.0476 (  3595 PWs)   bands (ev):

     6.1030  10.3653  10.3653  10.5550  11.1115  11.1219  11.1219  12.6141
    12.9867  12.9911  13.7012  13.7425  13.7426  13.7546  13.9575  14.3550
    14.4811  14.4811  14.7521  14.7521  14.8228  16.7210  16.7210  18.9695
    24.1632  25.2332  26.4399  26.4399  28.3816  28.3817  28.9827  28.9827
    30.6721  36.1154  36.1446  37.1028  37.1028  37.3554  40.2402  40.2403
    41.1961  42.6973  43.5065  45.1814  46.4298  49.9539  50.3868  53.2733
    53.6413  55.3186  55.3186  56.2508

          k =-0.0476 0.0000 0.0952 (  3565 PWs)   bands (ev):

     7.1327   9.9683  10.8817  10.9999  11.3949  11.4276  11.4691  12.3016
    12.6789  12.8481  13.0418  13.0820  13.2623  13.5833  14.0054  14.0909
    14.1609  14.2472  14.2765  14.7492  14.7584  15.1487  18.3597  20.7910
    22.2834  24.8411  25.6602  26.6725  27.5313  29.7206  29.9690  30.0309
    31.1179  33.8068  34.5146  37.7264  38.6756  40.3471  40.5218  40.8743
    41.1236  44.1287  45.2442  47.1311  47.7141  48.5766  49.8837  51.2670
    52.9023  53.1771  55.0442  56.4606

          k =-0.0952-0.0000 0.0952 (  3564 PWs)   bands (ev):

     8.0828  10.6066  10.6066  11.3636  11.4458  11.6836  11.6836  12.2036
    12.3501  12.3501  12.5238  12.9212  13.4064  13.4796  13.7779  13.9169
    13.9169  14.2806  14.2806  14.4705  14.5475  16.2910  16.2910  19.6117
    22.3328  25.3623  26.9484  26.9484  28.0021  28.0022  31.1206  31.7346
    31.7347  31.8090  33.6621  36.8794  41.4698  41.8678  41.8679  43.1161
    43.3010  43.8205  43.8206  47.3181  47.3654  48.5265  48.5266  51.7402
    52.0749  52.1389  53.4105  55.2603

          k = 0.0476-0.0476 0.0476 (  3596 PWs)   bands (ev):

     6.4516  10.5532  10.5532  10.5532  11.2131  11.2131  11.2131  12.5592
    13.0117  13.0117  13.4012  13.4012  13.4012  13.8699  13.8699  14.1619
    14.1619  14.1620  14.8232  14.8232  14.8232  17.3748  17.3748  17.3748
    25.4615  25.4615  25.4618  26.7697  26.7697  26.7697  31.1980  31.1983
    31.1983  33.5539  36.2665  36.2668  36.2668  39.1026  41.1963  41.1967
    42.9014  42.9015  42.9018  46.5116  47.6113  47.6117  51.8170  51.8173
    55.1883  55.1885  55.1886  55.4514

          k = 0.0476-0.0476 0.0952 (  3551 PWs)   bands (ev):

     7.4489  10.1671  11.0129  11.0129  11.4547  11.4547  11.5105  12.3119
    12.6803  12.6803  12.8457  13.0432  13.1334  13.7748  13.8092  13.8718
    13.8718  14.1455  14.7111  14.7408  14.7409  15.4318  18.7031  18.7032
    22.9211  22.9214  26.7680  27.3967  27.3968  30.4379  30.4382  30.8641
    31.0399  32.7027  36.7254  37.6875  37.9335  38.8262  38.8266  42.3741
    43.5898  44.4934  47.0713  47.0716  47.9311  49.0355  50.1956  50.1959
    50.7094  52.9531  53.0447  55.7800

          k =-0.0952 0.0476 0.0476 (  3551 PWs)   bands (ev):

     7.4489  10.1671  11.0129  11.0129  11.4547  11.4547  11.5106  12.3119
    12.6803  12.6803  12.8458  13.0433  13.1333  13.7748  13.8092  13.8718
    13.8718  14.1455  14.7111  14.7408  14.7408  15.4318  18.7031  18.7031
    22.9211  22.9211  26.7684  27.3967  27.3967  30.4383  30.4383  30.8641
    31.0398  32.7023  36.7252  37.6874  37.9332  38.8265  38.8265  42.3743
    43.5901  44.4939  47.0712  47.0712  47.9314  49.0353  50.1956  50.1956
    50.7094  52.9529  53.0444  55.7797

          k = 0.0476-0.0476-0.1427 (  3546 PWs)   bands (ev):

     8.8905   8.8916  11.4406  11.4407  11.5081  11.5081  11.9200  11.9218
    12.2979  12.2980  12.8248  12.8268  13.3966  13.3971  13.6809  13.6809
    14.2968  14.2982  14.4605  14.4606  14.6932  14.6932  19.7823  19.7824
    21.4537  21.4539  28.3267  28.3268  28.5925  28.5931  29.0467  29.0469
    35.0125  35.0143  35.3918  35.3956  38.1760  38.1799  42.1914  42.1919
    44.8485  44.8508  45.3644  45.3648  49.4059  49.4088  50.8598  50.8608
    52.2254  52.2259  53.8672  53.8675

          k = 0.0952-0.0476 0.0952 (  3561 PWs)   bands (ev):

     8.3348  10.6150  10.6150  11.1268  11.6208  11.7616  11.7617  12.2880
    12.4940  12.4940  12.6191  12.9328  13.0821  13.5358  13.5358  13.5379
    13.8990  14.4598  14.6086  14.6086  14.6253  16.3697  16.3697  18.9028
    21.1515  24.1248  24.1248  28.1103  28.1853  31.2029  31.2029  32.2184
    32.2184  34.0769  35.2726  36.9395  39.3454  39.3454  40.0837  43.1574
    43.7330  44.7362  46.4635  46.4635  49.2536  49.2536  50.3559  50.5853
    50.9080  51.6974  52.3739  52.8599

          k =-0.0952 0.0476 0.0952 (  3561 PWs)   bands (ev):

     8.3348  10.6151  10.6151  11.1268  11.6207  11.7616  11.7617  12.2880
    12.4940  12.4940  12.6191  12.9327  13.0822  13.5358  13.5358  13.5380
    13.8990  14.4598  14.6085  14.6086  14.6253  16.3698  16.3698  18.9027
    21.1513  24.1248  24.1251  28.1103  28.1854  31.2027  31.2030  32.2182
    32.2184  34.0772  35.2722  36.9398  39.3449  39.3452  40.0838  43.1576
    43.7331  44.7364  46.4633  46.4634  49.2535  49.2537  50.3560  50.5857
    50.9078  51.6978  52.3735  52.8599

          k = 0.0952-0.0476-0.1427 (  3562 PWs)   bands (ev):

     9.5552   9.5561  10.9783  10.9787  11.8814  11.8816  12.1208  12.1223
    12.4742  12.4749  12.6612  12.6626  13.2112  13.2116  13.3924  13.3927
    14.2178  14.2186  14.5162  14.5168  15.0659  15.0662  17.6048  17.6057
    22.1232  22.1239  25.8684  25.8689  29.5406  29.5412  33.1014  33.1017
    33.3271  33.3278  36.9212  36.9255  40.1271  40.1281  40.4743  40.4751
    45.1860  45.1864  45.6815  45.6838  47.6909  47.6922  50.6168  50.6186
    51.7362  51.7372  53.9866  53.9899

          k = 0.0952-0.0952 0.0952 (  3554 PWs)   bands (ev):

     8.9999  10.5670  10.5670  10.5670  12.0773  12.0773  12.0773  12.5552
    12.7729  12.7729  12.7730  12.8998  12.8999  13.1732  13.1732  13.1732
    14.3395  14.3396  14.7512  14.7512  14.7512  16.6212  16.6212  16.6213
    21.7534  21.7534  21.7537  25.3805  32.5514  32.5515  32.5516  35.3112
    35.3115  35.3115  37.2922  37.2925  37.2926  37.6260  40.0440  40.0443
    44.4608  44.4610  47.7959  48.0207  48.0210  48.0210  48.1479  48.1483
    48.1483  52.4877  52.4878  52.4881

          k = 0.0952-0.0952-0.1427 (  3562 PWs)   bands (ev):

     9.8249   9.8253  10.5267  10.5268  12.2698  12.2698  12.5829  12.5839
    12.8302  12.8314  12.9336  12.9337  12.9764  12.9765  13.0406  13.0407
    14.6528  14.6530  14.6804  14.6804  14.8786  14.8788  16.8104  16.8105
    20.8229  20.8231  23.2619  23.2624  33.4284  33.4285  34.7192  34.7194
    36.2260  36.2279  37.3246  37.3255  39.0801  39.0831  39.4203  39.4208
    44.6850  44.6854  44.8861  44.8876  46.0318  46.0323  48.5173  48.5175
    49.6668  49.6674  53.0949  53.0950

     the Fermi energy is    14.4959 ev

!    total energy              =    -343.63029726 Ry
     Harris-Foulkes estimate   =    -343.63029726 Ry
     estimated scf accuracy    <          4.1E-11 Ry

     The total energy is the sum of the following terms:

     one-electron contribution =      -6.35670644 Ry
     hartree contribution      =      60.34038811 Ry
     xc contribution           =    -120.51453137 Ry
     ewald contribution        =    -277.05101764 Ry
     Dispersion Correction     =      -0.04785593 Ry
     smearing contrib. (-TS)   =      -0.00057399 Ry

     total magnetization       =     2.84 Bohr mag/cell
     absolute magnetization    =     3.25 Bohr mag/cell

     convergence has been achieved in  11 iterations

     Forces acting on atoms (Ry/au):

     atom    1 type  1   force =    -0.00013490   -0.00013490    0.00013467
     atom    2 type  1   force =     0.00013513    0.00013513    0.00013513
     atom    3 type  1   force =    -0.00013490    0.00013467   -0.00013490
     atom    4 type  1   force =     0.00013467   -0.00013490   -0.00013490

     Total force =     0.000467     Total SCF correction =     0.000006


     entering subroutine stress ...

          total   stress  (Ry/bohr**3)                   (kbar)     P=    0.43
   0.00000295   0.00000007   0.00000007          0.43      0.01      0.01
   0.00000007   0.00000295   0.00000007          0.01      0.43      0.01
   0.00000007   0.00000007   0.00000295          0.01      0.01      0.43


     bfgs converged in   4 scf cycles and   3 bfgs steps
     (criteria: energy <  1.0E-04, force <  1.0E-03, cell <  5.0E-01)

     End of BFGS Geometry Optimization

     Final enthalpy =    -343.6302972640 Ry
Begin final coordinates
     new unit-cell volume =    290.05439 a.u.^3 (    42.98163 Ang^3 )

CELL_PARAMETERS (alat=  1.88972590)
   3.502899394  -0.000013078  -0.000013078
  -0.000013078   3.502899394  -0.000013078
  -0.000013078  -0.000013078   3.502899394

ATOMIC_POSITIONS (alat)
Ni1      1.755548583   1.755548583   0.003658365
Ni1      0.003669573   0.003669573   0.003669573
Ni1      1.755548583   0.003658365   1.755548583
Ni1      0.003658365   1.755548583   1.755548583
End final coordinates



     A final scf calculation at the relaxed structure.
     The G-vectors are recalculated for the final unit cell
     Results may differ from those at the preceding step.

     G-vector sticks info
     --------------------
     sticks:   dense  smooth     PW     G-vecs:    dense   smooth      PW
     Sum        1389    1109    333                39127    28113    4553

     Generating pointlists ...

     Title: 
     Ni-ferro-mag                                                               


     bravais-lattice index     =            0
     lattice parameter (alat)  =       1.8897  a.u.
     unit-cell volume          =     290.0544 (a.u.)^3
     number of atoms/cell      =            4
     number of atomic types    =            1
     number of electrons       =        40.00
     number of Kohn-Sham states=           52
     kinetic-energy cutoff     =      80.0000  Ry
     charge density cutoff     =     400.0000  Ry
     convergence threshold     =      1.0E-10
     mixing beta               =       0.2000
     number of iterations used =            8  plain     mixing
     Exchange-correlation      =  SLA  PW   PBE  PBE ( 1  4  3  4 0 0)

     celldm(1)=   1.889726  celldm(2)=   0.000000  celldm(3)=   0.000000
     celldm(4)=   0.000000  celldm(5)=   0.000000  celldm(6)=   0.000000

     crystal axes: (cart. coord. in units of alat)
               a(1) = (   3.502899  -0.000013  -0.000013 )  
               a(2) = (  -0.000013   3.502899  -0.000013 )  
               a(3) = (  -0.000013  -0.000013   3.502899 )  

     reciprocal axes: (cart. coord. in units 2 pi/alat)
               b(1) = (  0.285478  0.000001  0.000001 )  
               b(2) = (  0.000001  0.285478  0.000001 )  
               b(3) = (  0.000001  0.000001  0.285478 )  


     PseudoPot. # 1 for Ni read from file:
     /home/eliot/pseudo/Ni.pbe-nd-rrkjus.UPF
     MD5 check sum: 8081f0a005c9a5470caab1a58e82ecb2
     Pseudo is Ultrasoft + core correction, Zval = 10.0
     Generated by new atomic code, or converted to UPF format
     Using radial grid of 1203 points,  6 beta functions with: 
                l(1) =   0
                l(2) =   0
                l(3) =   1
                l(4) =   1
                l(5) =   2
                l(6) =   2
     Q(r) pseudized with 0 coefficients 


     atomic species   valence    mass     pseudopotential
        Ni1           10.00    58.69340     Ni( 1.00)

     Starting magnetic structure 
     atomic species   magnetization
        Ni1          0.500

      6 Sym. Ops. (no inversion) found



   Cartesian axes

     site n.     atom                  positions (alat units)
         1           Ni1 tau(   1) = (   1.7555486   1.7555486   0.0036584  )
         2           Ni1 tau(   2) = (   0.0036696   0.0036696   0.0036696  )
         3           Ni1 tau(   3) = (   1.7555486   0.0036584   1.7555486  )
         4           Ni1 tau(   4) = (   0.0036584   1.7555486   1.7555486  )

     number of k points=    32  Methfessel-Paxton smearing, width (Ry)=  0.0500
                       cart. coord. in units 2pi/alat
        k(    1) = (   0.0000000   0.0000000   0.0000000), wk =   0.0046296
        k(    2) = (   0.0000002   0.0000002   0.0475796), wk =   0.0277778
        k(    3) = (   0.0000004   0.0000004   0.0951593), wk =   0.0277778
        k(    4) = (  -0.0000005  -0.0000005  -0.1427389), wk =   0.0138889
        k(    5) = (   0.0000004   0.0475798   0.0475798), wk =   0.0277778
        k(    6) = (   0.0000005   0.0475800   0.0951594), wk =   0.0555556
        k(    7) = (  -0.0000004   0.0475791  -0.1427387), wk =   0.0555556
        k(    8) = (   0.0000007   0.0951596   0.0951596), wk =   0.0277778
        k(    9) = (  -0.0000002   0.0951587  -0.1427385), wk =   0.0555556
        k(   10) = (  -0.0000011  -0.1427394  -0.1427394), wk =   0.0138889
        k(   11) = (   0.0475800   0.0475800   0.0475800), wk =   0.0092593
        k(   12) = (   0.0475802   0.0475802   0.0951596), wk =   0.0277778
        k(   13) = (   0.0475793   0.0475793  -0.1427385), wk =   0.0277778
        k(   14) = (   0.0475803   0.0951598   0.0951598), wk =   0.0277778
        k(   15) = (   0.0475795   0.0951589  -0.1427384), wk =   0.0555556
        k(   16) = (   0.0475786  -0.1427393  -0.1427393), wk =   0.0277778
        k(   17) = (   0.0951600   0.0951600   0.0951600), wk =   0.0092593
        k(   18) = (   0.0951591   0.0951591  -0.1427382), wk =   0.0277778
        k(   19) = (   0.0951582  -0.1427391  -0.1427391), wk =   0.0277778
        k(   20) = (  -0.1427400  -0.1427400  -0.1427400), wk =   0.0046296
        k(   21) = (  -0.0475795  -0.0000000   0.0475795), wk =   0.0277778
        k(   22) = (  -0.0475793   0.0000002   0.0951591), wk =   0.0555556
        k(   23) = (  -0.0951589  -0.0000000   0.0951589), wk =   0.0277778
        k(   24) = (   0.0475796  -0.0475793   0.0475796), wk =   0.0277778
        k(   25) = (   0.0475798  -0.0475791   0.0951593), wk =   0.0555556
        k(   26) = (  -0.0951589   0.0475795   0.0475795), wk =   0.0277778
        k(   27) = (   0.0475789  -0.0475800  -0.1427389), wk =   0.0277778
        k(   28) = (   0.0951594  -0.0475789   0.0951594), wk =   0.0277778
        k(   29) = (  -0.0951587   0.0475796   0.0951591), wk =   0.0555556
        k(   30) = (   0.0951586  -0.0475798  -0.1427387), wk =   0.0555556
        k(   31) = (   0.0951593  -0.0951586   0.0951593), wk =   0.0277778
        k(   32) = (   0.0951584  -0.0951594  -0.1427389), wk =   0.0277778

     Dense  grid:    39127 G-vectors     FFT dimensions: (  45,  45,  45)

     Smooth grid:    28113 G-vectors     FFT dimensions: (  40,  40,  40)

     Largest allocated arrays     est. size (Mb)     dimensions
        Kohn-Sham Wavefunctions         2.81 Mb     (    3544,   52)
        NL pseudopotentials             3.89 Mb     (    3544,   72)
        Each V/rho on FFT grid          2.78 Mb     (   91125,   2)
        Each G-vector array             0.30 Mb     (   39127)
        G-vector shells                 0.02 Mb     (    2639)
     Largest temporary arrays     est. size (Mb)     dimensions
        Auxiliary wavefunctions        11.25 Mb     (    3544,  208)
        Each subspace H/S matrix        0.66 Mb     (     208,  208)
        Each <psi_i|beta_j> matrix      0.06 Mb     (      72,   52)
        Arrays for rho mixing          11.12 Mb     (   91125,    8)

     Check: negative/imaginary core charge=   -0.000005    0.000000

     Initial potential from superposition of free atoms

     starting charge   39.99816, renormalised to   40.00000
     Starting wfc are   24 randomized atomic wfcs +   28 random wfc

     Writing output data file Ni-ferromag.save

     total cpu time spent up to now is     2922.5 secs

     Self-consistent Calculation

     iteration #  1     ecut=    80.00 Ry     beta=0.20
     Davidson diagonalization with overlap
     c_bands:  1 eigenvalues not converged
     c_bands:  1 eigenvalues not converged
     c_bands:  1 eigenvalues not converged
     c_bands:  2 eigenvalues not converged
     c_bands:  4 eigenvalues not converged
     c_bands:  1 eigenvalues not converged
     c_bands:  1 eigenvalues not converged
     c_bands:  2 eigenvalues not converged
     c_bands:  1 eigenvalues not converged
     c_bands:  2 eigenvalues not converged
     c_bands:  2 eigenvalues not converged
     ethr =  1.00E-06,  avg # of iterations = 13.7

     total cpu time spent up to now is     3157.3 secs

     total energy              =    -342.90495954 Ry
     Harris-Foulkes estimate   =    -343.17844923 Ry
     estimated scf accuracy    <       2.41829505 Ry

     total magnetization       =     6.87 Bohr mag/cell
     absolute magnetization    =     6.88 Bohr mag/cell

     iteration #  2     ecut=    80.00 Ry     beta=0.20
     Davidson diagonalization with overlap
     ethr =  6.05E-03,  avg # of iterations =  1.0

     total cpu time spent up to now is     3209.0 secs

     total energy              =    -343.20669994 Ry
     Harris-Foulkes estimate   =    -343.03985363 Ry
     estimated scf accuracy    <       0.78026661 Ry

     total magnetization       =     5.74 Bohr mag/cell
     absolute magnetization    =     5.83 Bohr mag/cell

     iteration #  3     ecut=    80.00 Ry     beta=0.20
     Davidson diagonalization with overlap
     ethr =  1.95E-03,  avg # of iterations =  1.3

     total cpu time spent up to now is     3261.0 secs

     total energy              =    -343.53959343 Ry
     Harris-Foulkes estimate   =    -343.28062258 Ry
     estimated scf accuracy    <       0.35888945 Ry

     total magnetization       =     4.50 Bohr mag/cell
     absolute magnetization    =     4.82 Bohr mag/cell

     iteration #  4     ecut=    80.00 Ry     beta=0.20
     Davidson diagonalization with overlap
     ethr =  8.97E-04,  avg # of iterations =  1.3

     total cpu time spent up to now is     3312.9 secs

     total energy              =    -343.62411298 Ry
     Harris-Foulkes estimate   =    -343.65328148 Ry
     estimated scf accuracy    <       0.11932124 Ry

     total magnetization       =     2.58 Bohr mag/cell
     absolute magnetization    =     3.20 Bohr mag/cell

     iteration #  5     ecut=    80.00 Ry     beta=0.20
     Davidson diagonalization with overlap
     ethr =  2.98E-04,  avg # of iterations =  1.0

     total cpu time spent up to now is     3364.5 secs

     total energy              =    -343.62400634 Ry
     Harris-Foulkes estimate   =    -343.63102097 Ry
     estimated scf accuracy    <       0.02369865 Ry

     total magnetization       =     2.62 Bohr mag/cell
     absolute magnetization    =     3.23 Bohr mag/cell

     iteration #  6     ecut=    80.00 Ry     beta=0.20
     Davidson diagonalization with overlap
     ethr =  5.92E-05,  avg # of iterations =  2.2

     total cpu time spent up to now is     3417.8 secs

     total energy              =    -343.62665857 Ry
     Harris-Foulkes estimate   =    -343.62746680 Ry
     estimated scf accuracy    <       0.00100787 Ry

     total magnetization       =     2.69 Bohr mag/cell
     absolute magnetization    =     3.28 Bohr mag/cell

     iteration #  7     ecut=    80.00 Ry     beta=0.20
     Davidson diagonalization with overlap
     ethr =  2.52E-06,  avg # of iterations =  4.6

     total cpu time spent up to now is     3477.3 secs

     total energy              =    -343.62986217 Ry
     Harris-Foulkes estimate   =    -343.62862703 Ry
     estimated scf accuracy    <       0.00184661 Ry

     total magnetization       =     3.01 Bohr mag/cell
     absolute magnetization    =     3.48 Bohr mag/cell

     iteration #  8     ecut=    80.00 Ry     beta=0.20
     Davidson diagonalization with overlap
     ethr =  2.52E-06,  avg # of iterations =  1.0

     total cpu time spent up to now is     3528.9 secs

     total energy              =    -343.63019583 Ry
     Harris-Foulkes estimate   =    -343.63016462 Ry
     estimated scf accuracy    <       0.00014142 Ry

     total magnetization       =     2.90 Bohr mag/cell
     absolute magnetization    =     3.35 Bohr mag/cell

     iteration #  9     ecut=    80.00 Ry     beta=0.20
     Davidson diagonalization with overlap
     ethr =  3.54E-07,  avg # of iterations =  1.0

     total cpu time spent up to now is     3580.5 secs

     total energy              =    -343.63022236 Ry
     Harris-Foulkes estimate   =    -343.63019773 Ry
     estimated scf accuracy    <       0.00009795 Ry

     total magnetization       =     2.89 Bohr mag/cell
     absolute magnetization    =     3.34 Bohr mag/cell

     iteration # 10     ecut=    80.00 Ry     beta=0.20
     Davidson diagonalization with overlap
     ethr =  2.45E-07,  avg # of iterations =  1.0

     total cpu time spent up to now is     3632.1 secs

     total energy              =    -343.63029581 Ry
     Harris-Foulkes estimate   =    -343.63029560 Ry
     estimated scf accuracy    <       0.00000147 Ry

     total magnetization       =     2.84 Bohr mag/cell
     absolute magnetization    =     3.26 Bohr mag/cell

     iteration # 11     ecut=    80.00 Ry     beta=0.20
     Davidson diagonalization with overlap
     ethr =  3.67E-09,  avg # of iterations =  1.8

     total cpu time spent up to now is     3685.0 secs

     total energy              =    -343.63029557 Ry
     Harris-Foulkes estimate   =    -343.63029596 Ry
     estimated scf accuracy    <       0.00000066 Ry

     total magnetization       =     2.84 Bohr mag/cell
     absolute magnetization    =     3.26 Bohr mag/cell

     iteration # 12     ecut=    80.00 Ry     beta=0.20
     Davidson diagonalization with overlap
     ethr =  1.66E-09,  avg # of iterations =  1.0

     total cpu time spent up to now is     3736.5 secs

     total energy              =    -343.63029533 Ry
     Harris-Foulkes estimate   =    -343.63029566 Ry
     estimated scf accuracy    <       0.00000079 Ry

     total magnetization       =     2.84 Bohr mag/cell
     absolute magnetization    =     3.26 Bohr mag/cell

     iteration # 13     ecut=    80.00 Ry     beta=0.20
     Davidson diagonalization with overlap
     ethr =  1.66E-09,  avg # of iterations =  2.0

     total cpu time spent up to now is     3790.5 secs

     total energy              =    -343.63029645 Ry
     Harris-Foulkes estimate   =    -343.63029649 Ry
     estimated scf accuracy    <       0.00000006 Ry

     total magnetization       =     2.84 Bohr mag/cell
     absolute magnetization    =     3.25 Bohr mag/cell

     iteration # 14     ecut=    80.00 Ry     beta=0.20
     Davidson diagonalization with overlap
     ethr =  1.40E-10,  avg # of iterations =  1.0

     total cpu time spent up to now is     3842.0 secs

     total energy              =    -343.63029637 Ry
     Harris-Foulkes estimate   =    -343.63029646 Ry
     estimated scf accuracy    <       0.00000003 Ry

     total magnetization       =     2.83 Bohr mag/cell
     absolute magnetization    =     3.25 Bohr mag/cell

     iteration # 15     ecut=    80.00 Ry     beta=0.20
     Davidson diagonalization with overlap
     ethr =  8.24E-11,  avg # of iterations =  2.0

     total cpu time spent up to now is     3898.7 secs

     total energy              =    -343.63029650 Ry
     Harris-Foulkes estimate   =    -343.63029649 Ry
     estimated scf accuracy    <       0.00000002 Ry

     total magnetization       =     2.84 Bohr mag/cell
     absolute magnetization    =     3.25 Bohr mag/cell

     iteration # 16     ecut=    80.00 Ry     beta=0.20
     Davidson diagonalization with overlap
     ethr =  5.97E-11,  avg # of iterations =  1.1

     Magnetic moment per site:
     atom:    1    charge:    3.0535    magn:    0.3402    constr:    0.0000
     atom:    2    charge:    3.0511    magn:    0.3399    constr:    0.0000
     atom:    3    charge:    3.0535    magn:    0.3402    constr:    0.0000
     atom:    4    charge:    3.0535    magn:    0.3402    constr:    0.0000

     total cpu time spent up to now is     3950.3 secs

     End of self-consistent calculation

 ------ SPIN UP ------------


          k = 0.0000 0.0000 0.0000 (  3431 PWs)   bands (ev):

     5.4328   9.7167   9.7167   9.7167  10.1699  10.1699  10.1699  11.9493
    11.9493  11.9494  13.1285  13.1285  13.8464  13.8464  13.8464  13.9364
    13.9364  13.9364  13.9364  13.9364  13.9364  17.0751  17.0751  17.0751
    23.8146  23.8146  23.8146  29.5727  29.5727  29.5727  29.5730  29.5730
    29.5731  34.6506  34.6506  34.6506  37.9972  37.9974  37.9974  38.5005
    42.4778  42.4778  42.4784  46.0757  46.0757  46.0762  48.1802  55.1764
    55.1764  55.1766  57.6128  59.0345

          k = 0.0000 0.0000 0.0476 (  3531 PWs)   bands (ev):

     5.7990   9.7388   9.9009   9.9009  10.2804  10.2963  10.2963  11.8206
    12.0517  12.0518  13.0105  13.1752  13.2822  13.2822  13.6930  13.6930
    13.7604  13.7604  13.7969  13.9367  13.9367  15.4742  18.0340  18.0340
    23.9105  23.9105  26.0639  27.8208  27.8208  28.4493  28.4493  30.1330
    30.1334  34.7667  36.8236  36.8236  37.8647  38.1292  39.9547  39.9548
    40.2558  40.2561  40.9223  47.4959  48.1329  48.1332  49.1566  51.5645
    56.2723  56.2725  56.6806  56.6806

          k = 0.0000 0.0000 0.0952 (  3499 PWs)   bands (ev):

     6.8485   9.5096  10.3380  10.3380  10.5882  10.6796  10.6796  11.4764
    12.2262  12.2262  12.3485  12.3485  12.7226  13.3038  13.3097  13.3143
    13.3143  13.3216  13.3216  13.6627  13.9372  13.9372  19.9967  19.9967
    24.2277  24.2277  25.0471  25.0471  26.6812  26.6812  30.3638  31.7124
    31.7128  35.1299  36.7320  37.0348  37.0351  38.3542  38.6814  40.8682
    40.8682  44.1192  44.1193  44.1522  50.9320  51.0539  51.0542  51.0570
    51.0570  55.0425  55.9449  55.9449

          k =-0.0000-0.0000-0.1427 (  3514 PWs)   bands (ev):

     8.3473   8.3485  10.6141  10.6141  11.0223  11.0241  11.3255  11.3255
    11.3273  11.3273  12.5442  12.5467  12.8000  12.8000  12.8013  12.8014
    13.0658  13.0658  13.4814  13.4824  13.9375  13.9375  22.3810  22.3810
    22.3841  22.3841  24.6006  24.6007  25.7359  25.7360  34.0894  34.0898
    34.0917  34.0920  34.9112  34.9159  35.7769  35.7780  40.2718  40.2793
    45.6666  45.6666  45.6731  45.6731  47.6254  47.6255  52.2967  52.2967
    54.1793  54.1795  54.1853  54.1855

          k = 0.0000 0.0476 0.0476 (  3531 PWs)   bands (ev):

     6.1566   9.9372   9.9372  10.0641  10.3979  10.3979  10.4117  11.7607
    12.0968  12.1138  12.9361  12.9858  12.9944  12.9946  13.1704  13.5643
    13.6889  13.6889  13.7591  13.7591  13.8206  16.4065  16.4065  18.8039
    23.9045  25.1037  26.2512  26.2512  28.2986  28.2986  28.9416  28.9416
    30.6607  36.0401  36.1238  37.0321  37.0321  37.3381  40.1224  40.1225
    41.2766  42.6103  43.5370  45.2376  46.3688  49.7950  50.4616  53.1008
    53.6756  55.3569  55.3569  56.3104

          k = 0.0000 0.0476 0.0952 (  3501 PWs)   bands (ev):

     7.1783   9.7457  10.4193  10.4679  10.6797  10.7330  10.7521  11.4795
    11.9875  12.1273  12.2427  12.3601  12.3856  12.8188  13.2404  13.3189
    13.3258  13.3495  13.5019  13.7558  13.7618  14.4395  18.0209  20.5869
    22.0851  24.6132  25.5084  26.5376  27.4062  29.6120  29.9072  29.9601
    31.0205  33.7288  34.4723  37.6844  38.6373  40.3953  40.5740  40.7546
    41.1240  44.0466  45.0395  47.0651  47.7914  48.5938  49.8999  51.3416
    52.9470  53.2679  54.8241  56.2077

          k =-0.0000 0.0476-0.1427 (  3494 PWs)   bands (ev):

     8.6288   8.6300  10.7666  10.7667  11.0741  11.0759  11.1933  11.1947
    11.3400  11.3418  12.1710  12.1728  12.8008  12.8022  13.0307  13.0313
    13.0507  13.0508  13.6654  13.6654  13.7533  13.7535  19.8889  19.8905
    22.8804  22.8833  25.4156  25.4178  28.3139  28.3147  31.5014  31.5024
    32.0252  32.0259  35.8314  35.8367  38.8333  38.8337  42.2174  42.2220
    43.1197  43.1214  45.9429  45.9491  50.0864  50.0919  50.3600  50.3626
    52.6184  52.6205  53.2088  53.2105

          k = 0.0000 0.0952 0.0952 (  3509 PWs)   bands (ev):

     8.1049  10.3333  10.3333  10.6993  10.9479  10.9479  10.9616  11.4096
    11.6568  11.6568  11.8115  12.1300  12.4910  12.7326  13.0243  13.1796
    13.1796  13.3196  13.3196  13.4897  13.7051  15.6857  15.6857  19.3042
    22.1136  25.1639  26.7814  26.7814  27.9009  27.9009  30.9898  31.6460
    31.6460  31.7416  33.6093  36.8433  41.5331  41.8860  41.8860  43.0813
    43.4181  43.7784  43.7785  47.1965  47.3357  48.4818  48.4818  51.6813
    52.1839  52.1979  53.2068  55.3578

          k =-0.0000 0.0952-0.1427 (  3508 PWs)   bands (ev):

     9.3715   9.3725  10.8037  10.8048  11.2014  11.2030  11.2097  11.2098
    11.3587  11.3604  11.8653  11.8666  12.8382  12.8382  12.8383  12.8397
    12.9049  12.9052  13.3542  13.3550  14.3666  14.3668  17.2166  17.2178
    24.2368  24.2389  26.2309  26.2327  28.6566  28.6577  29.5428  29.5431
    32.9543  32.9549  36.7939  36.7991  40.3701  40.3711  43.0551  43.0561
    43.2229  43.2235  46.7440  46.7490  47.9298  47.9328  50.4327  50.4355
    51.7668  51.7713  53.5693  53.5705

          k =-0.0000-0.1427-0.1427 (  3532 PWs)   bands (ev):

    10.2244  10.2252  10.2252  10.2260  11.3199  11.3215  11.3215  11.3231
    11.6303  11.6307  11.6307  11.6311  12.6919  12.6921  12.6921  12.6922
    13.0049  13.0062  13.0062  13.0075  15.4366  15.4371  15.4372  15.4378
    26.2109  26.2123  26.2124  26.2138  27.5825  27.5836  27.5836  27.5847
    37.8975  37.8988  37.8991  37.9004  38.5038  38.5054  38.5057  38.5072
    47.1848  47.1849  47.1850  47.1850  49.1937  49.1964  49.1967  49.1994
    51.8260  51.8262  51.8264  51.8266

          k = 0.0476 0.0476 0.0476 (  3536 PWs)   bands (ev):

     6.5025  10.0981  10.0982  10.0982  10.5124  10.5124  10.5124  11.7258
    12.1335  12.1335  12.6904  12.6904  12.6904  13.0836  13.0836  13.3308
    13.3308  13.3308  13.8748  13.8748  13.8748  17.0337  17.0337  17.0337
    25.3302  25.3302  25.3302  26.5965  26.5965  26.5965  31.1761  31.1761
    31.1761  33.4877  36.1714  36.1715  36.1715  39.2577  41.1436  41.1436
    42.8177  42.8178  42.8178  46.5988  47.6541  47.6541  51.6502  51.6502
    55.1139  55.2353  55.2353  55.2353

          k = 0.0476 0.0476 0.0952 (  3507 PWs)   bands (ev):

     7.4840   9.9044  10.4813  10.4813  10.7981  10.8263  10.8263  11.5162
    11.9779  11.9779  12.1733  12.2127  12.2729  12.9285  12.9992  13.0849
    13.0849  13.3232  13.7774  13.7774  13.8097  14.8014  18.3761  18.3761
    22.7110  22.7110  26.6239  27.2478  27.2478  30.3631  30.3631  30.7503
    30.9525  32.6559  36.6506  37.7813  37.8560  38.7959  38.7959  42.3665
    43.5100  44.4759  47.0275  47.0276  47.8890  49.0894  50.2069  50.2069
    50.7023  53.0238  53.0845  55.6647

          k = 0.0476 0.0476-0.1427 (  3496 PWs)   bands (ev):

     8.8559   8.8569  10.8687  10.8687  10.9266  10.9266  11.1691  11.1708
    11.5839  11.5839  12.0752  12.0770  12.5459  12.5465  12.9172  12.9172
    13.4921  13.4934  13.5992  13.5995  13.7214  13.7214  19.5250  19.5250
    21.1497  21.1497  28.2118  28.2119  28.4507  28.4514  28.9322  28.9322
    34.9428  34.9446  35.4184  35.4221  38.0986  38.1025  42.2102  42.2103
    44.7620  44.7641  45.3754  45.3754  49.4853  49.4883  50.9053  50.9063
    52.1923  52.1923  53.6876  54.0230

          k = 0.0476 0.0952 0.0952 (  3503 PWs)   bands (ev):

     8.3229  10.2222  10.2222  10.5084  11.1138  11.1598  11.1598  11.5613
    11.7739  11.7739  11.9072  12.1319  12.2579  12.7363  12.7363  12.7527
    13.0556  13.6107  13.6800  13.6953  13.6953  15.8164  15.8164  18.6280
    20.8074  23.9079  23.9079  27.9487  28.0578  31.1390  31.1390  32.1259
    32.1259  34.0223  35.2465  36.9142  39.3302  39.3302  40.1598  43.0438
    43.7409  44.7903  46.4696  46.4697  49.1991  49.1992  50.4244  50.6020
    50.9312  51.6250  52.3084  52.9331

          k = 0.0476 0.0952-0.1427 (  3500 PWs)   bands (ev):

     9.4058   9.4065  10.4434  10.4436  11.3272  11.3273  11.4748  11.4762
    11.7805  11.7811  11.9010  11.9022  12.4070  12.4075  12.6179  12.6182
    13.3526  13.3532  13.5803  13.5808  14.2729  14.2731  17.1937  17.1947
    21.8228  21.8236  25.6685  25.6691  29.4402  29.4407  33.0444  33.0446
    33.2583  33.2588  36.9081  36.9124  40.1428  40.1438  40.4515  40.4522
    45.1986  45.1990  45.6897  45.6918  47.7101  47.7114  50.5787  50.5804
    51.7970  51.7980  53.9096  53.9110

          k = 0.0476-0.1427-0.1427 (  3496 PWs)   bands (ev):

     9.9753   9.9755   9.9755   9.9758  11.7181  11.7185  11.7185  11.7189
    11.8047  11.8056  11.8056  11.8065  12.3782  12.3787  12.3787  12.3791
    13.3347  13.3355  13.3355  13.3363  15.3474  15.3480  15.3481  15.3487
    23.4566  23.4572  23.4573  23.4579  30.9779  30.9781  30.9782  30.9785
    38.1782  38.1793  38.1796  38.1808  38.3477  38.3491  38.3494  38.3507
    46.6617  46.6618  46.6619  46.6620  46.7628  46.7642  46.7645  46.7659
    54.8166  54.8178  54.8181  54.8192

          k = 0.0952 0.0952 0.0952 (  3500 PWs)   bands (ev):

     8.8667  10.0572  10.0572  10.0572  11.5184  11.5184  11.5184  12.0325
    12.0933  12.0933  12.0933  12.0988  12.0988  12.3821  12.3821  12.3821
    13.4585  13.4585  13.8235  13.8235  13.8235  16.1946  16.1947  16.1947
    21.4149  21.4149  21.4149  25.1554  32.5052  32.5053  32.5053  35.2498
    35.2498  35.2498  37.2795  37.2796  37.2796  37.7966  39.9577  39.9577
    44.4513  44.4513  47.7806  48.0725  48.0726  48.0726  48.1467  48.1467
    48.1467  52.4571  52.4571  52.4571

          k = 0.0952 0.0952-0.1427 (  3484 PWs)   bands (ev):

     9.4927   9.4929   9.9886   9.9886  11.6382  11.6382  11.9243  11.9253
    12.1414  12.1416  12.2619  12.2619  12.2761  12.2772  12.3766  12.3766
    13.7439  13.7440  13.7518  13.7519  14.1629  14.1630  16.4788  16.4789
    20.3858  20.3859  22.9725  22.9732  33.4207  33.4207  34.6334  34.6335
    36.3345  36.3363  37.2518  37.2528  38.9997  39.0028  39.4458  39.4459
    44.6586  44.6586  44.9087  44.9103  46.0232  46.0237  48.5578  48.5578
    49.6133  49.6140  52.9861  52.9861

          k = 0.0952-0.1427-0.1427 (  3492 PWs)   bands (ev):

     9.6683   9.6683   9.6683   9.6683  11.8840  11.8842  11.8843  11.8845
    12.0738  12.0740  12.0741  12.0743  12.8231  12.8237  12.8237  12.8243
    13.6715  13.6720  13.6720  13.6724  14.9705  14.9712  14.9712  14.9719
    21.0989  21.0993  21.0994  21.0999  35.1601  35.1604  35.1604  35.1608
    38.2246  38.2253  38.2255  38.2262  38.9458  38.9464  38.9467  38.9474
    44.0997  44.1004  44.1006  44.1012  45.1635  45.1637  45.1638  45.1639
    50.4275  50.4279  50.4279  50.4282

          k =-0.1427-0.1427-0.1427 (  3544 PWs)   bands (ev):

     9.5523   9.5523   9.5523   9.5523  11.9624  11.9624  11.9624  11.9625
    11.9625  11.9625  11.9625  11.9625  13.7995  13.7995  13.7995  13.7995
    13.7995  13.7995  13.7995  13.7995  14.2956  14.2957  14.2957  14.2958
    20.2182  20.2182  20.2182  20.2184  36.9554  36.9556  36.9557  36.9557
    39.5830  39.5830  39.5832  39.5832  39.5832  39.5834  39.5834  39.5835
    42.8088  42.8088  42.8090  42.8090  42.8090  42.8092  42.8092  42.8092
    48.7816  48.7818  48.7818  48.7818

          k =-0.0476-0.0000 0.0476 (  3531 PWs)   bands (ev):

     6.1566   9.9372   9.9372  10.0641  10.3979  10.3979  10.4117  11.7606
    12.0968  12.1138  12.9361  12.9858  12.9945  12.9946  13.1704  13.5643
    13.6889  13.6889  13.7591  13.7591  13.8206  16.4065  16.4065  18.8039
    23.9045  25.1035  26.2511  26.2512  28.2986  28.2987  28.9417  28.9417
    30.6611  36.0404  36.1236  37.0320  37.0320  37.3379  40.1224  40.1224
    41.2769  42.6099  43.5374  45.2377  46.3691  49.7952  50.4613  53.1008
    53.6754  55.3565  55.3565  56.3105

          k =-0.0476 0.0000 0.0952 (  3501 PWs)   bands (ev):

     7.1783   9.7457  10.4193  10.4679  10.6797  10.7329  10.7521  11.4795
    11.9875  12.1273  12.2426  12.3601  12.3856  12.8188  13.2404  13.3189
    13.3258  13.3495  13.5019  13.7558  13.7618  14.4396  18.0210  20.5869
    22.0849  24.6132  25.5085  26.5376  27.4062  29.6121  29.9072  29.9603
    31.0205  33.7286  34.4721  37.6843  38.6376  40.3955  40.5742  40.7544
    41.1239  44.0465  45.0398  47.0646  47.7916  48.5942  49.8996  51.3417
    52.9466  53.2677  54.8243  57.1055

          k =-0.0952-0.0000 0.0952 (  3509 PWs)   bands (ev):

     8.1049  10.3334  10.3334  10.6993  10.9479  10.9479  10.9616  11.4096
    11.6569  11.6569  11.8115  12.1299  12.4910  12.7327  13.0244  13.1796
    13.1796  13.3196  13.3196  13.4897  13.7051  15.6857  15.6857  19.3041
    22.1136  25.1638  26.7815  26.7815  27.9009  27.9010  30.9896  31.6458
    31.6458  31.7415  33.6096  36.8436  41.5332  41.8859  41.8859  43.0815
    43.4183  43.7781  43.7782  47.1968  47.3361  48.4816  48.4816  51.6807
    52.1841  52.1979  53.2070  55.3575

          k = 0.0476-0.0476 0.0476 (  3536 PWs)   bands (ev):

     6.5024  10.0981  10.0981  10.0982  10.5124  10.5124  10.5124  11.7257
    12.1334  12.1335  12.6904  12.6904  12.6904  13.0836  13.0836  13.3308
    13.3308  13.3308  13.8748  13.8748  13.8748  17.0337  17.0337  17.0338
    25.3300  25.3300  25.3302  26.5964  26.5964  26.5965  31.1761  31.1764
    31.1765  33.4872  36.1714  36.1717  36.1717  39.2579  41.1437  41.1441
    42.8173  42.8173  42.8176  46.5989  47.6541  47.6544  51.6503  51.6506
    55.2350  55.2353  55.2353  56.0717

          k = 0.0476-0.0476 0.0952 (  3507 PWs)   bands (ev):

     7.4840   9.9044  10.4813  10.4813  10.7981  10.8263  10.8263  11.5162
    11.9779  11.9779  12.1733  12.2127  12.2729  12.9285  12.9992  13.0849
    13.0849  13.3232  13.7775  13.7775  13.8098  14.8014  18.3761  18.3762
    22.7109  22.7111  26.6238  27.2476  27.2477  30.3630  30.3633  30.7499
    30.9524  32.6562  36.6508  37.7815  37.8564  38.7959  38.7963  42.3666
    43.5095  44.4760  47.0271  47.0274  47.8890  49.0896  50.2066  50.2069
    50.7023  53.0235  53.0845  55.6650

          k =-0.0952 0.0476 0.0476 (  3507 PWs)   bands (ev):

     7.4840   9.9044  10.4813  10.4813  10.7981  10.8263  10.8263  11.5162
    11.9779  11.9779  12.1733  12.2128  12.2729  12.9285  12.9992  13.0849
    13.0849  13.3232  13.7775  13.7775  13.8098  14.8014  18.3762  18.3762
    22.7109  22.7109  26.6241  27.2477  27.2477  30.3634  30.3634  30.7499
    30.9523  32.6558  36.6506  37.7814  37.8561  38.7961  38.7962  42.3668
    43.5098  44.4765  47.0270  47.0270  47.8894  49.0895  50.2066  50.2066
    50.7024  53.0233  53.0842  55.6646

          k = 0.0476-0.0476-0.1427 (  3496 PWs)   bands (ev):

     8.8559   8.8569  10.8687  10.8687  10.9266  10.9266  11.1691  11.1708
    11.5839  11.5839  12.0752  12.0770  12.5459  12.5465  12.9172  12.9172
    13.4921  13.4934  13.5992  13.5995  13.7214  13.7214  19.5249  19.5251
    21.1497  21.1499  28.2117  28.2119  28.4505  28.4511  28.9320  28.9322
    34.9431  34.9450  35.4185  35.4222  38.0988  38.1026  42.2100  42.2105
    44.7617  44.7638  45.3753  45.3757  49.4853  49.4881  50.9054  50.9064
    52.1919  52.1924  53.6876  54.0231

          k = 0.0952-0.0476 0.0952 (  3503 PWs)   bands (ev):

     8.3228  10.2222  10.2222  10.5084  11.1137  11.1598  11.1598  11.5613
    11.7739  11.7739  11.9072  12.1320  12.2578  12.7364  12.7364  12.7527
    13.0556  13.6107  13.6801  13.6953  13.6953  15.8164  15.8164  18.6280
    20.8076  23.9078  23.9078  27.9483  28.0575  31.1390  31.1391  32.1258
    32.1258  34.0223  35.2470  36.9142  39.3306  39.3306  40.1599  43.0439
    43.7411  44.7903  46.4695  46.4695  49.1988  49.1988  50.4242  50.6017
    50.9316  51.6248  52.3082  52.9328

          k =-0.0952 0.0476 0.0952 (  3503 PWs)   bands (ev):

     8.3228  10.2222  10.2222  10.5084  11.1137  11.1598  11.1598  11.5613
    11.7739  11.7739  11.9072  12.1319  12.2579  12.7363  12.7363  12.7528
    13.0556  13.6107  13.6800  13.6953  13.6953  15.8164  15.8165  18.6279
    20.8074  23.9077  23.9080  27.9484  28.0576  31.1389  31.1392  32.1257
    32.1258  34.0226  35.2466  36.9145  39.3301  39.3303  40.1601  43.0441
    43.7413  44.7905  46.4692  46.4693  49.1987  49.1989  50.4243  50.6020
    50.9313  51.6252  52.3078  52.9330

          k = 0.0952-0.0476-0.1427 (  3500 PWs)   bands (ev):

     9.4058   9.4065  10.4434  10.4436  11.3272  11.3273  11.4748  11.4761
    11.7806  11.7811  11.9010  11.9022  12.4070  12.4075  12.6179  12.6182
    13.3526  13.3532  13.5803  13.5808  14.2729  14.2731  17.1937  17.1947
    21.8229  21.8238  25.6683  25.6689  29.4400  29.4406  33.0446  33.0449
    33.2582  33.2587  36.9081  36.9124  40.1428  40.1439  40.4517  40.4525
    45.1986  45.1991  45.6897  45.6918  47.7100  47.7111  50.5785  50.5802
    51.7967  51.7977  53.9095  53.9108

          k = 0.0952-0.0952 0.0952 (  3500 PWs)   bands (ev):

     8.8667  10.0572  10.0572  10.0572  11.5183  11.5183  11.5183  12.0325
    12.0933  12.0933  12.0934  12.0988  12.0989  12.3821  12.3821  12.3821
    13.4585  13.4586  13.8235  13.8235  13.8235  16.1946  16.1947  16.1947
    21.4148  21.4148  21.4151  25.1551  32.5050  32.5051  32.5051  35.2497
    35.2501  35.2501  37.2795  37.2798  37.2798  37.7968  39.9579  39.9582
    44.4514  44.4516  47.7807  48.0722  48.0724  48.0725  48.1464  48.1468
    48.1468  52.4565  52.4565  52.4568

          k = 0.0952-0.0952-0.1427 (  3484 PWs)   bands (ev):

     9.4927   9.4928   9.9886   9.9887  11.6381  11.6382  11.9243  11.9253
    12.1415  12.1416  12.2619  12.2620  12.2760  12.2771  12.3766  12.3766
    13.7440  13.7441  13.7519  13.7519  14.1629  14.1629  16.4788  16.4789
    20.3859  20.3861  22.9724  22.9730  33.4205  33.4206  34.6332  34.6334
    36.3346  36.3364  37.2521  37.2531  38.9999  39.0029  39.4457  39.4462
    44.6584  44.6588  44.9087  44.9102  46.0234  46.0239  48.5574  48.5576
    49.6133  49.6139  52.9857  52.9859

 ------ SPIN DOWN ----------


          k = 0.0000 0.0000 0.0000 (  3431 PWs)   bands (ev):

     5.3782  10.1787  10.1787  10.1787  10.8882  10.8882  10.8882  12.8298
    12.8298  12.8299  13.9085  13.9085  14.6605  14.6606  14.6606  14.9459
    14.9459  14.9459  14.9459  14.9459  14.9459  16.9963  16.9963  16.9963
    24.1203  24.1203  24.1203  29.5588  29.5589  29.5589  29.5593  29.5593
    29.5593  34.8150  34.8150  34.8150  38.1407  38.1409  38.1409  38.2950
    42.4485  42.4485  42.4491  46.1482  46.1482  46.1487  48.0209  55.3654
    55.3654  55.3656  58.1329  59.4849

          k = 0.0000 0.0000 0.0476 (  3531 PWs)   bands (ev):

     5.7444  10.1543  10.3729  10.3729  11.0075  11.0120  11.0120  12.6878
    12.9362  12.9363  13.7810  13.9574  14.1023  14.1023  14.4935  14.4935
    14.6086  14.7532  14.7532  14.9462  14.9462  15.5443  18.1408  18.1408
    24.2011  24.2011  26.2659  27.8894  27.8894  28.4766  28.4766  30.1356
    30.1359  34.9185  36.9047  36.9047  37.7261  38.2703  40.0753  40.0754
    40.2976  40.2980  40.8525  47.5165  48.1068  48.1071  49.2283  51.5555
    56.4836  56.4838  56.6071  56.6071

          k = 0.0000 0.0000 0.0952 (  3499 PWs)   bands (ev):

     6.7981   9.7178  10.8345  10.8345  11.3407  11.3899  11.3899  12.3094
    12.9555  12.9555  13.2461  13.2461  13.4602  13.6801  14.0814  14.0815
    14.0920  14.2781  14.2781  14.4678  14.9468  14.9468  20.1819  20.1819
    24.4739  24.4739  25.1878  25.1878  26.7793  26.7793  30.4595  31.7494
    31.7497  35.2440  36.6974  37.1062  37.1066  38.2640  38.8274  40.8737
    40.8737  44.2185  44.2186  44.3702  50.8877  50.9591  50.9593  50.9836
    50.9836  54.9383  56.1860  56.1861

          k =-0.0000-0.0000-0.1427 (  3514 PWs)   bands (ev):

     8.3408   8.3420  11.1262  11.1263  11.8128  11.8147  12.0347  12.0347
    12.0366  12.0366  13.1919  13.1947  13.7217  13.7218  13.7232  13.7232
    13.8117  13.8118  14.2778  14.2789  14.9471  14.9471  22.5626  22.5626
    22.5658  22.5658  24.7974  24.7974  25.8932  25.8933  34.1545  34.1549
    34.1567  34.1571  34.8914  34.8963  35.8283  35.8297  40.4637  40.4714
    45.6222  45.6222  45.6289  45.6289  47.6994  47.6995  52.4860  52.4860
    54.0691  54.0693  54.0751  54.0753

          k = 0.0000 0.0476 0.0476 (  3531 PWs)   bands (ev):

     6.1030  10.3653  10.3653  10.5550  11.1115  11.1219  11.1219  12.6141
    12.9866  12.9911  13.7012  13.7424  13.7426  13.7545  13.9575  14.3549
    14.4811  14.4811  14.7521  14.7521  14.8228  16.7210  16.7210  18.9696
    24.1633  25.2334  26.4399  26.4400  28.3815  28.3816  28.9826  28.9826
    30.6717  36.1156  36.1443  37.1028  37.1029  37.3557  40.2403  40.2404
    41.1959  42.6977  43.5061  45.1812  46.4295  49.9537  50.3871  53.2734
    53.6414  55.3190  55.3190  56.2507

          k = 0.0000 0.0476 0.0952 (  3501 PWs)   bands (ev):

     7.1328   9.9683  10.8816  10.9999  11.3950  11.4276  11.4691  12.3016
    12.6789  12.8481  13.0418  13.0821  13.2623  13.5833  14.0053  14.0909
    14.1609  14.2472  14.2765  14.7492  14.7583  15.1487  18.3596  20.7910
    22.2836  24.8412  25.6601  26.6725  27.5314  29.7205  29.9689  30.0306
    31.1179  33.8069  34.5148  37.7265  38.6753  40.3469  40.5217  40.8744
    41.1237  44.1288  45.2439  47.1316  47.7139  48.5763  49.8840  51.2669
    52.9026  53.1774  55.0440  56.9979

          k =-0.0000 0.0476-0.1427 (  3494 PWs)   bands (ev):

     8.6344   8.6356  11.2698  11.2700  11.8573  11.8591  11.8701  11.8715
    12.0520  12.0538  12.9118  12.9139  13.7252  13.7266  13.8002  13.8004
    13.8009  13.8013  14.5039  14.5040  14.7475  14.7478  20.1704  20.1720
    23.0736  23.0764  25.5870  25.5894  28.4308  28.4317  31.6155  31.6164
    32.0832  32.0837  35.8566  35.8620  38.8347  38.8351  42.3700  42.3748
    43.1127  43.1146  45.8950  45.9013  50.1520  50.1574  50.2925  50.2951
    52.5349  52.5370  53.3768  53.3785

          k = 0.0000 0.0952 0.0952 (  3509 PWs)   bands (ev):

     8.0828  10.6066  10.6066  11.3636  11.4459  11.6836  11.6836  12.2036
    12.3501  12.3501  12.5238  12.9212  13.4064  13.4796  13.7779  13.9169
    13.9169  14.2806  14.2806  14.4705  14.5475  16.2909  16.2909  19.6119
    22.3329  25.3623  26.9483  26.9483  28.0021  28.0021  31.1208  31.7348
    31.7348  31.8092  33.6618  36.8791  41.4696  41.8680  41.8680  43.1159
    43.3008  43.8208  43.8209  47.3178  47.3650  48.5268  48.5268  51.7408
    52.0748  52.1387  53.4103  55.2606

          k =-0.0000 0.0952-0.1427 (  3508 PWs)   bands (ev):

     9.4329   9.4339  11.2234  11.2245  11.8497  11.8498  11.9643  11.9661
    12.0793  12.0810  12.6022  12.6035  13.5725  13.5726  13.6463  13.6465
    13.7719  13.7735  14.3227  14.3236  15.1727  15.1729  17.6808  17.6820
    24.4420  24.4441  26.3826  26.3846  28.8190  28.8199  29.6329  29.6332
    33.0261  33.0267  36.8216  36.8268  40.3690  40.3700  43.0010  43.0020
    43.2412  43.2417  46.6823  46.6874  48.0120  48.0152  50.3801  50.3829
    51.8877  51.8922  53.4841  53.4852

          k =-0.0000-0.1427-0.1427 (  3532 PWs)   bands (ev):

    10.4437  10.4446  10.4446  10.4455  12.0578  12.0595  12.0595  12.0612
    12.2994  12.2999  12.3000  12.3004  13.4296  13.4297  13.4298  13.4299
    13.9540  13.9554  13.9554  13.9567  16.1186  16.1190  16.1191  16.1196
    26.4061  26.4074  26.4075  26.4088  27.7059  27.7071  27.7072  27.7084
    37.9717  37.9730  37.9733  37.9745  38.4700  38.4715  38.4718  38.4733
    47.0650  47.0651  47.0652  47.0653  49.1829  49.1856  49.1860  49.1887
    51.9271  51.9274  51.9276  51.9279

          k = 0.0476 0.0476 0.0476 (  3536 PWs)   bands (ev):

     6.4516  10.5532  10.5532  10.5532  11.2131  11.2131  11.2131  12.5592
    13.0117  13.0117  13.4012  13.4012  13.4012  13.8699  13.8699  14.1619
    14.1619  14.1619  14.8232  14.8232  14.8232  17.3747  17.3748  17.3748
    25.4617  25.4617  25.4617  26.7698  26.7698  26.7698  31.1979  31.1980
    31.1980  33.5543  36.2665  36.2665  36.2665  39.1025  41.1962  41.1962
    42.9018  42.9019  42.9019  46.5115  47.6114  47.6114  51.8170  51.8170
    55.1885  55.1886  55.1886  56.0577

          k = 0.0476 0.0476 0.0952 (  3507 PWs)   bands (ev):

     7.4490  10.1671  11.0129  11.0129  11.4547  11.4547  11.5105  12.3119
    12.6803  12.6803  12.8457  13.0433  13.1334  13.7748  13.8091  13.8718
    13.8718  14.1455  14.7111  14.7408  14.7408  15.4318  18.7031  18.7031
    22.9213  22.9213  26.7682  27.3969  27.3969  30.4380  30.4380  30.8645
    31.0400  32.7023  36.7252  37.6873  37.9332  38.8263  38.8263  42.3741
    43.5904  44.4933  47.0718  47.0718  47.9311  49.0352  50.1958  50.1958
    50.7093  52.9533  53.0447  55.7796

          k = 0.0476 0.0476-0.1427 (  3496 PWs)   bands (ev):

     8.8905   8.8916  11.4406  11.4406  11.5081  11.5081  11.9200  11.9218
    12.2979  12.2979  12.8248  12.8268  13.3966  13.3971  13.6809  13.6809
    14.2968  14.2982  14.4605  14.4606  14.6932  14.6932  19.7823  19.7824
    21.4537  21.4537  28.3268  28.3269  28.5927  28.5933  29.0468  29.0469
    35.0121  35.0140  35.3917  35.3955  38.1759  38.1798  42.1916  42.1916
    44.8488  44.8511  45.3645  45.3646  49.4059  49.4089  50.8596  50.8606
    52.2257  52.2258  53.8674  54.0685

          k = 0.0476 0.0952 0.0952 (  3503 PWs)   bands (ev):

     8.3349  10.6150  10.6150  11.1268  11.6208  11.7616  11.7616  12.2881
    12.4940  12.4940  12.6190  12.9327  13.0821  13.5358  13.5358  13.5379
    13.8990  14.4598  14.6085  14.6085  14.6253  16.3697  16.3697  18.9027
    21.1513  24.1249  24.1249  28.1107  28.1856  31.2028  31.2029  32.2184
    32.2184  34.0770  35.2721  36.9395  39.3450  39.3450  40.0836  43.1573
    43.7328  44.7362  46.4637  46.4637  49.2540  49.2540  50.3562  50.5856
    50.9077  51.6976  52.3741  52.8602

          k = 0.0476 0.0952-0.1427 (  3500 PWs)   bands (ev):

     9.5552   9.5561  10.9783  10.9787  11.8814  11.8816  12.1208  12.1223
    12.4742  12.4749  12.6612  12.6626  13.2112  13.2116  13.3924  13.3927
    14.2178  14.2186  14.5162  14.5168  15.0659  15.0661  17.6047  17.6057
    22.1231  22.1238  25.8686  25.8691  29.5407  29.5414  33.1012  33.1013
    33.3272  33.3278  36.9212  36.9255  40.1272  40.1280  40.4740  40.4749
    45.1859  45.1863  45.6815  45.6837  47.6910  47.6924  50.6170  50.6188
    51.7365  51.7375  54.0059  54.0070

          k = 0.0476-0.1427-0.1427 (  3496 PWs)   bands (ev):

    10.3320  10.3324  10.3325  10.3330  12.2881  12.2888  12.2889  12.2896
    12.5078  12.5087  12.5088  12.5096  13.1555  13.1558  13.1559  13.1563
    14.2466  14.2475  14.2475  14.2485  15.9931  15.9937  15.9937  15.9942
    23.7145  23.7149  23.7150  23.7155  31.0605  31.0609  31.0609  31.0613
    38.2505  38.2516  38.2518  38.2530  38.2987  38.3000  38.3003  38.3015
    46.5936  46.5937  46.5938  46.5939  46.7884  46.7900  46.7902  46.7917
    54.8809  54.8822  54.8825  54.8837

          k = 0.0952 0.0952 0.0952 (  3500 PWs)   bands (ev):

     8.9999  10.5670  10.5670  10.5670  12.0773  12.0773  12.0773  12.5553
    12.7729  12.7729  12.7729  12.8998  12.8998  13.1731  13.1731  13.1731
    14.3395  14.3395  14.7512  14.7512  14.7512  16.6212  16.6212  16.6212
    21.7535  21.7535  21.7535  25.3809  32.5517  32.5518  32.5518  35.3112
    35.3113  35.3113  37.2923  37.2924  37.2924  37.6259  40.0438  40.0438
    44.4607  44.4607  47.7958  48.0211  48.0211  48.0211  48.1482  48.1482
    48.1482  52.4884  52.4884  52.4884

          k = 0.0952 0.0952-0.1427 (  3484 PWs)   bands (ev):

     9.8249   9.8253  10.5267  10.5267  12.2698  12.2698  12.5829  12.5839
    12.8302  12.8315  12.9336  12.9337  12.9764  12.9764  13.0406  13.0406
    14.6528  14.6530  14.6804  14.6804  14.8786  14.8788  16.8104  16.8105
    20.8229  20.8229  23.2620  23.2626  33.4286  33.4286  34.7194  34.7195
    36.2259  36.2278  37.3243  37.3252  39.0800  39.0830  39.4204  39.4205
    44.6852  44.6852  44.8860  44.8876  46.0316  46.0321  48.5177  48.5177
    49.6668  49.6675  53.0952  53.0952

          k = 0.0952-0.1427-0.1427 (  3492 PWs)   bands (ev):

    10.1389  10.1390  10.1391  10.1391  12.6169  12.6171  12.6172  12.6174
    12.8496  12.8498  12.8499  12.8501  13.2633  13.2640  13.2640  13.2647
    14.5896  14.5901  14.5901  14.5906  15.5022  15.5027  15.5028  15.5034
    21.4917  21.4921  21.4922  21.4926  35.1342  35.1346  35.1346  35.1351
    38.1937  38.1944  38.1946  38.1952  39.0150  39.0156  39.0159  39.0165
    44.1318  44.1325  44.1328  44.1334  45.1562  45.1565  45.1566  45.1568
    50.5181  50.5184  50.5184  50.5188

          k =-0.1427-0.1427-0.1427 (  3544 PWs)   bands (ev):

    10.0537  10.0537  10.0537  10.0537  12.7354  12.7354  12.7354  12.7354
    12.7354  12.7355  12.7355  12.7355  14.1964  14.1965  14.1965  14.1966
    14.7229  14.7229  14.7229  14.7229  14.7229  14.7229  14.7229  14.7229
    20.7005  20.7005  20.7005  20.7007  36.7714  36.7716  36.7718  36.7718
    39.6530  39.6530  39.6532  39.6532  39.6532  39.6535  39.6535  39.6535
    42.8393  42.8393  42.8395  42.8395  42.8395  42.8397  42.8397  42.8397
    48.8958  48.8960  48.8960  48.8960

          k =-0.0476-0.0000 0.0476 (  3531 PWs)   bands (ev):

     6.1030  10.3653  10.3653  10.5550  11.1115  11.1219  11.1219  12.6141
    12.9867  12.9911  13.7012  13.7424  13.7426  13.7546  13.9575  14.3550
    14.4811  14.4811  14.7521  14.7521  14.8228  16.7210  16.7210  18.9695
    24.1633  25.2332  26.4399  26.4399  28.3816  28.3817  28.9827  28.9827
    30.6721  36.1154  36.1446  37.1028  37.1028  37.3554  40.2402  40.2403
    41.1961  42.6973  43.5065  45.1814  46.4298  49.9539  50.3868  53.2733
    53.6413  55.3186  55.3186  56.2508

          k =-0.0476 0.0000 0.0952 (  3501 PWs)   bands (ev):

     7.1327   9.9683  10.8817  10.9999  11.3949  11.4276  11.4691  12.3016
    12.6789  12.8481  13.0418  13.0820  13.2623  13.5833  14.0054  14.0909
    14.1609  14.2472  14.2765  14.7492  14.7583  15.1487  18.3597  20.7910
    22.2834  24.8411  25.6602  26.6725  27.5313  29.7206  29.9690  30.0309
    31.1179  33.8068  34.5146  37.7264  38.6756  40.3472  40.5218  40.8743
    41.1236  44.1287  45.2441  47.1311  47.7141  48.5767  49.8837  51.2670
    52.9023  53.1771  55.0442  56.9976

          k =-0.0952-0.0000 0.0952 (  3509 PWs)   bands (ev):

     8.0828  10.6066  10.6066  11.3635  11.4458  11.6836  11.6836  12.2036
    12.3501  12.3501  12.5238  12.9211  13.4064  13.4796  13.7779  13.9169
    13.9169  14.2806  14.2806  14.4705  14.5475  16.2910  16.2910  19.6117
    22.3328  25.3623  26.9484  26.9484  28.0021  28.0022  31.1206  31.7346
    31.7347  31.8090  33.6621  36.8794  41.4698  41.8678  41.8679  43.1161
    43.3010  43.8205  43.8206  47.3181  47.3654  48.5266  48.5266  51.7402
    52.0749  52.1389  53.4105  55.2603

          k = 0.0476-0.0476 0.0476 (  3536 PWs)   bands (ev):

     6.4516  10.5532  10.5532  10.5532  11.2131  11.2131  11.2131  12.5592
    13.0117  13.0117  13.4012  13.4012  13.4012  13.8699  13.8699  14.1619
    14.1619  14.1619  14.8232  14.8232  14.8232  17.3748  17.3748  17.3748
    25.4615  25.4615  25.4618  26.7697  26.7697  26.7697  31.1979  31.1983
    31.1983  33.5539  36.2665  36.2668  36.2668  39.1026  41.1963  41.1967
    42.9014  42.9015  42.9018  46.5116  47.6113  47.6117  51.8170  51.8173
    55.1883  55.1885  55.1886  56.0578

          k = 0.0476-0.0476 0.0952 (  3507 PWs)   bands (ev):

     7.4489  10.1671  11.0129  11.0129  11.4547  11.4547  11.5105  12.3119
    12.6803  12.6803  12.8457  13.0432  13.1334  13.7748  13.8091  13.8718
    13.8718  14.1455  14.7111  14.7408  14.7408  15.4318  18.7031  18.7032
    22.9211  22.9214  26.7680  27.3967  27.3968  30.4379  30.4382  30.8641
    31.0399  32.7027  36.7254  37.6876  37.9335  38.8262  38.8266  42.3742
    43.5898  44.4934  47.0713  47.0716  47.9311  49.0355  50.1956  50.1959
    50.7094  52.9531  53.0447  55.7799

          k =-0.0952 0.0476 0.0476 (  3507 PWs)   bands (ev):

     7.4489  10.1671  11.0129  11.0129  11.4547  11.4547  11.5105  12.3119
    12.6803  12.6803  12.8457  13.0433  13.1333  13.7748  13.8092  13.8718
    13.8718  14.1455  14.7111  14.7408  14.7408  15.4318  18.7031  18.7031
    22.9211  22.9211  26.7684  27.3967  27.3967  30.4383  30.4383  30.8641
    31.0398  32.7023  36.7252  37.6874  37.9332  38.8265  38.8266  42.3743
    43.5901  44.4939  47.0712  47.0713  47.9315  49.0353  50.1956  50.1956
    50.7094  52.9529  53.0444  55.7796

          k = 0.0476-0.0476-0.1427 (  3496 PWs)   bands (ev):

     8.8905   8.8916  11.4406  11.4406  11.5081  11.5081  11.9200  11.9218
    12.2979  12.2979  12.8248  12.8268  13.3966  13.3971  13.6809  13.6809
    14.2968  14.2982  14.4605  14.4606  14.6932  14.6932  19.7823  19.7824
    21.4537  21.4539  28.3267  28.3268  28.5925  28.5931  29.0467  29.0469
    35.0125  35.0143  35.3918  35.3956  38.1760  38.1799  42.1914  42.1919
    44.8485  44.8508  45.3644  45.3648  49.4059  49.4088  50.8598  50.8608
    52.2254  52.2259  53.8673  54.0685

          k = 0.0952-0.0476 0.0952 (  3503 PWs)   bands (ev):

     8.3349  10.6150  10.6150  11.1268  11.6208  11.7616  11.7616  12.2880
    12.4940  12.4940  12.6191  12.9327  13.0821  13.5358  13.5358  13.5379
    13.8990  14.4598  14.6086  14.6086  14.6253  16.3697  16.3697  18.9028
    21.1515  24.1248  24.1248  28.1103  28.1853  31.2029  31.2029  32.2184
    32.2184  34.0769  35.2726  36.9395  39.3454  39.3454  40.0837  43.1574
    43.7330  44.7362  46.4635  46.4635  49.2536  49.2537  50.3559  50.5853
    50.9080  51.6974  52.3739  52.8599

          k =-0.0952 0.0476 0.0952 (  3503 PWs)   bands (ev):

     8.3348  10.6150  10.6151  11.1268  11.6207  11.7616  11.7617  12.2880
    12.4940  12.4940  12.6190  12.9327  13.0822  13.5358  13.5358  13.5380
    13.8990  14.4598  14.6085  14.6086  14.6253  16.3698  16.3698  18.9027
    21.1513  24.1248  24.1251  28.1103  28.1854  31.2027  31.2030  32.2182
    32.2184  34.0772  35.2722  36.9398  39.3449  39.3452  40.0838  43.1576
    43.7331  44.7364  46.4633  46.4634  49.2535  49.2537  50.3560  50.5857
    50.9078  51.6978  52.3736  52.8600

          k = 0.0952-0.0476-0.1427 (  3500 PWs)   bands (ev):

     9.5552   9.5561  10.9783  10.9787  11.8814  11.8816  12.1208  12.1223
    12.4742  12.4749  12.6612  12.6626  13.2112  13.2116  13.3924  13.3927
    14.2178  14.2186  14.5162  14.5168  15.0659  15.0661  17.6047  17.6057
    22.1232  22.1239  25.8684  25.8689  29.5406  29.5412  33.1014  33.1017
    33.3271  33.3278  36.9212  36.9255  40.1271  40.1281  40.4743  40.4751
    45.1860  45.1864  45.6815  45.6838  47.6909  47.6922  50.6168  50.6186
    51.7362  51.7372  54.0059  54.0074

          k = 0.0952-0.0952 0.0952 (  3500 PWs)   bands (ev):

     8.9999  10.5670  10.5670  10.5670  12.0773  12.0773  12.0773  12.5552
    12.7729  12.7729  12.7730  12.8998  12.8999  13.1732  13.1732  13.1732
    14.3395  14.3395  14.7512  14.7512  14.7512  16.6212  16.6212  16.6213
    21.7534  21.7534  21.7537  25.3805  32.5514  32.5515  32.5516  35.3112
    35.3115  35.3115  37.2922  37.2925  37.2926  37.6261  40.0440  40.0443
    44.4608  44.4610  47.7959  48.0207  48.0210  48.0210  48.1479  48.1483
    48.1483  52.4878  52.4878  52.4881

          k = 0.0952-0.0952-0.1427 (  3484 PWs)   bands (ev):

     9.8249   9.8253  10.5267  10.5267  12.2697  12.2698  12.5829  12.5839
    12.8302  12.8314  12.9336  12.9337  12.9764  12.9765  13.0406  13.0407
    14.6528  14.6530  14.6804  14.6804  14.8786  14.8788  16.8104  16.8105
    20.8229  20.8231  23.2619  23.2624  33.4284  33.4286  34.7192  34.7194
    36.2260  36.2279  37.3246  37.3255  39.0801  39.0831  39.4203  39.4208
    44.6850  44.6854  44.8861  44.8876  46.0318  46.0323  48.5173  48.5175
    49.6668  49.6674  53.0949  53.0950

     the Fermi energy is    14.4959 ev

!    total energy              =    -343.63029652 Ry
     Harris-Foulkes estimate   =    -343.63029652 Ry
     estimated scf accuracy    <          6.4E-11 Ry

     The total energy is the sum of the following terms:

     one-electron contribution =      -6.35671261 Ry
     hartree contribution      =      60.34040181 Ry
     xc contribution           =    -120.51453818 Ry
     ewald contribution        =    -277.05101764 Ry
     Dispersion Correction     =      -0.04785593 Ry
     smearing contrib. (-TS)   =      -0.00057396 Ry

     total magnetization       =     2.84 Bohr mag/cell
     absolute magnetization    =     3.25 Bohr mag/cell

     convergence has been achieved in  16 iterations

     Forces acting on atoms (Ry/au):

     atom    1 type  1   force =    -0.00012989   -0.00012989    0.00013027
     atom    2 type  1   force =     0.00012950    0.00012950    0.00012950
     atom    3 type  1   force =    -0.00012989    0.00013027   -0.00012989
     atom    4 type  1   force =     0.00013027   -0.00012989   -0.00012989

     Total force =     0.000450     Total SCF correction =     0.000001


     entering subroutine stress ...

          total   stress  (Ry/bohr**3)                   (kbar)     P=    0.44
   0.00000297   0.00000007   0.00000007          0.44      0.01      0.01
   0.00000007   0.00000297   0.00000007          0.01      0.44      0.01
   0.00000007   0.00000007   0.00000297          0.01      0.01      0.44


     Writing output data file Ni-ferromag.save

     init_run     :     43.49s CPU     44.99s WALL (       2 calls)
     electrons    :   3639.45s CPU   3750.55s WALL (       5 calls)
     update_pot   :     16.46s CPU     16.52s WALL (       3 calls)
     forces       :     57.49s CPU     57.82s WALL (       5 calls)
     stress       :    100.79s CPU    102.49s WALL (       5 calls)

     Called by init_run:
     wfcinit      :     36.95s CPU     38.36s WALL (       2 calls)
     potinit      :      1.80s CPU      1.84s WALL (       2 calls)

     Called by electrons:
     c_bands      :   3171.29s CPU   3264.02s WALL (      62 calls)
     sum_band     :    431.72s CPU    447.34s WALL (      62 calls)
     v_of_rho     :     18.93s CPU     19.67s WALL (      67 calls)
     newd         :     17.93s CPU     19.46s WALL (      67 calls)
     mix_rho      :      1.54s CPU      2.00s WALL (      62 calls)

     Called by c_bands:
     init_us_2    :     23.74s CPU     26.82s WALL (    8704 calls)
     cegterg      :   3087.80s CPU   3178.75s WALL (    3968 calls)

     Called by sum_band:
     sum_band:bec :      0.63s CPU      0.66s WALL (    3968 calls)
     addusdens    :     25.47s CPU     27.04s WALL (      62 calls)

     Called by *egterg:
     h_psi        :   1655.79s CPU   1714.33s WALL (   12185 calls)
     s_psi        :    239.07s CPU    239.29s WALL (   12185 calls)
     g_psi        :     10.55s CPU     10.57s WALL (    8089 calls)
     cdiaghg      :    124.06s CPU    124.24s WALL (   11865 calls)

     Called by h_psi:
     add_vuspsi   :    239.22s CPU    239.40s WALL (   12185 calls)

     General routines
     calbec       :    439.47s CPU    439.66s WALL (   17753 calls)
     fft          :      6.51s CPU      7.12s WALL (    2247 calls)
     ffts         :      0.46s CPU      0.51s WALL (     258 calls)
     fftw         :   1257.51s CPU   1327.67s WALL ( 1142772 calls)
     interpolate  :      1.30s CPU      1.62s WALL (     258 calls)

     Parallel routines
     fft_scatter  :     92.47s CPU    112.61s WALL ( 1145277 calls)

     PWSCF        :     1h 4m CPU        1h 6m WALL


   This run was terminated on:   8:51: 5  27May2016            

=------------------------------------------------------------------------------=
   JOB DONE.
=------------------------------------------------------------------------------=
