
     Program PWSCF v.7.3.1 starts on  6Oct2026 at 15:39:50 

     This program is part of the open-source Quantum ESPRESSO suite
     for quantum simulation of materials; please cite
         "P. Giannozzi et al., J. Phys.:Condens. Matter 21 395502 (2009);
         "P. Giannozzi et al., J. Phys.:Condens. Matter 29 465901 (2017);
         "P. Giannozzi et al., J. Chem. Phys. 152 154105 (2020);
          URL http://www.quantum-espresso.org", 
     in publications or presentations arising from this work. More details at
     http://www.quantum-espresso.org/quote

     Parallel version (MPI), running on     1 processors

     MPI processes distributed on     1 nodes
     4425 MiB available memory on the printing compute node when the environment starts

     Waiting for input...
     Reading input from standard input

     Current dimensions of program PWSCF are:
     Max number of different atomic species (ntypx) = 10
     Max number of k-points (npk) =  40000
     Max angular momentum in pseudopotentials (lmaxx) =  4

     Atomic positions and unit cell read from directory:
     ../tmp/silicon.save/


     Subspace diagonalization in iterative solution of the eigenvalue problem:
     a serial algorithm will be used


     G-vector sticks info
     --------------------
     sticks:   dense  smooth     PW     G-vecs:    dense   smooth      PW
     Sum         451     451    151                 6423     6423    1243

     Using Slab Decomposition



     bravais-lattice index     =            2
     lattice parameter (alat)  =      10.2000  a.u.
     unit-cell volume          =     265.3020 (a.u.)^3
     number of atoms/cell      =            2
     number of atomic types    =            1
     number of electrons       =         8.00
     number of Kohn-Sham states=            8
     kinetic-energy cutoff     =      32.0000  Ry
     charge density cutoff     =     128.0000  Ry
     Exchange-correlation=  SLA  PZ   NOGX NOGC
                           (   1   1   0   0   0   0   0)

     celldm(1)=  10.200000  celldm(2)=   0.000000  celldm(3)=   0.000000
     celldm(4)=   0.000000  celldm(5)=   0.000000  celldm(6)=   0.000000

     crystal axes: (cart. coord. in units of alat)
               a(1) = (  -0.500000   0.000000   0.500000 )  
               a(2) = (   0.000000   0.500000   0.500000 )  
               a(3) = (  -0.500000   0.500000   0.000000 )  

     reciprocal axes: (cart. coord. in units 2 pi/alat)
               b(1) = ( -1.000000 -1.000000  1.000000 )  
               b(2) = (  1.000000  1.000000  1.000000 )  
               b(3) = ( -1.000000  1.000000 -1.000000 )  


     PseudoPot. # 1 for Si read from file:
     /home/manuel/pseudo/Si.pz-vbc.UPF
     MD5 check sum: 6dfa03ddd5817404712e03e4d12deb78
     Pseudo is Norm-conserving, Zval =  4.0
     Generated by new atomic code, or converted to UPF format
     Using radial grid of  431 points,  2 beta functions with: 
                l(1) =   0
                l(2) =   1

     atomic species   valence    mass     pseudopotential
     Si                4.00    28.08600     Si( 1.00)

     48 Sym. Ops., with inversion, found (24 have fractional translation)



   Cartesian axes

     site n.     atom                  positions (alat units)
         1        Si     tau(   1) = (   0.0000000   0.0000000   0.0000000  )
         2        Si     tau(   2) = (   0.2500000   0.2500000   0.2500000  )

     number of k points=    36
                       cart. coord. in units 2pi/alat
        k(    1) = (   0.5000000   0.5000000   0.5000000), wk =   0.0030030
        k(    2) = (   0.4000000   0.4000000   0.4000000), wk =   0.0060060
        k(    3) = (   0.3000000   0.3000000   0.3000000), wk =   0.0090090
        k(    4) = (   0.2000000   0.2000000   0.2000000), wk =   0.0120120
        k(    5) = (   0.1000000   0.1000000   0.1000000), wk =   0.0150150
        k(    6) = (   0.0000000   0.0000000   0.0000000), wk =   0.0180180
        k(    7) = (   0.0000000   0.0000000   0.1000000), wk =   0.0210210
        k(    8) = (   0.0000000   0.0000000   0.2000000), wk =   0.0240240
        k(    9) = (   0.0000000   0.0000000   0.3000000), wk =   0.0270270
        k(   10) = (   0.0000000   0.0000000   0.4000000), wk =   0.0300300
        k(   11) = (   0.0000000   0.0000000   0.5000000), wk =   0.0330330
        k(   12) = (   0.0000000   0.0000000   0.6000000), wk =   0.0360360
        k(   13) = (   0.0000000   0.0000000   0.7000000), wk =   0.0390390
        k(   14) = (   0.0000000   0.0000000   0.8000000), wk =   0.0420420
        k(   15) = (   0.0000000   0.0000000   0.9000000), wk =   0.0450450
        k(   16) = (   0.0000000   0.0000000   1.0000000), wk =   0.0480480
        k(   17) = (   0.0000000   0.1000000   1.0000000), wk =   0.0510511
        k(   18) = (   0.0000000   0.2000000   1.0000000), wk =   0.0540541
        k(   19) = (   0.0000000   0.3000000   1.0000000), wk =   0.0570571
        k(   20) = (   0.0000000   0.4000000   1.0000000), wk =   0.0600601
        k(   21) = (   0.0000000   0.5000000   1.0000000), wk =   0.0630631
        k(   22) = (   0.0000000   0.6000000   1.0000000), wk =   0.0660661
        k(   23) = (   0.0000000   0.7000000   1.0000000), wk =   0.0690691
        k(   24) = (   0.0000000   0.8000000   1.0000000), wk =   0.0720721
        k(   25) = (   0.0000000   0.9000000   1.0000000), wk =   0.0750751
        k(   26) = (   0.0000000   1.0000000   1.0000000), wk =   0.0780781
        k(   27) = (   0.0000000   0.9000000   0.9000000), wk =   0.0810811
        k(   28) = (   0.0000000   0.8000000   0.8000000), wk =   0.0840841
        k(   29) = (   0.0000000   0.7000000   0.7000000), wk =   0.0870871
        k(   30) = (   0.0000000   0.6000000   0.6000000), wk =   0.0900901
        k(   31) = (   0.0000000   0.5000000   0.5000000), wk =   0.0930931
        k(   32) = (   0.0000000   0.4000000   0.4000000), wk =   0.0960961
        k(   33) = (   0.0000000   0.3000000   0.3000000), wk =   0.0990991
        k(   34) = (   0.0000000   0.2000000   0.2000000), wk =   0.1021021
        k(   35) = (   0.0000000   0.1000000   0.1000000), wk =   0.1051051
        k(   36) = (   0.0000000   0.0000000   0.0000000), wk =   0.1081081

     Dense  grid:     6423 G-vectors     FFT dimensions: (  32,  32,  32)

     Estimated max dynamical RAM per process >       3.69 MB

     The potential is recalculated from file :
     ../tmp/silicon.save/charge-density

     Starting wfcs are    8 randomized atomic wfcs

     Band Structure Calculation
     Davidson diagonalization with overlap

     ethr =  1.25E-08,  avg # of iterations = 18.7

     total cpu time spent up to now is        2.1 secs

     End of band structure calculation

          k = 0.5000 0.5000 0.5000 (   796 PWs)   bands (ev):

    -3.4308  -0.8297   5.0150   5.0150   7.7926   9.5618   9.5618  13.8247

          k = 0.4000 0.4000 0.4000 (   817 PWs)   bands (ev):

    -3.9014  -0.1095   5.0872   5.0872   7.8737   9.6413   9.6413  13.9473

          k = 0.3000 0.3000 0.3000 (   818 PWs)   bands (ev):

    -4.6683   1.3952   5.3018   5.3018   8.1116   9.7690   9.7690  13.8286

          k = 0.2000 0.2000 0.2000 (   812 PWs)   bands (ev):

    -5.2957   3.2055   5.6408   5.6408   8.4726   9.6068   9.6068  12.3118

          k = 0.1000 0.1000 0.1000 (   821 PWs)   bands (ev):

    -5.6888   5.0842   6.0269   6.0269   8.8234   9.0957   9.0957  10.5943

          k = 0.0000 0.0000 0.0000 (   869 PWs)   bands (ev):

    -5.8219   6.2285   6.2285   6.2285   8.7992   8.7992   8.7992   9.7071

          k = 0.0000 0.0000 0.1000 (   833 PWs)   bands (ev):

    -5.7774   5.9573   6.0491   6.0491   8.6881   9.0326   9.0326   9.9698

          k = 0.0000 0.0000 0.2000 (   825 PWs)   bands (ev):

    -5.6442   5.3114   5.6405   5.6405   8.4010   9.6005   9.6005  10.5046

          k = 0.0000 0.0000 0.3000 (   813 PWs)   bands (ev):

    -5.4230   4.5055   5.1692   5.1692   8.0302  10.3340  10.3340  10.6779

          k = 0.0000 0.0000 0.4000 (   829 PWs)   bands (ev):

    -5.1153   3.6359   4.7129   4.7129   7.6503  10.1020  11.1511  11.1511

          k = 0.0000 0.0000 0.5000 (   833 PWs)   bands (ev):

    -4.7226   2.7400   4.3043   4.3043   7.3078   9.3186  12.0164  12.0164

          k = 0.0000 0.0000 0.6000 (   821 PWs)   bands (ev):

    -4.2475   1.8358   3.9588   3.9588   7.0308   8.5835  12.9130  12.9130

          k = 0.0000 0.0000 0.7000 (   805 PWs)   bands (ev):

    -3.6935   0.9365   3.6844   3.6844   6.8366   7.9593  13.8333  13.8333

          k = 0.0000 0.0000 0.8000 (   805 PWs)   bands (ev):

    -3.0652   0.0539   3.4857   3.4857   6.7373   7.4637  14.7714  14.7714

          k = 0.0000 0.0000 0.9000 (   798 PWs)   bands (ev):

    -2.3681  -0.7988   3.3656   3.3656   6.7426   7.0988  15.7105  15.7105

          k = 0.0000 0.0000 1.0000 (   790 PWs)   bands (ev):

    -1.6096  -1.6096   3.3255   3.3255   6.8606   6.8606  16.3840  16.3840

          k = 0.0000 0.1000 1.0000 (   796 PWs)   bands (ev):

    -1.5941  -1.5941   3.1943   3.1943   7.1020   7.1020  15.9216  15.9216

          k = 0.0000 0.2000 1.0000 (   804 PWs)   bands (ev):

    -1.5522  -1.5522   2.8960   2.8960   7.7338   7.7338  14.7466  14.7466

          k = 0.0000 0.3000 1.0000 (   802 PWs)   bands (ev):

    -1.4973  -1.4973   2.5840   2.5840   8.6093   8.6093  13.4402  13.4402

          k = 0.0000 0.4000 1.0000 (   792 PWs)   bands (ev):

    -1.4500  -1.4500   2.3598   2.3598   9.6247   9.6247  12.1686  12.1686

          k = 0.0000 0.5000 1.0000 (   792 PWs)   bands (ev):

    -1.4312  -1.4312   2.2789   2.2789  10.4465  10.4465  11.2624  11.2624

          k = 0.0000 0.6000 1.0000 (   792 PWs)   bands (ev):

    -1.4500  -1.4500   2.3598   2.3598   9.6247   9.6247  12.1686  12.1686

          k = 0.0000 0.7000 1.0000 (   802 PWs)   bands (ev):

    -1.4973  -1.4973   2.5840   2.5840   8.6093   8.6093  13.4402  13.4402

          k = 0.0000 0.8000 1.0000 (   804 PWs)   bands (ev):

    -1.5522  -1.5522   2.8960   2.8960   7.7338   7.7338  14.7466  14.7466

          k = 0.0000 0.9000 1.0000 (   796 PWs)   bands (ev):

    -1.5941  -1.5941   3.1943   3.1943   7.1020   7.1020  15.9216  15.9216

          k = 0.0000 1.0000 1.0000 (   790 PWs)   bands (ev):

    -1.6096  -1.6096   3.3255   3.3255   6.8606   6.8606  16.3840  16.3840

          k = 0.0000 0.9000 0.9000 (   800 PWs)   bands (ev):

    -1.6472  -1.5144   2.8226   3.3969   6.9433   7.6541  15.6358  15.9212

          k = 0.0000 0.8000 0.8000 (   808 PWs)   bands (ev):

    -1.8264  -1.2294   2.0629   3.6073   7.1880   9.3438  14.3741  14.8903

          k = 0.0000 0.7000 0.7000 (   808 PWs)   bands (ev):

    -2.2762  -0.7560   1.7056   3.9444   7.5816  11.3461  13.1339  13.6420

          k = 0.0000 0.6000 0.6000 (   804 PWs)   bands (ev):

    -2.9713  -0.0975   1.8605   4.3832   8.0949  12.0143  12.2351  13.0985

          k = 0.0000 0.5000 0.5000 (   804 PWs)   bands (ev):

    -3.7392   0.7410   2.3895   4.8812   8.6612  11.0461  11.3380  12.3837

          k = 0.0000 0.4000 0.4000 (   813 PWs)   bands (ev):

    -4.4491   1.7513   3.1604   5.3731   9.1371  10.2438  10.5214  11.9681

          k = 0.0000 0.3000 0.3000 (   815 PWs)   bands (ev):

    -5.0357   2.9178   4.0789   5.7811   9.3302   9.6144   9.8549  11.8847

          k = 0.0000 0.2000 0.2000 (   825 PWs)   bands (ev):

    -5.4687   4.2050   5.0417   6.0518   9.1624   9.2556   9.3350  11.4768

          k = 0.0000 0.1000 0.1000 (   825 PWs)   bands (ev):

    -5.7330   5.4965   5.8689   6.1891   8.8904   8.9592   9.0574  10.3008

          k = 0.0000 0.0000 0.0000 (   869 PWs)   bands (ev):

    -5.8219   6.2285   6.2285   6.2285   8.7992   8.7992   8.7992   9.7071

     Writing all to output data dir ../tmp/silicon.save/ :
     XML data file, pseudopotentials, collected wavefunctions

     init_run     :      0.14s CPU      0.14s WALL (       1 calls)
     electrons    :      1.88s CPU      1.94s WALL (       1 calls)

     Called by init_run:
     wfcinit      :      0.00s CPU      0.00s WALL (       1 calls)
     potinit      :      0.00s CPU      0.00s WALL (       1 calls)
     hinit0       :      0.13s CPU      0.13s WALL (       1 calls)

     Called by electrons:
     c_bands      :      1.88s CPU      1.94s WALL (       1 calls)
     v_of_rho     :      0.00s CPU      0.00s WALL (       1 calls)

     Called by c_bands:
     init_us_2    :      0.00s CPU      0.00s WALL (      36 calls)
     cegterg      :      1.66s CPU      1.71s WALL (      46 calls)

     Called by *egterg:
     cdiaghg      :      0.05s CPU      0.05s WALL (     708 calls)
     h_psi        :      1.42s CPU      1.45s WALL (     754 calls)
     g_psi        :      0.01s CPU      0.01s WALL (     672 calls)

     Called by h_psi:
     h_psi:calbec :      0.04s CPU      0.05s WALL (     754 calls)
     vloc_psi     :      1.32s CPU      1.36s WALL (     754 calls)
     add_vuspsi   :      0.04s CPU      0.04s WALL (     754 calls)

     General routines
     calbec       :      0.04s CPU      0.04s WALL (     754 calls)
     fft          :      0.12s CPU      0.12s WALL (       3 calls)
     fftw         :      1.12s CPU      1.15s WALL (    8542 calls)
     davcio       :      0.00s CPU      0.00s WALL (      72 calls)

     Parallel routines

     PWSCF        :      2.06s CPU      2.12s WALL


   This run was terminated on:  15:39:52   6Oct2026            

=------------------------------------------------------------------------------=
   JOB DONE.
=------------------------------------------------------------------------------=
