
     Program PWSCF v.7.3.1 starts on  6Oct2026 at 15:31: 3 

     This program is part of the open-source Quantum ESPRESSO suite
     for quantum simulation of materials; please cite
         "P. Giannozzi et al., J. Phys.:Condens. Matter 21 395502 (2009);
         "P. Giannozzi et al., J. Phys.:Condens. Matter 29 465901 (2017);
         "P. Giannozzi et al., J. Chem. Phys. 152 154105 (2020);
          URL http://www.quantum-espresso.org", 
     in publications or presentations arising from this work. More details at
     http://www.quantum-espresso.org/quote

     Parallel version (MPI), running on     1 processors

     MPI processes distributed on     1 nodes
     4433 MiB available memory on the printing compute node when the environment starts

     Waiting for input...
     Reading input from standard input

     Current dimensions of program PWSCF are:
     Max number of different atomic species (ntypx) = 10
     Max number of k-points (npk) =  40000
     Max angular momentum in pseudopotentials (lmaxx) =  4

     Subspace diagonalization in iterative solution of the eigenvalue problem:
     a serial algorithm will be used


     G-vector sticks info
     --------------------
     sticks:   dense  smooth     PW     G-vecs:    dense   smooth      PW
     Sum         451     451    151                 6423     6423    1243

     Using Slab Decomposition



     bravais-lattice index     =            2
     lattice parameter (alat)  =      10.2129  a.u.
     unit-cell volume          =     266.3099 (a.u.)^3
     number of atoms/cell      =            2
     number of atomic types    =            1
     number of electrons       =         8.00
     number of Kohn-Sham states=            4
     kinetic-energy cutoff     =      32.0000  Ry
     charge density cutoff     =     128.0000  Ry
     scf convergence threshold =      1.0E-06
     mixing beta               =       0.7000
     number of iterations used =            8  plain     mixing
     Exchange-correlation=  SLA  PZ   NOGX NOGC
                           (   1   1   0   0   0   0   0)

     celldm(1)=  10.212900  celldm(2)=   0.000000  celldm(3)=   0.000000
     celldm(4)=   0.000000  celldm(5)=   0.000000  celldm(6)=   0.000000

     crystal axes: (cart. coord. in units of alat)
               a(1) = (  -0.500000   0.000000   0.500000 )  
               a(2) = (   0.000000   0.500000   0.500000 )  
               a(3) = (  -0.500000   0.500000   0.000000 )  

     reciprocal axes: (cart. coord. in units 2 pi/alat)
               b(1) = ( -1.000000 -1.000000  1.000000 )  
               b(2) = (  1.000000  1.000000  1.000000 )  
               b(3) = ( -1.000000  1.000000 -1.000000 )  


     PseudoPot. # 1 for Si read from file:
     /home/manuel/pseudo/Si.pz-vbc.UPF
     MD5 check sum: 6dfa03ddd5817404712e03e4d12deb78
     Pseudo is Norm-conserving, Zval =  4.0
     Generated by new atomic code, or converted to UPF format
     Using radial grid of  431 points,  2 beta functions with: 
                l(1) =   0
                l(2) =   1

     atomic species   valence    mass     pseudopotential
     Si                4.00    28.08600     Si( 1.00)

     48 Sym. Ops., with inversion, found (24 have fractional translation)



   Cartesian axes

     site n.     atom                  positions (alat units)
         1        Si     tau(   1) = (   0.0000000   0.0000000   0.0000000  )
         2        Si     tau(   2) = (   0.2500000   0.2500000   0.2500000  )

     number of k points=    28
                       cart. coord. in units 2pi/alat
        k(    1) = (  -0.0833333   0.0833333   0.0833333), wk =   0.0185185
        k(    2) = (  -0.2500000   0.2500000  -0.0833333), wk =   0.0555556
        k(    3) = (  -0.4166667   0.4166667  -0.2500000), wk =   0.0555556
        k(    4) = (   0.4166667  -0.4166667   0.5833333), wk =   0.0555556
        k(    5) = (   0.2500000  -0.2500000   0.4166667), wk =   0.0555556
        k(    6) = (   0.0833333  -0.0833333   0.2500000), wk =   0.0555556
        k(    7) = (  -0.0833333   0.4166667   0.0833333), wk =   0.0555556
        k(    8) = (  -0.2500000   0.5833333  -0.0833333), wk =   0.1111111
        k(    9) = (   0.5833333  -0.2500000   0.7500000), wk =   0.1111111
        k(   10) = (   0.4166667  -0.0833333   0.5833333), wk =   0.1111111
        k(   11) = (   0.2500000   0.0833333   0.4166667), wk =   0.1111111
        k(   12) = (  -0.0833333   0.7500000   0.0833333), wk =   0.0555556
        k(   13) = (   0.7500000  -0.0833333   0.9166667), wk =   0.1111111
        k(   14) = (   0.5833333   0.0833333   0.7500000), wk =   0.1111111
        k(   15) = (   0.4166667   0.2500000   0.5833333), wk =   0.1111111
        k(   16) = (  -0.0833333  -0.9166667   0.0833333), wk =   0.0555556
        k(   17) = (  -0.2500000  -0.7500000  -0.0833333), wk =   0.1111111
        k(   18) = (  -0.0833333  -0.5833333   0.0833333), wk =   0.0555556
        k(   19) = (  -0.2500000   0.2500000   0.2500000), wk =   0.0185185
        k(   20) = (  -0.4166667   0.4166667   0.0833333), wk =   0.0555556
        k(   21) = (   0.4166667  -0.4166667   0.9166667), wk =   0.0555556
        k(   22) = (   0.2500000  -0.2500000   0.7500000), wk =   0.0555556
        k(   23) = (  -0.2500000   0.5833333   0.2500000), wk =   0.0555556
        k(   24) = (   0.5833333  -0.2500000   1.0833333), wk =   0.1111111
        k(   25) = (   0.4166667  -0.0833333   0.9166667), wk =   0.1111111
        k(   26) = (  -0.2500000  -1.0833333   0.2500000), wk =   0.0555556
        k(   27) = (  -0.4166667   0.4166667   0.4166667), wk =   0.0185185
        k(   28) = (   0.4166667  -0.4166667   1.2500000), wk =   0.0555556

     Dense  grid:     6423 G-vectors     FFT dimensions: (  32,  32,  32)

     Estimated max dynamical RAM per process >       6.74 MB

     Initial potential from superposition of free atoms

     starting charge       7.9990, renormalised to       8.0000
     Starting wfcs are    8 randomized atomic wfcs

     total cpu time spent up to now is        0.4 secs

     Self-consistent Calculation

     iteration #  1     ecut=    32.00 Ry     beta= 0.70
     Davidson diagonalization with overlap
     ethr =  1.00E-02,  avg # of iterations =  2.0

     Threshold (ethr) on eigenvalues was too large:
     Diagonalizing with lowered threshold

     Davidson diagonalization with overlap
     ethr =  6.88E-04,  avg # of iterations =  1.1

     total cpu time spent up to now is        0.6 secs

     total energy              =     -15.84891012 Ry
     estimated scf accuracy    <       0.06073529 Ry

     iteration #  2     ecut=    32.00 Ry     beta= 0.70
     Davidson diagonalization with overlap
     ethr =  7.59E-04,  avg # of iterations =  1.0

     total cpu time spent up to now is        0.7 secs

     total energy              =     -15.85211879 Ry
     estimated scf accuracy    <       0.00220703 Ry

     iteration #  3     ecut=    32.00 Ry     beta= 0.70
     Davidson diagonalization with overlap
     ethr =  2.76E-05,  avg # of iterations =  2.5

     total cpu time spent up to now is        0.8 secs

     total energy              =     -15.85261082 Ry
     estimated scf accuracy    <       0.00007340 Ry

     iteration #  4     ecut=    32.00 Ry     beta= 0.70
     Davidson diagonalization with overlap
     ethr =  9.17E-07,  avg # of iterations =  3.0

     total cpu time spent up to now is        1.0 secs

     total energy              =     -15.85264154 Ry
     estimated scf accuracy    <       0.00000219 Ry

     iteration #  5     ecut=    32.00 Ry     beta= 0.70
     Davidson diagonalization with overlap
     ethr =  2.74E-08,  avg # of iterations =  4.1

     total cpu time spent up to now is        1.2 secs

     End of self-consistent calculation

          k =-0.0833 0.0833 0.0833 (   842 PWs)   bands (ev):

    -5.7426   5.3331   6.0442   6.0442

          k =-0.2500 0.2500-0.0833 (   820 PWs)   bands (ev):

    -5.2578   3.2442   4.7830   5.8346

          k =-0.4167 0.4167-0.2500 (   814 PWs)   bands (ev):

    -4.1417   0.4352   4.3191   5.1874

          k = 0.4167-0.4167 0.5833 (   815 PWs)   bands (ev):

    -3.4172  -0.7415   4.3917   4.7984

          k = 0.2500-0.2500 0.4167 (   816 PWs)   bands (ev):

    -4.5639   1.2981   4.8557   4.8999

          k = 0.0833-0.0833 0.2500 (   824 PWs)   bands (ev):

    -5.4980   4.2673   5.3841   5.5836

          k =-0.0833 0.4167 0.0833 (   826 PWs)   bands (ev):

    -5.0130   3.0785   4.6317   4.6402

          k =-0.2500 0.5833-0.0833 (   818 PWs)   bands (ev):

    -4.0854   1.2228   3.2763   4.2462

          k = 0.5833-0.2500 0.7500 (   813 PWs)   bands (ev):

    -2.9343  -0.5794   2.6713   4.0106

          k = 0.4167-0.0833 0.5833 (   815 PWs)   bands (ev):

    -3.6803   0.5126   2.6162   4.5115

          k = 0.2500 0.0833 0.4167 (   822 PWs)   bands (ev):

    -4.7829   2.2187   3.9902   5.1995

          k =-0.0833 0.7500 0.0833 (   807 PWs)   bands (ev):

    -3.3633   0.4068   3.2367   3.5927

          k = 0.7500-0.0833 0.9167 (   803 PWs)   bands (ev):

    -2.1411  -0.9496   2.3624   3.1679

          k = 0.5833 0.0833 0.7500 (   811 PWs)   bands (ev):

    -2.5080  -0.6285   1.8685   3.7275

          k = 0.4167 0.2500 0.5833 (   811 PWs)   bands (ev):

    -3.5606  -0.2146   3.5980   4.6137

          k =-0.0833-0.9167 0.0833 (   805 PWs)   bands (ev):

    -2.2399  -0.9603   2.9602   3.3734

          k =-0.2500-0.7500-0.0833 (   809 PWs)   bands (ev):

    -3.1885   0.1766   2.6994   3.5160

          k =-0.0833-0.5833 0.0833 (   824 PWs)   bands (ev):

    -4.2963   1.7823   3.7975   4.0226

          k =-0.2500 0.2500 0.2500 (   815 PWs)   bands (ev):

    -5.0238   2.2439   5.4218   5.4218

          k =-0.4167 0.4167 0.0833 (   816 PWs)   bands (ev):

    -4.3315   1.3206   3.2397   5.2519

          k = 0.4167-0.4167 0.9167 (   811 PWs)   bands (ev):

    -3.1236  -0.1283   2.0999   4.4476

          k = 0.2500-0.2500 0.7500 (   808 PWs)   bands (ev):

    -3.0728  -0.2080   2.5972   3.9542

          k =-0.2500 0.5833 0.2500 (   815 PWs)   bands (ev):

    -3.8980   0.4940   3.7304   4.3348

          k = 0.5833-0.2500 1.0833 (   810 PWs)   bands (ev):

    -2.8739  -0.2269   2.2004   3.5087

          k = 0.4167-0.0833 0.9167 (   809 PWs)   bands (ev):

    -2.0251  -0.9574   2.0208   2.8197

          k =-0.2500-1.0833 0.2500 (   814 PWs)   bands (ev):

    -2.2380  -0.8734   1.8913   3.7557

          k =-0.4167 0.4167 0.4167 (   811 PWs)   bands (ev):

    -3.8004  -0.3307   5.0295   5.0295

          k = 0.4167-0.4167 1.2500 (   815 PWs)   bands (ev):

    -3.1787  -0.6273   3.1613   4.5778

     highest occupied level (ev):     6.0442

!    total energy              =     -15.85264300 Ry
     estimated scf accuracy    <       0.00000009 Ry

     The total energy is the sum of the following terms:
     one-electron contribution =       4.75719746 Ry
     hartree contribution      =       1.08135649 Ry
     xc contribution           =      -4.81278456 Ry
     ewald contribution        =     -16.87841239 Ry

     convergence has been achieved in   5 iterations

     Writing all to output data dir ../tmp/silicon.save/ :
     XML data file, charge density, pseudopotentials, collected wavefunctions

     init_run     :      0.33s CPU      0.34s WALL (       1 calls)
     electrons    :      0.79s CPU      0.82s WALL (       1 calls)

     Called by init_run:
     wfcinit      :      0.19s CPU      0.19s WALL (       1 calls)
     potinit      :      0.01s CPU      0.01s WALL (       1 calls)
     hinit0       :      0.12s CPU      0.13s WALL (       1 calls)

     Called by electrons:
     c_bands      :      0.67s CPU      0.69s WALL (       6 calls)
     sum_band     :      0.11s CPU      0.12s WALL (       6 calls)
     v_of_rho     :      0.01s CPU      0.01s WALL (       6 calls)
     mix_rho      :      0.00s CPU      0.00s WALL (       6 calls)

     Called by c_bands:
     init_us_2    :      0.03s CPU      0.03s WALL (     364 calls)
     cegterg      :      0.65s CPU      0.67s WALL (     168 calls)

     Called by *egterg:
     cdiaghg      :      0.01s CPU      0.01s WALL (     524 calls)
     h_psi        :      0.73s CPU      0.75s WALL (     580 calls)
     g_psi        :      0.00s CPU      0.00s WALL (     384 calls)

     Called by h_psi:
     h_psi:calbec :      0.02s CPU      0.02s WALL (     580 calls)
     vloc_psi     :      0.68s CPU      0.70s WALL (     580 calls)
     add_vuspsi   :      0.02s CPU      0.02s WALL (     580 calls)

     General routines
     calbec       :      0.02s CPU      0.02s WALL (     580 calls)
     fft          :      0.12s CPU      0.12s WALL (      18 calls)
     ffts         :      0.00s CPU      0.00s WALL (       6 calls)
     fftw         :      0.65s CPU      0.67s WALL (    4906 calls)

     Parallel routines

     PWSCF        :      1.14s CPU      1.19s WALL


   This run was terminated on:  15:31: 4   6Oct2026            

=------------------------------------------------------------------------------=
   JOB DONE.
=------------------------------------------------------------------------------=
