
     Program PWSCF v.7.3.1 starts on  6Oct2026 at 15:38:40 

     This program is part of the open-source Quantum ESPRESSO suite
     for quantum simulation of materials; please cite
         "P. Giannozzi et al., J. Phys.:Condens. Matter 21 395502 (2009);
         "P. Giannozzi et al., J. Phys.:Condens. Matter 29 465901 (2017);
         "P. Giannozzi et al., J. Chem. Phys. 152 154105 (2020);
          URL http://www.quantum-espresso.org", 
     in publications or presentations arising from this work. More details at
     http://www.quantum-espresso.org/quote

     Parallel version (MPI), running on     1 processors

     MPI processes distributed on     1 nodes
     4460 MiB available memory on the printing compute node when the environment starts

     Waiting for input...
     Reading input from standard input

     Current dimensions of program PWSCF are:
     Max number of different atomic species (ntypx) = 10
     Max number of k-points (npk) =  40000
     Max angular momentum in pseudopotentials (lmaxx) =  4

     Atomic positions and unit cell read from directory:
     ../tmp/silicon.save/


     Subspace diagonalization in iterative solution of the eigenvalue problem:
     a serial algorithm will be used


     G-vector sticks info
     --------------------
     sticks:   dense  smooth     PW     G-vecs:    dense   smooth      PW
     Sum         451     451    151                 6423     6423    1243

     Using Slab Decomposition



     bravais-lattice index     =            2
     lattice parameter (alat)  =      10.2000  a.u.
     unit-cell volume          =     265.3020 (a.u.)^3
     number of atoms/cell      =            2
     number of atomic types    =            1
     number of electrons       =         8.00
     number of Kohn-Sham states=            4
     kinetic-energy cutoff     =      32.0000  Ry
     charge density cutoff     =     128.0000  Ry
     Exchange-correlation=  SLA  PZ   NOGX NOGC
                           (   1   1   0   0   0   0   0)

     celldm(1)=  10.200000  celldm(2)=   0.000000  celldm(3)=   0.000000
     celldm(4)=   0.000000  celldm(5)=   0.000000  celldm(6)=   0.000000

     crystal axes: (cart. coord. in units of alat)
               a(1) = (  -0.500000   0.000000   0.500000 )  
               a(2) = (   0.000000   0.500000   0.500000 )  
               a(3) = (  -0.500000   0.500000   0.000000 )  

     reciprocal axes: (cart. coord. in units 2 pi/alat)
               b(1) = ( -1.000000 -1.000000  1.000000 )  
               b(2) = (  1.000000  1.000000  1.000000 )  
               b(3) = ( -1.000000  1.000000 -1.000000 )  


     PseudoPot. # 1 for Si read from file:
     /home/manuel/pseudo/Si.pz-vbc.UPF
     MD5 check sum: 6dfa03ddd5817404712e03e4d12deb78
     Pseudo is Norm-conserving, Zval =  4.0
     Generated by new atomic code, or converted to UPF format
     Using radial grid of  431 points,  2 beta functions with: 
                l(1) =   0
                l(2) =   1

     atomic species   valence    mass     pseudopotential
     Si                4.00    28.08600     Si( 1.00)

     48 Sym. Ops., with inversion, found (24 have fractional translation)



   Cartesian axes

     site n.     atom                  positions (alat units)
         1        Si     tau(   1) = (   0.0000000   0.0000000   0.0000000  )
         2        Si     tau(   2) = (   0.2500000   0.2500000   0.2500000  )

     number of k points=    28
                       cart. coord. in units 2pi/alat
        k(    1) = (  -0.0833333   0.0833333   0.0833333), wk =   0.0185185
        k(    2) = (  -0.2500000   0.2500000  -0.0833333), wk =   0.0555556
        k(    3) = (  -0.4166667   0.4166667  -0.2500000), wk =   0.0555556
        k(    4) = (   0.4166667  -0.4166667   0.5833333), wk =   0.0555556
        k(    5) = (   0.2500000  -0.2500000   0.4166667), wk =   0.0555556
        k(    6) = (   0.0833333  -0.0833333   0.2500000), wk =   0.0555556
        k(    7) = (  -0.0833333   0.4166667   0.0833333), wk =   0.0555556
        k(    8) = (  -0.2500000   0.5833333  -0.0833333), wk =   0.1111111
        k(    9) = (   0.5833333  -0.2500000   0.7500000), wk =   0.1111111
        k(   10) = (   0.4166667  -0.0833333   0.5833333), wk =   0.1111111
        k(   11) = (   0.2500000   0.0833333   0.4166667), wk =   0.1111111
        k(   12) = (  -0.0833333   0.7500000   0.0833333), wk =   0.0555556
        k(   13) = (   0.7500000  -0.0833333   0.9166667), wk =   0.1111111
        k(   14) = (   0.5833333   0.0833333   0.7500000), wk =   0.1111111
        k(   15) = (   0.4166667   0.2500000   0.5833333), wk =   0.1111111
        k(   16) = (  -0.0833333  -0.9166667   0.0833333), wk =   0.0555556
        k(   17) = (  -0.2500000  -0.7500000  -0.0833333), wk =   0.1111111
        k(   18) = (  -0.0833333  -0.5833333   0.0833333), wk =   0.0555556
        k(   19) = (  -0.2500000   0.2500000   0.2500000), wk =   0.0185185
        k(   20) = (  -0.4166667   0.4166667   0.0833333), wk =   0.0555556
        k(   21) = (   0.4166667  -0.4166667   0.9166667), wk =   0.0555556
        k(   22) = (   0.2500000  -0.2500000   0.7500000), wk =   0.0555556
        k(   23) = (  -0.2500000   0.5833333   0.2500000), wk =   0.0555556
        k(   24) = (   0.5833333  -0.2500000   1.0833333), wk =   0.1111111
        k(   25) = (   0.4166667  -0.0833333   0.9166667), wk =   0.1111111
        k(   26) = (  -0.2500000  -1.0833333   0.2500000), wk =   0.0555556
        k(   27) = (  -0.4166667   0.4166667   0.4166667), wk =   0.0185185
        k(   28) = (   0.4166667  -0.4166667   1.2500000), wk =   0.0555556

     Dense  grid:     6423 G-vectors     FFT dimensions: (  32,  32,  32)

     Estimated max dynamical RAM per process >       3.43 MB

     The potential is recalculated from file :
     ../tmp/silicon.save/charge-density

     Starting wfcs are    8 randomized atomic wfcs

     Band Structure Calculation
     Davidson diagonalization with overlap

     ethr =  1.25E-08,  avg # of iterations = 13.1

     total cpu time spent up to now is        0.9 secs

     End of band structure calculation

          k =-0.0833 0.0833 0.0833 (   824 PWs)   bands (ev):

    -5.7293   5.3719   6.0825   6.0825

          k =-0.2500 0.2500-0.0833 (   818 PWs)   bands (ev):

    -5.2431   3.2797   4.8170   5.8728

          k =-0.4167 0.4167-0.2500 (   812 PWs)   bands (ev):

    -4.1228   0.4620   4.3530   5.2236

          k = 0.4167-0.4167 0.5833 (   808 PWs)   bands (ev):

    -3.3948  -0.7195   4.4266   4.8331

          k = 0.2500-0.2500 0.4167 (   813 PWs)   bands (ev):

    -4.5467   1.3277   4.8901   4.9364

          k = 0.0833-0.0833 0.2500 (   820 PWs)   bands (ev):

    -5.4840   4.3054   5.4197   5.6216

          k =-0.0833 0.4167 0.0833 (   822 PWs)   bands (ev):

    -4.9974   3.1165   4.6662   4.6734

          k =-0.2500 0.5833-0.0833 (   816 PWs)   bands (ev):

    -4.0666   1.2561   3.3054   4.2784

          k = 0.5833-0.2500 0.7500 (   810 PWs)   bands (ev):

    -2.9105  -0.5540   2.6998   4.0416

          k = 0.4167-0.0833 0.5833 (   812 PWs)   bands (ev):

    -3.6599   0.5431   2.6431   4.5447

          k = 0.2500 0.0833 0.4167 (   817 PWs)   bands (ev):

    -4.7665   2.2528   4.0218   5.2358

          k =-0.0833 0.7500 0.0833 (   805 PWs)   bands (ev):

    -3.3423   0.4400   3.2650   3.6227

          k = 0.7500-0.0833 0.9167 (   800 PWs)   bands (ev):

    -2.1156  -0.9204   2.3866   3.1958

          k = 0.5833 0.0833 0.7500 (   807 PWs)   bands (ev):

    -2.4827  -0.6001   1.8914   3.7575

          k = 0.4167 0.2500 0.5833 (   808 PWs)   bands (ev):

    -3.5393  -0.1894   3.6302   4.6474

          k =-0.0833-0.9167 0.0833 (   802 PWs)   bands (ev):

    -2.2151  -0.9313   2.9874   3.4028

          k =-0.2500-0.7500-0.0833 (   808 PWs)   bands (ev):

    -3.1667   0.2087   2.7256   3.5450

          k =-0.0833-0.5833 0.0833 (   822 PWs)   bands (ev):

    -4.2784   1.8189   3.8281   4.0538

          k =-0.2500 0.2500 0.2500 (   815 PWs)   bands (ev):

    -5.0083   2.2758   5.4583   5.4583

          k =-0.4167 0.4167 0.0833 (   813 PWs)   bands (ev):

    -4.3135   1.3523   3.2689   5.2881

          k = 0.4167-0.4167 0.9167 (   806 PWs)   bands (ev):

    -3.1008  -0.0996   2.1245   4.4808

          k = 0.2500-0.2500 0.7500 (   808 PWs)   bands (ev):

    -3.0501  -0.1795   2.6242   3.9855

          k =-0.2500 0.5833 0.2500 (   815 PWs)   bands (ev):

    -3.8784   0.5225   3.7631   4.3674

          k = 0.5833-0.2500 1.0833 (   809 PWs)   bands (ev):

    -2.8505  -0.1969   2.2251   3.5373

          k = 0.4167-0.0833 0.9167 (   805 PWs)   bands (ev):

    -1.9984  -0.9282   2.0436   2.8454

          k =-0.2500-1.0833 0.2500 (   812 PWs)   bands (ev):

    -2.2120  -0.8450   1.9136   3.7864

          k =-0.4167 0.4167 0.4167 (   805 PWs)   bands (ev):

    -3.7798  -0.3071   5.0652   5.0652

          k = 0.4167-0.4167 1.2500 (   811 PWs)   bands (ev):

    -3.1556  -0.6037   3.1919   4.6116

     highest occupied level (ev):     6.0825

     Writing all to output data dir ../tmp/silicon.save/ :
     XML data file, pseudopotentials, collected wavefunctions

     init_run     :      0.14s CPU      0.14s WALL (       1 calls)
     electrons    :      0.69s CPU      0.70s WALL (       1 calls)

     Called by init_run:
     wfcinit      :      0.00s CPU      0.00s WALL (       1 calls)
     potinit      :      0.00s CPU      0.01s WALL (       1 calls)
     hinit0       :      0.13s CPU      0.13s WALL (       1 calls)

     Called by electrons:
     c_bands      :      0.69s CPU      0.70s WALL (       1 calls)
     v_of_rho     :      0.00s CPU      0.00s WALL (       1 calls)

     Called by c_bands:
     init_us_2    :      0.00s CPU      0.00s WALL (      28 calls)
     cegterg      :      0.50s CPU      0.51s WALL (      28 calls)

     Called by *egterg:
     cdiaghg      :      0.01s CPU      0.01s WALL (     396 calls)
     h_psi        :      0.58s CPU      0.59s WALL (     424 calls)
     g_psi        :      0.00s CPU      0.00s WALL (     368 calls)

     Called by h_psi:
     h_psi:calbec :      0.02s CPU      0.02s WALL (     424 calls)
     vloc_psi     :      0.55s CPU      0.56s WALL (     424 calls)
     add_vuspsi   :      0.02s CPU      0.02s WALL (     424 calls)

     General routines
     calbec       :      0.02s CPU      0.02s WALL (     424 calls)
     fft          :      0.12s CPU      0.12s WALL (       3 calls)
     fftw         :      0.47s CPU      0.48s WALL (    3186 calls)
     davcio       :      0.00s CPU      0.00s WALL (      56 calls)

     Parallel routines

     PWSCF        :      0.86s CPU      0.90s WALL


   This run was terminated on:  15:38:41   6Oct2026            

=------------------------------------------------------------------------------=
   JOB DONE.
=------------------------------------------------------------------------------=
