
     Program PWSCF v.7.3.1 starts on  6Oct2026 at 15:38: 7 

     This program is part of the open-source Quantum ESPRESSO suite
     for quantum simulation of materials; please cite
         "P. Giannozzi et al., J. Phys.:Condens. Matter 21 395502 (2009);
         "P. Giannozzi et al., J. Phys.:Condens. Matter 29 465901 (2017);
         "P. Giannozzi et al., J. Chem. Phys. 152 154105 (2020);
          URL http://www.quantum-espresso.org", 
     in publications or presentations arising from this work. More details at
     http://www.quantum-espresso.org/quote

     Parallel version (MPI), running on     1 processors

     MPI processes distributed on     1 nodes
     4475 MiB available memory on the printing compute node when the environment starts

     Waiting for input...
     Reading input from standard input

     Current dimensions of program PWSCF are:
     Max number of different atomic species (ntypx) = 10
     Max number of k-points (npk) =  40000
     Max angular momentum in pseudopotentials (lmaxx) =  4

     Subspace diagonalization in iterative solution of the eigenvalue problem:
     a serial algorithm will be used


     G-vector sticks info
     --------------------
     sticks:   dense  smooth     PW     G-vecs:    dense   smooth      PW
     Sum         451     451    151                 6423     6423    1243

     Using Slab Decomposition



     bravais-lattice index     =            2
     lattice parameter (alat)  =      10.2000  a.u.
     unit-cell volume          =     265.3020 (a.u.)^3
     number of atoms/cell      =            2
     number of atomic types    =            1
     number of electrons       =         8.00
     number of Kohn-Sham states=            4
     kinetic-energy cutoff     =      32.0000  Ry
     charge density cutoff     =     128.0000  Ry
     scf convergence threshold =      1.0E-06
     mixing beta               =       0.7000
     number of iterations used =            8  plain     mixing
     Exchange-correlation=  SLA  PZ   NOGX NOGC
                           (   1   1   0   0   0   0   0)

     celldm(1)=  10.200000  celldm(2)=   0.000000  celldm(3)=   0.000000
     celldm(4)=   0.000000  celldm(5)=   0.000000  celldm(6)=   0.000000

     crystal axes: (cart. coord. in units of alat)
               a(1) = (  -0.500000   0.000000   0.500000 )  
               a(2) = (   0.000000   0.500000   0.500000 )  
               a(3) = (  -0.500000   0.500000   0.000000 )  

     reciprocal axes: (cart. coord. in units 2 pi/alat)
               b(1) = ( -1.000000 -1.000000  1.000000 )  
               b(2) = (  1.000000  1.000000  1.000000 )  
               b(3) = ( -1.000000  1.000000 -1.000000 )  


     PseudoPot. # 1 for Si read from file:
     /home/manuel/pseudo/Si.pz-vbc.UPF
     MD5 check sum: 6dfa03ddd5817404712e03e4d12deb78
     Pseudo is Norm-conserving, Zval =  4.0
     Generated by new atomic code, or converted to UPF format
     Using radial grid of  431 points,  2 beta functions with: 
                l(1) =   0
                l(2) =   1

     atomic species   valence    mass     pseudopotential
     Si                4.00    28.08600     Si( 1.00)

     48 Sym. Ops., with inversion, found (24 have fractional translation)



   Cartesian axes

     site n.     atom                  positions (alat units)
         1        Si     tau(   1) = (   0.0000000   0.0000000   0.0000000  )
         2        Si     tau(   2) = (   0.2500000   0.2500000   0.2500000  )

     number of k points=    28
                       cart. coord. in units 2pi/alat
        k(    1) = (  -0.0833333   0.0833333   0.0833333), wk =   0.0185185
        k(    2) = (  -0.2500000   0.2500000  -0.0833333), wk =   0.0555556
        k(    3) = (  -0.4166667   0.4166667  -0.2500000), wk =   0.0555556
        k(    4) = (   0.4166667  -0.4166667   0.5833333), wk =   0.0555556
        k(    5) = (   0.2500000  -0.2500000   0.4166667), wk =   0.0555556
        k(    6) = (   0.0833333  -0.0833333   0.2500000), wk =   0.0555556
        k(    7) = (  -0.0833333   0.4166667   0.0833333), wk =   0.0555556
        k(    8) = (  -0.2500000   0.5833333  -0.0833333), wk =   0.1111111
        k(    9) = (   0.5833333  -0.2500000   0.7500000), wk =   0.1111111
        k(   10) = (   0.4166667  -0.0833333   0.5833333), wk =   0.1111111
        k(   11) = (   0.2500000   0.0833333   0.4166667), wk =   0.1111111
        k(   12) = (  -0.0833333   0.7500000   0.0833333), wk =   0.0555556
        k(   13) = (   0.7500000  -0.0833333   0.9166667), wk =   0.1111111
        k(   14) = (   0.5833333   0.0833333   0.7500000), wk =   0.1111111
        k(   15) = (   0.4166667   0.2500000   0.5833333), wk =   0.1111111
        k(   16) = (  -0.0833333  -0.9166667   0.0833333), wk =   0.0555556
        k(   17) = (  -0.2500000  -0.7500000  -0.0833333), wk =   0.1111111
        k(   18) = (  -0.0833333  -0.5833333   0.0833333), wk =   0.0555556
        k(   19) = (  -0.2500000   0.2500000   0.2500000), wk =   0.0185185
        k(   20) = (  -0.4166667   0.4166667   0.0833333), wk =   0.0555556
        k(   21) = (   0.4166667  -0.4166667   0.9166667), wk =   0.0555556
        k(   22) = (   0.2500000  -0.2500000   0.7500000), wk =   0.0555556
        k(   23) = (  -0.2500000   0.5833333   0.2500000), wk =   0.0555556
        k(   24) = (   0.5833333  -0.2500000   1.0833333), wk =   0.1111111
        k(   25) = (   0.4166667  -0.0833333   0.9166667), wk =   0.1111111
        k(   26) = (  -0.2500000  -1.0833333   0.2500000), wk =   0.0555556
        k(   27) = (  -0.4166667   0.4166667   0.4166667), wk =   0.0185185
        k(   28) = (   0.4166667  -0.4166667   1.2500000), wk =   0.0555556

     Dense  grid:     6423 G-vectors     FFT dimensions: (  32,  32,  32)

     Estimated max dynamical RAM per process >       6.73 MB

     Initial potential from superposition of free atoms

     starting charge       7.9990, renormalised to       8.0000
     Starting wfcs are    8 randomized atomic wfcs

     total cpu time spent up to now is        0.4 secs

     Self-consistent Calculation

     iteration #  1     ecut=    32.00 Ry     beta= 0.70
     Davidson diagonalization with overlap
     ethr =  1.00E-02,  avg # of iterations =  2.0

     Threshold (ethr) on eigenvalues was too large:
     Diagonalizing with lowered threshold

     Davidson diagonalization with overlap
     ethr =  6.93E-04,  avg # of iterations =  1.0

     total cpu time spent up to now is        0.6 secs

     total energy              =     -15.84885832 Ry
     estimated scf accuracy    <       0.06113545 Ry

     iteration #  2     ecut=    32.00 Ry     beta= 0.70
     Davidson diagonalization with overlap
     ethr =  7.64E-04,  avg # of iterations =  1.0

     total cpu time spent up to now is        0.7 secs

     total energy              =     -15.85211102 Ry
     estimated scf accuracy    <       0.00220833 Ry

     iteration #  3     ecut=    32.00 Ry     beta= 0.70
     Davidson diagonalization with overlap
     ethr =  2.76E-05,  avg # of iterations =  2.5

     total cpu time spent up to now is        0.9 secs

     total energy              =     -15.85260910 Ry
     estimated scf accuracy    <       0.00007473 Ry

     iteration #  4     ecut=    32.00 Ry     beta= 0.70
     Davidson diagonalization with overlap
     ethr =  9.34E-07,  avg # of iterations =  3.0

     total cpu time spent up to now is        1.0 secs

     total energy              =     -15.85263888 Ry
     estimated scf accuracy    <       0.00000255 Ry

     iteration #  5     ecut=    32.00 Ry     beta= 0.70
     Davidson diagonalization with overlap
     ethr =  3.19E-08,  avg # of iterations =  3.8

     total cpu time spent up to now is        1.2 secs

     End of self-consistent calculation

          k =-0.0833 0.0833 0.0833 (   824 PWs)   bands (ev):

    -5.7287   5.3728   6.0835   6.0835

          k =-0.2500 0.2500-0.0833 (   818 PWs)   bands (ev):

    -5.2424   3.2805   4.8178   5.8737

          k =-0.4167 0.4167-0.2500 (   812 PWs)   bands (ev):

    -4.1221   0.4627   4.3538   5.2245

          k = 0.4167-0.4167 0.5833 (   808 PWs)   bands (ev):

    -3.3940  -0.7189   4.4274   4.8339

          k = 0.2500-0.2500 0.4167 (   813 PWs)   bands (ev):

    -4.5460   1.3284   4.8909   4.9372

          k = 0.0833-0.0833 0.2500 (   820 PWs)   bands (ev):

    -5.4833   4.3063   5.4205   5.6225

          k =-0.0833 0.4167 0.0833 (   822 PWs)   bands (ev):

    -4.9967   3.1174   4.6670   4.6741

          k =-0.2500 0.5833-0.0833 (   816 PWs)   bands (ev):

    -4.0659   1.2569   3.3061   4.2791

          k = 0.5833-0.2500 0.7500 (   810 PWs)   bands (ev):

    -2.9096  -0.5533   2.7004   4.0423

          k = 0.4167-0.0833 0.5833 (   812 PWs)   bands (ev):

    -3.6591   0.5438   2.6436   4.5454

          k = 0.2500 0.0833 0.4167 (   817 PWs)   bands (ev):

    -4.7658   2.2536   4.0225   5.2366

          k =-0.0833 0.7500 0.0833 (   805 PWs)   bands (ev):

    -3.3416   0.4409   3.2656   3.6234

          k = 0.7500-0.0833 0.9167 (   800 PWs)   bands (ev):

    -2.1148  -0.9195   2.3871   3.1964

          k = 0.5833 0.0833 0.7500 (   807 PWs)   bands (ev):

    -2.4819  -0.5993   1.8919   3.7582

          k = 0.4167 0.2500 0.5833 (   808 PWs)   bands (ev):

    -3.5385  -0.1887   3.6309   4.6482

          k =-0.0833-0.9167 0.0833 (   802 PWs)   bands (ev):

    -2.2143  -0.9305   2.9880   3.4035

          k =-0.2500-0.7500-0.0833 (   808 PWs)   bands (ev):

    -3.1659   0.2095   2.7262   3.5457

          k =-0.0833-0.5833 0.0833 (   822 PWs)   bands (ev):

    -4.2776   1.8198   3.8288   4.0546

          k =-0.2500 0.2500 0.2500 (   815 PWs)   bands (ev):

    -5.0076   2.2765   5.4591   5.4591

          k =-0.4167 0.4167 0.0833 (   813 PWs)   bands (ev):

    -4.3128   1.3531   3.2695   5.2890

          k = 0.4167-0.4167 0.9167 (   806 PWs)   bands (ev):

    -3.1001  -0.0988   2.1250   4.4816

          k = 0.2500-0.2500 0.7500 (   808 PWs)   bands (ev):

    -3.0493  -0.1787   2.6248   3.9862

          k =-0.2500 0.5833 0.2500 (   815 PWs)   bands (ev):

    -3.8777   0.5232   3.7638   4.3682

          k = 0.5833-0.2500 1.0833 (   809 PWs)   bands (ev):

    -2.8497  -0.1961   2.2256   3.5379

          k = 0.4167-0.0833 0.9167 (   805 PWs)   bands (ev):

    -1.9976  -0.9274   2.0440   2.8460

          k =-0.2500-1.0833 0.2500 (   812 PWs)   bands (ev):

    -2.2112  -0.8442   1.9141   3.7871

          k =-0.4167 0.4167 0.4167 (   805 PWs)   bands (ev):

    -3.7791  -0.3065   5.0661   5.0661

          k = 0.4167-0.4167 1.2500 (   811 PWs)   bands (ev):

    -3.1547  -0.6030   3.1926   4.6124

     highest occupied level (ev):     6.0835

!    total energy              =     -15.85264032 Ry
     estimated scf accuracy    <       0.00000008 Ry

     The total energy is the sum of the following terms:
     one-electron contribution =       4.78579234 Ry
     hartree contribution      =       1.07824910 Ry
     xc contribution           =      -4.81692314 Ry
     ewald contribution        =     -16.89975862 Ry

     convergence has been achieved in   5 iterations

     Writing all to output data dir ../tmp/silicon.save/ :
     XML data file, charge density, pseudopotentials, collected wavefunctions

     init_run     :      0.33s CPU      0.33s WALL (       1 calls)
     electrons    :      0.84s CPU      0.87s WALL (       1 calls)

     Called by init_run:
     wfcinit      :      0.19s CPU      0.19s WALL (       1 calls)
     potinit      :      0.01s CPU      0.01s WALL (       1 calls)
     hinit0       :      0.13s CPU      0.13s WALL (       1 calls)

     Called by electrons:
     c_bands      :      0.71s CPU      0.73s WALL (       6 calls)
     sum_band     :      0.12s CPU      0.13s WALL (       6 calls)
     v_of_rho     :      0.01s CPU      0.01s WALL (       6 calls)
     mix_rho      :      0.00s CPU      0.00s WALL (       6 calls)

     Called by c_bands:
     init_us_2    :      0.03s CPU      0.03s WALL (     364 calls)
     cegterg      :      0.68s CPU      0.70s WALL (     168 calls)

     Called by *egterg:
     cdiaghg      :      0.01s CPU      0.01s WALL (     512 calls)
     h_psi        :      0.76s CPU      0.78s WALL (     568 calls)
     g_psi        :      0.00s CPU      0.00s WALL (     372 calls)

     Called by h_psi:
     h_psi:calbec :      0.02s CPU      0.02s WALL (     568 calls)
     vloc_psi     :      0.71s CPU      0.72s WALL (     568 calls)
     add_vuspsi   :      0.02s CPU      0.02s WALL (     568 calls)

     General routines
     calbec       :      0.02s CPU      0.02s WALL (     568 calls)
     fft          :      0.12s CPU      0.12s WALL (      18 calls)
     ffts         :      0.00s CPU      0.00s WALL (       6 calls)
     fftw         :      0.67s CPU      0.69s WALL (    4866 calls)

     Parallel routines

     PWSCF        :      1.21s CPU      1.24s WALL


   This run was terminated on:  15:38: 9   6Oct2026            

=------------------------------------------------------------------------------=
   JOB DONE.
=------------------------------------------------------------------------------=
